# vtk DataFile Version 4.0
vtk output
ASCII
DATASET UNSTRUCTURED_GRID
POINTS 6166 float
-4.3633327e-01 9.6409470e-01 4.4200001e+01 
-4.3633261e-01 9.6409082e-01 4.4079685e+01 
-3.2145375e-01 9.1276109e-01 4.4200001e+01 
-3.8566181e-01 8.4097892e-01 4.4200001e+01 
-3.3069235e-01 9.1895354e-01 4.4019413e+01 
-3.8473952e-01 8.3919770e-01 4.4024357e+01 
-4.3633196e-01 9.6408689e-01 4.3958702e+01 
-2.1293370e-01 8.4677851e-01 4.4200001e+01 
-2.9042658e-01 7.3813015e-01 4.4200001e+01 
-2.1019450e-01 8.4669626e-01 4.4077393e+01 
-2.8909999e-01 7.3605996e-01 4.4073399e+01 
-3.2963324e-01 9.1929907e-01 4.3898094e+01 
-3.8679782e-01 8.4179753e-01 4.3889645e+01 
-2.0740938e-01 8.4661204e-01 4.3952713e+01 
-4.3633130e-01 9.6408290e-01 4.3837040e+01 
-1.1677200e-01 7.7521002e-01 4.4200001e+01 
-2.8775173e-01 7.3395580e-01 4.3944717e+01 
-1.9365783e-01 6.6203654e-01 4.4200001e+01 
-1.1309985e-01 7.7540898e-01 4.4012005e+01 
-1.9181472e-01 6.5888047e-01 4.4006447e+01 
-3.2856464e-01 9.1964108e-01 4.3776085e+01 
-3.8823184e-01 8.4352189e-01 4.3765770e+01 
-2.0457739e-01 8.4652513e-01 4.3825886e+01 
-2.8638119e-01 7.3181647e-01 4.3813885e+01 
-4.3633065e-01 9.6407896e-01 4.3714680e+01 
-1.0911675e-01 7.7426714e-01 4.3886200e+01 
-2.1001574e-02 6.8269837e-01 4.4200001e+01 
-1.8902887e-01 6.5566909e-01 4.3876659e+01 
-7.8887597e-02 5.9015810e-01 4.4200001e+01 
-3.2748649e-01 9.1997939e-01 4.3653378e+01 
-3.9889076e-01 8.5876143e-01 4.3651733e+01 
-2.0169757e-01 8.4643483e-01 4.3696846e+01 
-7.2496021e-03 6.7325598e-01 4.3947758e+01 
-1.0504345e-01 7.7307969e-01 4.3758209e+01 
-2.8498772e-01 7.2964084e-01 4.3680840e+01 
-6.3224643e-02 5.7783771e-01 4.3940754e+01 
3.5808440e-02 6.2679136e-01 4.4056572e+01 
-1.8616955e-01 6.5238589e-01 4.3744686e+01 
-4.3632996e-01 9.6407503e-01 4.3591618e+01 
-9.8678423e-03 5.4892725e-01 4.4055367e+01 
-1.8652271e-02 6.8798620e-01 4.3834026e+01 
-7.9845116e-02 5.8636194e-01 4.3823372e+01 
8.7777540e-02 5.7885915e-01 4.4200001e+01 
5.3622175e-02 5.1732427e-01 4.4200001e+01 
-3.2639861e-01 9.2031354e-01 4.3529953e+01 
-3.9894739e-01 8.5844576e-01 4.3528313e+01 
-1.9876897e-01 8.4634024e-01 4.3565521e+01 
-1.0087753e-01 7.7184403e-01 4.3627972e+01 
-2.8357074e-01 7.2742778e-01 4.3545506e+01 
-1.8323407e-01 6.4902818e-01 4.3610458e+01 
-4.3632931e-01 9.6407109e-01 4.3467831e+01 
3.1033519e-03 6.6751039e-01 4.3691772e+01 
-5.3600248e-02 5.6906003e-01 4.3676846e+01 
1.2436585e-01 5.5082864e-01 4.3886215e+01 
1.7079005e-01 5.1095647e-01 4.4054855e+01 
1.4951277e-01 4.6697062e-01 4.4053665e+01 
1.0028158e-01 4.8915190e-01 4.3877911e+01 
-4.0513036e-01 8.6722642e-01 4.3405304e+01 
-3.2530096e-01 9.2064321e-01 4.3405800e+01 
-9.6616447e-02 7.7055699e-01 4.3495411e+01 
-8.4563000e-03 6.8258613e-01 4.3574005e+01 
-1.9579062e-01 8.4624058e-01 4.3431831e+01 
2.1753120e-01 4.7335833e-01 4.4200001e+01 
2.0360756e-01 4.4289169e-01 4.4200001e+01 
-1.8021962e-01 6.4559317e-01 4.3473904e+01 
-7.0636064e-02 5.7773441e-01 4.3555408e+01 
-2.8212959e-01 7.2517604e-01 4.3407806e+01 
-4.3632865e-01 9.6406716e-01 4.3343307e+01 
1.3810426e-01 5.4143524e-01 4.3628246e+01 
-3.2419339e-01 9.2096806e-01 4.3280907e+01 
-3.9903235e-01 8.5775709e-01 4.3279266e+01 
-9.2257597e-02 7.6921552e-01 4.3360443e+01 
1.1508528e-01 4.7804743e-01 4.3612068e+01 
-1.9276154e-01 8.4613472e-01 4.3295704e+01 
1.4013666e-02 6.6131532e-01 4.3426643e+01 
-1.7712323e-01 6.4207786e-01 4.3334946e+01 
-2.8066361e-01 7.2288430e-01 4.3267666e+01 
-4.3382257e-02 5.5983055e-01 4.3403778e+01 
-4.3632799e-01 9.6406323e-01 4.3218033e+01 
3.7877345e-01 3.8273901e-01 4.4200001e+01 
3.9076596e-01 3.7443376e-01 4.3993755e+01 
-3.2307580e-01 9.2128778e-01 4.3155251e+01 
-3.9906058e-01 8.5738426e-01 4.3153610e+01 
-8.7798268e-02 7.6781619e-01 4.3222996e+01 
1.9689407e-02 6.5803534e-01 4.3290459e+01 
-6.0862999e-02 5.6866169e-01 4.3278019e+01 
-1.8968078e-01 8.4602165e-01 4.3157055e+01 
-1.7394182e-01 6.3847917e-01 4.3193501e+01 
-4.3632734e-01 9.6405929e-01 4.3091995e+01 
4.0275589e-01 3.6612594e-01 4.3787510e+01 
1.2304078e-01 5.5709994e-01 4.3330139e+01 
-2.7917209e-01 7.2055119e-01 4.3125000e+01 
2.5336364e-01 4.4907436e-01 4.3468094e+01 
2.3670304e-01 4.1684708e-01 4.3469433e+01 
1.3086085e-01 4.6634668e-01 4.3336948e+01 
-3.8351217e-01 8.3473074e-01 4.3036392e+01 
-3.2194808e-01 9.2160189e-01 4.3028820e+01 
2.5518833e-02 6.5462554e-01 4.3151749e+01 
-8.3235659e-02 7.6635528e-01 4.3082981e+01 
4.1474071e-01 3.5781288e-01 4.3581264e+01 
-1.8654740e-01 8.4590012e-01 4.3015797e+01 
-3.2522827e-02 5.5011308e-01 4.3120937e+01 
-1.7067213e-01 6.3479382e-01 4.3049488e+01 
-4.3632668e-01 9.6405542e-01 4.2965172e+01 
-2.7765438e-01 7.1817529e-01 4.2979721e+01 
2.6620242e-01 4.4011977e-01 4.3261948e+01 
1.3584816e-02 6.7044950e-01 4.3025066e+01 
-3.2081014e-01 9.2191011e-01 4.2901604e+01 
-3.8160574e-01 8.3169121e-01 4.2902863e+01 
-7.8566879e-02 7.6482886e-01 4.2940315e+01 
-5.0480481e-02 5.5910730e-01 4.2990566e+01 
4.2671782e-01 3.4949207e-01 4.3375019e+01 
1.6821145e-01 5.2049083e-01 4.3083881e+01 
-1.8336046e-01 8.4576881e-01 4.2871841e+01 
-4.3632606e-01 9.6405160e-01 4.2837555e+01 
-1.6731077e-01 6.3101834e-01 4.2902817e+01 
1.4768846e-01 4.5400122e-01 4.3051926e+01 
-2.7610970e-01 7.1575516e-01 4.2831745e+01 
-3.1966189e-01 9.2221189e-01 4.2773579e+01 
-3.8560396e-01 8.3684862e-01 4.2767078e+01 
3.7660085e-02 6.4738947e-01 4.2866421e+01 
-7.3788933e-02 7.6323271e-01 4.2794899e+01 
4.3868470e-01 3.4116083e-01 4.3168777e+01 
-4.3632543e-01 9.6404779e-01 4.2709122e+01 
-2.0968946e-02 5.3986710e-01 4.2827656e+01 
-1.8011902e-01 8.4562629e-01 4.2725094e+01 
-1.6385415e-01 6.2714905e-01 4.2753403e+01 
-2.7453732e-01 7.1328926e-01 4.2680973e+01 
-3.1850323e-01 9.2250693e-01 4.2644733e+01 
-3.9907700e-01 8.5570478e-01 4.2643101e+01 
2.5504474e-02 6.6361672e-01 4.2734810e+01 
1.8471870e-01 5.0880390e-01 4.2796177e+01 
-6.8898737e-02 7.6156229e-01 4.2646645e+01 
-3.9438177e-02 5.4903054e-01 4.2692345e+01 
-4.3632481e-01 9.6404403e-01 4.2579861e+01 
4.5063871e-01 3.3281663e-01 4.2962532e+01 
1.6565691e-01 4.4095638e-01 4.2756321e+01 
-1.7682223e-01 8.4547096e-01 4.2575459e+01 
-1.6029853e-01 6.2318206e-01 4.2601143e+01 
-4.0415615e-01 8.6278629e-01 4.2516582e+01 
-3.1733403e-01 9.2279470e-01 4.2515053e+01 
-2.7293649e-01 7.1077597e-01 4.2527313e+01 
5.0482783e-02 6.3954860e-01 4.2569923e+01 
-4.3632418e-01 9.6404034e-01 4.2449757e+01 
-6.3893095e-02 7.5981271e-01 4.2495445e+01 
-8.6617703e-03 5.2904755e-01 4.2523201e+01 
-1.7346917e-01 8.4530097e-01 4.2422829e+01 
-1.5663996e-01 6.1911333e-01 4.2445942e+01 
3.0435190e-01 4.1341871e-01 4.2643494e+01 
4.6257737e-01 3.2445681e-01 4.2756287e+01 
-3.1615424e-01 9.2307472e-01 4.2384518e+01 
-3.9902648e-01 8.5475212e-01 4.2382885e+01 
-2.7130640e-01 7.0821363e-01 4.2370659e+01 
3.8079392e-02 6.5619886e-01 4.2433029e+01 
2.0230262e-01 4.9620378e-01 4.2497147e+01 
-4.3632355e-01 9.6403670e-01 4.2318787e+01 
-5.8768708e-02 7.5797862e-01 4.2341198e+01 
-2.7680276e-02 5.3838593e-01 4.2382599e+01 
1.8486446e-01 4.2715022e-01 4.2449394e+01 
-3.8436696e-01 8.3356136e-01 4.2264896e+01 
8.9545198e-02 5.3233254e-01 4.2382050e+01 
-3.3225983e-01 9.3122375e-01 4.2255634e+01 
-1.7005907e-01 8.4511453e-01 4.2267101e+01 
-1.5287429e-01 6.1493850e-01 4.2287693e+01 
4.7449806e-01 3.1607881e-01 4.2550037e+01 
-2.6964626e-01 7.0560038e-01 4.2210907e+01 
-4.3632296e-01 9.6403313e-01 4.2186939e+01 
6.4036883e-02 6.3103610e-01 4.2261456e+01 
-5.3522192e-02 7.5605446e-01 4.2183796e+01 
-3.7873057e-01 8.2541841e-01 4.2124020e+01 
-3.1376252e-01 9.2360973e-01 4.2120819e+01 
4.4639236e-03 5.1760370e-01 4.2206776e+01 
-1.6659111e-01 8.4490943e-01 4.2108162e+01 
-1.4899719e-01 6.1065292e-01 4.2126286e+01 
-4.3632239e-01 9.6402961e-01 4.2054195e+01 
4.8639825e-01 3.0768004e-01 4.2343792e+01 
-2.6795524e-01 7.0293444e-01 4.2047943e+01 
2.4746621e-01 4.6040925e-01 4.2191032e+01 
7.1105182e-02 6.2650448e-01 4.2102463e+01 
-3.1255043e-01 9.2386365e-01 4.1987617e+01 
-4.8150036e-02 7.5403398e-01 4.2023121e+01 
-1.5144684e-02 5.2712250e-01 4.2060505e+01 
-3.7995064e-01 8.2661813e-01 4.1980038e+01 
2.0541981e-01 4.1251117e-01 4.2130333e+01 
-1.6306458e-01 8.4468329e-01 4.1945896e+01 
-4.3632182e-01 9.6402621e-01 4.1920536e+01 
-1.4500406e-01 6.0625184e-01 4.1961609e+01 
1.3375351e-01 5.6370503e-01 4.1969833e+01 
-2.6623246e-01 7.0021385e-01 4.1881653e+01 
-3.1132740e-01 9.2410773e-01 4.1853493e+01 
-3.9880505e-01 8.5261923e-01 4.1851868e+01 
4.9827534e-01 2.9925787e-01 4.2137547e+01 
3.4194937e-01 3.8685825e-01 4.2025021e+01 
-4.2648647e-02 7.5191063e-01 4.1859051e+01 
-2.5401810e-01 7.9503769e-01 4.1808533e+01 
1.8480448e-02 5.0547802e-01 4.1877510e+01 
-4.3632126e-01 9.6402287e-01 4.1785946e+01 
-1.5947884e-01 8.4443361e-01 4.1780174e+01 
-1.4089009e-01 6.0172999e-01 4.1793541e+01 
-3.1009343e-01 9.2434150e-01 4.1718426e+01 
-4.0306881e-01 8.5845691e-01 4.1716179e+01 
8.5861288e-02 6.1683756e-01 4.1774368e+01 
-2.6447710e-01 6.9743657e-01 4.1711910e+01 
3.0427080e-01 4.1638452e-01 4.1839512e+01 
2.6751360e-01 3.7833902e-01 4.1830902e+01 
5.1012677e-01 2.9080975e-01 4.1931297e+01 
-3.7014309e-02 7.4967718e-01 4.1691463e+01 
-4.3632072e-01 9.6401966e-01 4.1650398e+01 
2.5847588e-02 4.9913955e-01 4.1707767e+01 
-1.5583332e-01 8.4415752e-01 4.1610870e+01 
-3.8322043e-01 8.2981020e-01 4.1595791e+01 
-3.0884841e-01 9.2456430e-01 4.1582397e+01 
-1.3665022e-01 5.9708190e-01 4.1621960e+01 
9.3565010e-02 6.1167872e-01 4.1605015e+01 
-2.6268822e-01 6.9460052e-01 4.1538593e+01 
-4.3632022e-01 9.6401656e-01 4.1513885e+01 
-3.1243213e-02 7.4732590e-01 4.1520226e+01 
2.7603787e-01 3.7115356e-01 4.1624012e+01 
2.8505871e-01 4.3281260e-01 4.1611507e+01 
5.2195001e-01 2.8233302e-01 4.1725052e+01 
3.3468332e-02 4.9260557e-01 4.1534447e+01 
-3.9853087e-01 8.5081697e-01 4.1443768e+01 
-3.2560509e-01 9.3245691e-01 4.1443577e+01 
-1.5212752e-01 8.4385180e-01 4.1437847e+01 
-1.3227913e-01 5.9230179e-01 4.1446728e+01 
-4.3631971e-01 9.6401358e-01 4.1376381e+01 
1.2890197e-01 5.7639861e-01 4.1457245e+01 
-2.6086491e-01 6.9170344e-01 4.1361557e+01 
-2.5331443e-02 7.4484849e-01 4.1345196e+01 
-3.0632511e-01 9.2497438e-01 4.1307381e+01 
-3.9841840e-01 8.5017681e-01 4.1305759e+01 
4.1354220e-02 4.8586661e-01 4.1357414e+01 
2.9682243e-01 3.5827246e-01 4.1427094e+01 
5.3374243e-01 2.7382511e-01 4.1518803e+01 
-1.4836112e-01 8.4351313e-01 4.1260967e+01 
3.2500479e-01 4.0170339e-01 4.1395309e+01 
-4.3631923e-01 9.6401078e-01 4.1237865e+01 
-1.2777117e-01 5.8738327e-01 4.1267712e+01 
1.5427123e-01 5.5329269e-01 4.1274937e+01 
-3.0504674e-01 9.2516035e-01 4.1168354e+01 
-3.9829516e-01 8.4951663e-01 4.1166733e+01 
-2.5900626e-01 6.8874294e-01 4.1180668e+01 
-1.9274991e-02 7.4223584e-01 4.1166229e+01 
4.9517434e-02 4.7891253e-01 4.1176529e+01 
-4.3631878e-01 9.6400803e-01 4.1098324e+01 
2.9315546e-01 3.5693908e-01 4.1229191e+01 
5.4550153e-01 2.6528344e-01 4.1312557e+01 
-1.4453386e-01 8.4313762e-01 4.1080074e+01 
-1.2312046e-01 5.8231986e-01 4.1084766e+01 
3.4396276e-01 3.8745111e-01 4.1194946e+01 
-3.0375719e-01 9.2533267e-01 4.1028286e+01 
-3.9816108e-01 8.4883618e-01 4.1026669e+01 
1.6587321e-01 5.4433066e-01 4.1084641e+01 
-2.5711134e-01 6.8571651e-01 4.0995773e+01 
-4.3631837e-01 9.6400553e-01 4.0957729e+01 
-1.3069742e-02 7.3947805e-01 4.0983170e+01 
5.7970874e-02 4.7173253e-01 4.0991646e+01 
-3.0245644e-01 9.2549050e-01 4.0887154e+01 
-3.9801607e-01 8.4813517e-01 4.0885540e+01 
-1.4064568e-01 8.4272110e-01 4.0895012e+01 
5.5722475e-01 2.5670537e-01 4.1106308e+01 
-1.1832076e-01 5.7710439e-01 4.0897736e+01 
2.9129377e-01 3.5413662e-01 4.0995243e+01 
3.6381775e-01 3.7250710e-01 4.0995941e+01 
-4.3631795e-01 9.6400315e-01 4.0816063e+01 
1.7522074e-01 5.3758878e-01 4.0890903e+01 
-2.5517914e-01 6.8262166e-01 4.0806721e+01 
-6.7114956e-03 7.3656458e-01 4.0795856e+01 
9.4512470e-02 4.4951904e-01 4.0831482e+01 
-3.0114451e-01 9.2563313e-01 4.0744942e+01 
-3.9785996e-01 8.4741342e-01 4.0743328e+01 
-1.3669670e-01 8.4225899e-01 4.0705612e+01 
5.6890941e-01 2.4808833e-01 4.0900059e+01 
-4.3631759e-01 9.6400094e-01 4.0673302e+01 
-1.1336548e-01 5.7172936e-01 4.0706459e+01 
3.7260666e-01 3.6610016e-01 4.0793392e+01 
3.3217925e-01 3.3117291e-01 4.0770851e+01 
1.7339012e-01 5.4207939e-01 4.0695965e+01 
-2.9982141e-01 9.2575973e-01 4.0601627e+01 
-3.9769265e-01 8.4667057e-01 4.0600014e+01 
-2.5320867e-01 6.7945558e-01 4.0613342e+01 
-1.9596070e-04 7.3348373e-01 4.0604118e+01 
1.2257566e-01 4.3180183e-01 4.0638500e+01 
-4.3631727e-01 9.6399891e-01 4.0529427e+01 
-1.3268721e-01 8.4174603e-01 4.0511707e+01 
-2.4074638e-01 7.8622729e-01 4.0505550e+01 
5.8055311e-01 2.3942973e-01 4.0693806e+01 
-1.0824771e-01 5.6618661e-01 4.0510773e+01 
3.6724222e-01 3.7066141e-01 4.0592598e+01 
-2.9848710e-01 9.2586935e-01 4.0457184e+01 
-3.9751399e-01 8.4590632e-01 4.0455574e+01 
1.7014693e-01 5.4824108e-01 4.0498928e+01 
3.5566819e-01 3.1669301e-01 4.0566025e+01 
-2.5119898e-01 6.7621541e-01 4.0415470e+01 
-4.3631694e-01 9.6399713e-01 4.0384415e+01 
6.4812335e-03 7.3022294e-01 4.0407780e+01 
1.3452047e-01 4.2257959e-01 4.0437843e+01 
-2.9714170e-01 9.2596114e-01 4.0311588e+01 
-3.9732382e-01 8.4512037e-01 4.0309986e+01 
-1.2861779e-01 8.4117657e-01 4.0313107e+01 
5.9215313e-01 2.3072696e-01 4.0487556e+01 
-1.0296013e-01 5.6046754e-01 4.0310497e+01 
3.7531263e-01 3.6468279e-01 4.0390594e+01 
-4.3631670e-01 9.6399552e-01 4.0238239e+01 
1.7349015e-01 5.4764569e-01 4.0298916e+01 
3.8352361e-01 3.0013832e-01 4.0364864e+01 
-2.0965321e-01 8.0330169e-01 4.0208332e+01 
-2.4914904e-01 6.7289811e-01 4.0212914e+01 
1.3324531e-02 7.2676849e-01 4.0206646e+01 
-2.9578519e-01 9.2603409e-01 4.0164825e+01 
1.5498349e-01 4.0880439e-01 4.0230278e+01 
-3.7793285e-01 8.1769615e-01 4.0145550e+01 
-1.2448928e-01 8.4054446e-01 4.0109619e+01 
-4.3631646e-01 9.6399415e-01 4.0090881e+01 
6.0370702e-01 2.2197743e-01 4.0281303e+01 
-6.7120045e-02 5.3496981e-01 4.0106556e+01 
3.7378946e-01 3.6622733e-01 4.0180889e+01 
1.6374868e-01 5.6120396e-01 4.0101971e+01 
4.2951518e-01 2.7528420e-01 4.0169880e+01 
-2.9537955e-01 9.2645460e-01 4.0017376e+01 
-3.9741483e-01 8.4422642e-01 4.0015785e+01 
-2.4705783e-01 6.6950041e-01 4.0005489e+01 
1.9215891e-02 7.2424233e-01 4.0001453e+01 
-4.3631628e-01 9.6399307e-01 3.9943344e+01 
1.7140065e-01 3.9652476e-01 3.9981903e+01 
-1.2033844e-01 8.3984888e-01 3.9902824e+01 
6.1521214e-01 2.1317853e-01 4.0075054e+01 
-2.9588556e-01 9.2719668e-01 3.9870216e+01 
-3.9816952e-01 8.4482712e-01 3.9868652e+01 
-9.6083008e-02 5.5130482e-01 3.9898266e+01 
4.4114962e-01 2.6624772e-01 3.9963654e+01 
3.9149636e-01 3.5250095e-01 3.9929436e+01 
1.7394400e-01 5.5375928e-01 3.9859837e+01 
-4.3631613e-01 9.6399224e-01 3.9796574e+01 
-2.4497955e-01 6.6610926e-01 3.9798500e+01 
2.1251520e-02 7.2557068e-01 3.9796185e+01 
1.0008471e-01 4.3171608e-01 3.9788097e+01 
-2.9639423e-01 9.2790753e-01 3.9723824e+01 
-3.7747046e-01 8.1551635e-01 3.9714172e+01 
-1.1629167e-01 8.3910793e-01 3.9698898e+01 
6.2666595e-01 2.0432767e-01 3.9868801e+01 
-9.6320905e-02 5.4916233e-01 3.9692642e+01 
-4.3631604e-01 9.6399170e-01 3.9650558e+01 
1.6719975e-01 5.6401205e-01 3.9686245e+01 
3.5377127e-01 3.0371076e-01 3.9739113e+01 
4.7477302e-01 2.8887156e-01 3.9757153e+01 
3.0574247e-01 4.2499954e-01 3.9672375e+01 
-2.4293602e-01 6.6275990e-01 3.9594097e+01 
-2.9690960e-01 9.2858899e-01 3.9578175e+01 
-3.9961496e-01 8.4597754e-01 3.9576656e+01 
2.3268344e-02 7.2677690e-01 3.9593742e+01 
9.6894532e-02 4.3057439e-01 3.9583912e+01 
-4.3631601e-01 9.6399140e-01 3.9505287e+01 
-1.1234748e-01 8.3832091e-01 3.9497757e+01 
6.3806581e-01 1.9542229e-01 3.9662548e+01 
-9.6512228e-02 5.4702413e-01 3.9489563e+01 
-3.7133595e-01 8.0653465e-01 3.9448406e+01 
-2.9743141e-01 9.2924124e-01 3.9433262e+01 
1.6693445e-01 5.6753051e-01 3.9485374e+01 
4.8641685e-01 2.7980414e-01 3.9550976e+01 
4.6423796e-01 2.4806130e-01 3.9551197e+01 
-2.4092655e-01 6.5945101e-01 3.9392204e+01 
2.9173344e-01 3.2857794e-01 3.9472214e+01 
2.5263308e-02 7.2786492e-01 3.9394039e+01 
-4.3631601e-01 9.6399140e-01 3.9360741e+01 
3.1957752e-01 4.1370606e-01 3.9437614e+01 
9.3846805e-02 4.2940414e-01 3.9382236e+01 
-2.9795927e-01 9.2986453e-01 3.9289070e+01 
-1.0850435e-01 8.3748740e-01 3.9299320e+01 
6.4940923e-01 1.8645976e-01 3.9456295e+01 
-9.6660353e-02 5.4488993e-01 3.9288963e+01 
-3.6477369e-01 7.9745764e-01 3.9261444e+01 
1.6677365e-01 5.7087767e-01 3.9287197e+01 
-4.3631604e-01 9.6399170e-01 3.9216911e+01 
4.9798143e-01 2.7069491e-01 3.9344795e+01 
4.7568771e-01 2.3890665e-01 3.9344971e+01 
-2.3895049e-01 6.5618151e-01 3.9192757e+01 
2.7233703e-02 7.2883826e-01 3.9196999e+01 
-2.9849288e-01 9.3045920e-01 3.9145588e+01 
-4.0164149e-01 8.4760255e-01 3.9144138e+01 
2.7302873e-01 3.3345193e-01 3.9231853e+01 
3.3119568e-01 4.0415293e-01 3.9231525e+01 
9.0933450e-02 4.2820513e-01 3.9182991e+01 
-1.7724583e-01 7.0368117e-01 3.9116810e+01 
-1.0476080e-01 8.3660698e-01 3.9103500e+01 
-4.3631616e-01 9.6399230e-01 3.9073784e+01 
6.6069359e-01 1.7743753e-01 3.9250042e+01 
-3.1234163e-01 7.3238999e-01 3.9070606e+01 
-9.6768402e-02 5.4275954e-01 3.9090763e+01 
1.6669939e-01 5.7405156e-01 3.9091633e+01 
5.0946498e-01 2.6154056e-01 3.9138615e+01 
4.8707193e-01 2.2970787e-01 3.9138741e+01 
-2.9903191e-01 9.3102551e-01 3.9002804e+01 
-4.0228117e-01 8.4811974e-01 3.9001373e+01 
-2.0703617e-01 7.8262061e-01 3.8997940e+01 
-2.3700719e-01 6.5295017e-01 3.8995678e+01 
-8.3649933e-02 6.8493301e-01 3.9001076e+01 
2.9177116e-02 7.2970009e-01 3.9002533e+01 
2.8459311e-01 3.2422322e-01 3.9025654e+01 
3.4271553e-01 3.9457983e-01 3.9025433e+01 
8.8146970e-02 4.2697737e-01 3.8986111e+01 
-4.3631628e-01 9.6399319e-01 3.8931347e+01 
-3.1322432e-01 7.3290074e-01 3.8928207e+01 
-1.0111532e-01 8.3567929e-01 3.8910225e+01 
-4.1317785e-01 8.6590064e-01 3.8873684e+01 
-9.6839279e-02 5.4063272e-01 3.8894897e+01 
6.7191631e-01 1.6835295e-01 3.9043789e+01 
-1.8075582e-01 7.0797896e-01 3.8875389e+01 
-2.9957601e-01 9.3156379e-01 3.8860703e+01 
1.6669671e-01 5.7705182e-01 3.8898605e+01 
5.2086562e-01 2.5233793e-01 3.8932434e+01 
4.9838859e-01 2.2046255e-01 3.8932514e+01 
-4.3631649e-01 9.6399438e-01 3.8789589e+01 
-2.3509599e-01 6.4975590e-01 3.8800900e+01 
3.1091409e-02 7.3045349e-01 3.8810574e+01 
8.5480422e-02 4.2572090e-01 3.8791527e+01 
2.9608971e-01 3.1497237e-01 3.8819454e+01 
3.5413623e-01 3.8498324e-01 3.8819340e+01 
-3.0012488e-01 9.3207455e-01 3.8719276e+01 
-1.9214615e-01 7.2747946e-01 3.8727966e+01 
-4.0350971e-01 8.4912014e-01 3.8717892e+01 
-9.7566418e-02 8.3470410e-01 3.8719418e+01 
-9.6875675e-02 5.3850925e-01 3.8701298e+01 
6.8307489e-01 1.5920344e-01 3.8837536e+01 
1.6675267e-01 5.7987922e-01 3.8708038e+01 
-4.3631673e-01 9.6399587e-01 3.8648502e+01 
-3.1492862e-01 7.3386878e-01 3.8645439e+01 
-7.3290184e-02 6.8585461e-01 3.8616829e+01 
3.2974672e-02 7.3110121e-01 3.8621044e+01 
-2.3321630e-01 6.4659768e-01 3.8608356e+01 
5.3218138e-01 2.4308380e-01 3.8726254e+01 
5.0963557e-01 2.1116835e-01 3.8726284e+01 
-2.1136846e-01 7.4631035e-01 3.8592236e+01 
-2.5367865e-01 8.4606981e-01 3.8586361e+01 
-3.0067819e-01 9.3255806e-01 3.8578510e+01 
-4.0409964e-01 8.4960413e-01 3.8577145e+01 
8.2927294e-02 4.2443573e-01 3.8599174e+01 
3.0751663e-01 3.0569586e-01 3.8613258e+01 
3.6545676e-01 3.7535959e-01 3.8613247e+01 
-9.4112597e-02 8.3368129e-01 3.8531006e+01 
-4.3631706e-01 9.6399766e-01 3.8508068e+01 
-3.1575343e-01 7.3432595e-01 3.8505043e+01 
-9.6880078e-02 5.3638887e-01 3.8509903e+01 
1.6685612e-01 5.8253521e-01 3.8519859e+01 
6.9416672e-01 1.4998643e-01 3.8631283e+01 
-3.0123556e-01 9.3301475e-01 3.8438396e+01 
-4.0467402e-01 8.5007781e-01 3.8437050e+01 
-2.0214497e-01 7.8407001e-01 3.8429195e+01 
3.4825481e-02 7.3164624e-01 3.8433872e+01 
-2.3136747e-01 6.4347440e-01 3.8417992e+01 
5.4341030e-01 2.3377502e-01 3.8520073e+01 
5.2081084e-01 2.0182286e-01 3.8520054e+01 
-4.3631738e-01 9.6399975e-01 3.8368279e+01 
8.0481283e-02 4.2312172e-01 3.8408989e+01 
-3.1656185e-01 7.3476511e-01 3.8365292e+01 
-9.0752386e-02 8.3261055e-01 3.8344921e+01 
3.1887189e-01 2.9639030e-01 3.8407055e+01 
3.7667593e-01 3.6570528e-01 3.8407150e+01 
-4.0523335e-01 8.5054153e-01 3.8297596e+01 
-9.6854798e-02 5.3427142e-01 3.8320648e+01 
1.6699724e-01 5.8502156e-01 3.8334000e+01 
-2.7172443e-01 9.2249376e-01 3.8283646e+01 
-1.9613893e-01 7.8835350e-01 3.8273468e+01 
7.0518917e-01 1.4069928e-01 3.8425030e+01 
-4.3631780e-01 9.6400219e-01 3.8229118e+01 
3.6642607e-02 7.3209119e-01 3.8248993e+01 
-3.1735513e-01 7.3518646e-01 3.8226173e+01 
-2.2954892e-01 6.4038503e-01 3.8229736e+01 
5.5455047e-01 2.2440848e-01 3.8313889e+01 
5.3191227e-01 1.9242364e-01 3.8313824e+01 
7.8136660e-02 4.2177910e-01 3.8220909e+01 
-3.0236131e-01 9.3384969e-01 3.8160069e+01 
-4.0577814e-01 8.5099560e-01 3.8158764e+01 
-8.7484330e-02 8.3149189e-01 3.8161095e+01 
3.6308280e-01 3.7790817e-01 3.8218018e+01 
3.3015352e-01 2.8705218e-01 3.8200855e+01 
1.6716786e-01 5.8734083e-01 3.8150394e+01 
-9.6801959e-02 5.3215665e-01 3.8133476e+01 
-4.3631825e-01 9.6400493e-01 3.8090584e+01 
-3.1813446e-01 7.3558992e-01 3.8087673e+01 
7.1613979e-01 1.3133943e-01 3.8218777e+01 
3.8424380e-02 7.3243809e-01 3.8066338e+01 
-2.6355034e-01 9.1984659e-01 3.8038452e+01 
-2.2776006e-01 6.3732868e-01 3.8043533e+01 
-1.9893612e-01 7.8524345e-01 3.8026730e+01 
-4.0630892e-01 8.5144019e-01 3.8020550e+01 
7.5888239e-02 4.2040819e-01 3.8034878e+01 
5.6559974e-01 2.1498111e-01 3.8107708e+01 
5.4293776e-01 1.8296829e-01 3.8107597e+01 
-8.4306985e-02 8.3032519e-01 3.7979462e+01 
-4.3631876e-01 9.6400797e-01 3.7952660e+01 
-3.1890082e-01 7.3597574e-01 3.7949787e+01 
3.6118418e-01 3.7984353e-01 3.8018970e+01 
-9.6723527e-02 5.3004432e-01 3.7948326e+01 
3.4135944e-01 2.7767807e-01 3.7994656e+01 
1.9184643e-01 5.6068259e-01 3.7946198e+01 
-1.9766289e-01 7.8548044e-01 3.7896580e+01 
-2.5902322e-01 9.1835183e-01 3.7886841e+01 
-4.0682614e-01 8.5187566e-01 3.7882942e+01 
4.0169310e-02 7.3268872e-01 3.7885838e+01 
7.2701597e-01 1.2190428e-01 3.8012524e+01 
-2.2600031e-01 6.3430429e-01 3.7859322e+01 
-4.3631932e-01 9.6401137e-01 3.7815334e+01 
-3.1988919e-01 7.3662996e-01 3.7812500e+01 
7.3731303e-02 4.1900975e-01 3.7850838e+01 
-8.1218928e-02 8.2911044e-01 3.7799957e+01 
5.7655609e-01 2.0548984e-01 3.7901524e+01 
5.5388516e-01 1.7345434e-01 3.7901367e+01 
1.6757067e-01 5.9149063e-01 3.7789677e+01 
-4.0733030e-01 8.5230213e-01 3.7745930e+01 
-9.6621342e-02 5.2793437e-01 3.7765141e+01 
-2.6984286e-01 9.2251605e-01 3.7735622e+01 
3.5300115e-01 3.8775411e-01 3.7789978e+01 
3.5248753e-01 2.6826453e-01 3.7788456e+01 
4.1876085e-02 7.3284483e-01 3.7707436e+01 
-4.3631995e-01 9.6401513e-01 3.7678600e+01 
-3.2102054e-01 7.3745555e-01 3.7675812e+01 
-2.2426912e-01 6.3131106e-01 3.7677052e+01 
7.3781508e-01 1.1239121e-01 3.7806271e+01 
7.1661673e-02 4.1758472e-01 3.7668728e+01 
-1.9184226e-01 7.9102612e-01 3.7630577e+01 
-3.0884391e-01 9.3673497e-01 3.7613117e+01 
-7.8218758e-02 8.2784766e-01 3.7622520e+01 
-4.0782189e-01 8.5271990e-01 3.7609497e+01 
-8.7655850e-02 6.4989412e-01 3.7619450e+01 
8.5772879e-02 5.6929672e-01 3.7620090e+01 
5.8741742e-01 1.9593167e-01 3.7695339e+01 
5.6475234e-01 1.6387939e-01 3.7695137e+01 
-9.6497118e-02 5.2582639e-01 3.7583862e+01 
2.1308169e-01 5.3949976e-01 3.7596794e+01 
-4.3632063e-01 9.6401912e-01 3.7542442e+01 
-3.2213438e-01 7.3825514e-01 3.7539696e+01 
4.3543547e-02 7.3290801e-01 3.7531075e+01 
3.3956534e-01 2.7062982e-01 3.7584141e+01 
-2.2256595e-01 6.2834805e-01 3.7496666e+01 
-3.0522394e-01 9.3550408e-01 3.7474850e+01 
-1.9455920e-01 7.8782409e-01 3.7479897e+01 
-4.0830135e-01 8.5312909e-01 3.7473640e+01 
4.3896979e-01 3.1085175e-01 3.7532280e+01 
1.1034410e-01 3.9192158e-01 3.7487572e+01 
7.4853462e-01 1.0279765e-01 3.7600018e+01 
-7.5305097e-02 8.2653683e-01 3.7447094e+01 
-4.3632138e-01 9.6402353e-01 3.7406853e+01 
1.6801839e-01 5.9501052e-01 3.7437214e+01 
-3.2323176e-01 7.3902899e-01 3.7404152e+01 
-9.6352428e-02 5.2372026e-01 3.7404442e+01 
5.9818166e-01 1.8630360e-01 3.7489151e+01 
5.7553709e-01 1.5424097e-01 3.7488907e+01 
-2.5993490e-01 9.1909039e-01 3.7345070e+01 
-4.0876916e-01 8.5352993e-01 3.7338345e+01 
4.5170743e-02 7.3287976e-01 3.7356689e+01 
-1.9324356e-01 7.8831249e-01 3.7330185e+01 
-2.2089024e-01 6.2541443e-01 3.7318111e+01 
3.7450162e-01 2.4930541e-01 3.7376053e+01 
3.1478500e-01 4.2687806e-01 3.7339424e+01 
-4.3632215e-01 9.6402824e-01 3.7271824e+01 
6.7769051e-02 4.1465878e-01 3.7310101e+01 
-3.2431364e-01 7.3977751e-01 3.7269161e+01 
-7.2476603e-02 8.2517803e-01 3.7273617e+01 
7.5917196e-01 9.3121000e-02 3.7393764e+01 
1.6824925e-01 5.9654391e-01 3.7263931e+01 
-9.6188687e-02 5.2161580e-01 3.7226826e+01 
-4.0922573e-01 8.5392261e-01 3.7203606e+01 
5.5671567e-01 2.1566457e-01 3.7312782e+01 
-2.5241336e-01 9.1630137e-01 3.7197113e+01 
6.1194396e-01 1.3392426e-01 3.7304539e+01 
-1.8836068e-01 7.9202282e-01 3.7181427e+01 
4.6756756e-02 7.3276168e-01 3.7184227e+01 
-4.3632299e-01 9.6403331e-01 3.7137341e+01 
-3.2538131e-01 7.4050063e-01 3.7134724e+01 
-2.1924150e-01 6.2250930e-01 3.7141338e+01 
-6.9731943e-02 8.2377130e-01 3.7102039e+01 
4.4177911e-01 3.0693287e-01 3.7170547e+01 
-7.6777093e-02 6.7757541e-01 3.7099728e+01 
3.9616264e-02 4.2915156e-01 3.7116638e+01 
-4.0967155e-01 8.5430723e-01 3.7069408e+01 
1.6848071e-01 5.9793156e-01 3.7092541e+01 
-2.6605383e-01 9.2136794e-01 3.7052788e+01 
7.6972461e-01 8.3358653e-02 3.7187511e+01 
-9.6007206e-02 5.1951289e-01 3.7050964e+01 
2.8411007e-01 4.6129346e-01 3.7069717e+01 
1.1633321e-01 5.6141746e-01 3.7045486e+01 
-4.3632391e-01 9.6403873e-01 3.7003399e+01 
-3.2643563e-01 7.4119872e-01 3.7000820e+01 
4.8300773e-02 7.3255527e-01 3.7013634e+01 
2.6947722e-01 2.9590872e-01 3.7036716e+01 
6.1941028e-01 1.6682595e-01 3.7076782e+01 
-2.1761918e-01 6.1963183e-01 3.6966297e+01 
5.9685051e-01 1.3476391e-01 3.7076447e+01 
-1.8990839e-01 7.9104519e-01 3.6944523e+01 
-3.0754238e-01 9.3641633e-01 3.6936878e+01 
-4.1010702e-01 8.5468394e-01 3.6935741e+01 
-6.7069821e-02 8.2231677e-01 3.6932304e+01 
6.4181924e-02 4.1163743e-01 3.6958576e+01 
1.6871010e-01 5.9917724e-01 3.6922985e+01 
4.5224503e-01 2.9696283e-01 3.6964443e+01 
-4.3632486e-01 9.6404445e-01 3.6869984e+01 
-3.2747659e-01 7.4187261e-01 3.6867443e+01 
-9.5809169e-02 5.1741141e-01 3.6876808e+01 
-1.1203425e-01 6.8208081e-01 3.6846851e+01 
7.8018993e-01 7.3508024e-02 3.6981258e+01 
4.9802210e-02 7.3226178e-01 3.6844856e+01 
-2.6554283e-01 9.2109144e-01 3.6818615e+01 
-4.1053253e-01 8.5505295e-01 3.6802601e+01 
5.9011690e-02 5.8738285e-01 3.6809330e+01 
-2.1602282e-01 6.1678135e-01 3.6792934e+01 
-6.4488962e-02 8.2081443e-01 3.6764359e+01 
6.2987024e-01 1.5697052e-01 3.6870594e+01 
6.2494747e-02 4.1009262e-01 3.6785355e+01 
-4.3632588e-01 9.6405059e-01 3.6737087e+01 
-3.2850423e-01 7.4252307e-01 3.6734585e+01 
5.2712387e-01 1.6247644e-01 3.6833687e+01 
1.6893514e-01 6.0028446e-01 3.6755219e+01 
2.4232782e-01 3.0520415e-01 3.6751137e+01 
-9.5595688e-02 5.1531130e-01 3.6704311e+01 
3.0782750e-01 4.3632156e-01 3.6734161e+01 
4.6259612e-01 2.8693348e-01 3.6758335e+01 
-4.1094851e-01 8.5541427e-01 3.6669971e+01 
-2.4775547e-01 9.1432184e-01 3.6671177e+01 
5.1260527e-02 7.3188257e-01 3.6677837e+01 
-1.8575343e-01 7.9340583e-01 3.6652317e+01 
7.9056543e-01 6.3566521e-02 3.6775005e+01 
-2.1445192e-01 6.1395699e-01 3.6621212e+01 
-4.3632695e-01 9.6405703e-01 3.6604698e+01 
-3.2951859e-01 7.4315089e-01 3.6602238e+01 
-6.1988134e-02 8.1926441e-01 3.6598156e+01 
6.0874932e-02 4.0852654e-01 3.6613766e+01 
-2.1942625e-02 5.8668840e-01 3.6592506e+01 
1.6915369e-01 6.0125661e-01 3.6589184e+01 
6.4022446e-01 1.4703351e-01 3.6664410e+01 
6.1780769e-01 1.1500354e-01 3.6663990e+01 
-4.1135535e-01 8.5576802e-01 3.6537846e+01 
-9.5367774e-02 5.1321238e-01 3.6533424e+01 
-1.0561960e-01 6.8172252e-01 3.6514606e+01 
-2.4932665e-01 9.1474724e-01 3.6504147e+01 
5.2674916e-02 7.3141873e-01 3.6512539e+01 
4.4493389e-01 1.9778675e-01 3.6582283e+01 
-4.3632811e-01 9.6406382e-01 3.6472809e+01 
4.7283033e-01 2.7684134e-01 3.6552231e+01 
-3.3051956e-01 7.4375683e-01 3.6470387e+01 
-2.1290603e-01 6.1115801e-01 3.6451077e+01 
-5.9566118e-02 8.1766689e-01 3.6433640e+01 
8.0084842e-01 5.3531554e-02 3.6568756e+01 
5.9320018e-02 4.0694007e-01 3.6443764e+01 
-3.0986544e-01 9.3699759e-01 3.6407284e+01 
-4.1175345e-01 8.5611445e-01 3.6406216e+01 
2.3124687e-01 3.0567607e-01 3.6442078e+01 
1.5155420e-01 6.2299389e-01 3.6409306e+01 
-9.5126376e-02 5.1111466e-01 3.6364105e+01 
-4.3632931e-01 9.6407104e-01 3.6341412e+01 
-1.0256201e-01 6.8140972e-01 3.6351006e+01 
6.5047073e-01 1.3701202e-01 3.6458221e+01 
6.2814713e-01 1.0501097e-01 3.6457760e+01 
-2.0137666e-01 8.9513367e-01 3.6340084e+01 
-3.3150718e-01 7.4434161e-01 3.6339027e+01 
5.4044347e-02 7.3087084e-01 3.6348900e+01 
1.6906977e-01 4.5595184e-01 3.6362995e+01 
2.3125511e-02 5.6017601e-01 3.6340263e+01 
-3.2414475e-01 9.4220024e-01 3.6289532e+01 
3.0416873e-01 4.4151002e-01 3.6333767e+01 
-4.1214311e-01 8.5645348e-01 3.6275074e+01 
-2.1138465e-01 6.0838377e-01 3.6282486e+01 
4.8294568e-01 2.6668298e-01 3.6346127e+01 
4.2802092e-01 2.0097876e-01 3.6345051e+01 
-5.7221726e-02 8.1602192e-01 3.6270771e+01 
5.7827659e-02 4.0533417e-01 3.6275307e+01 
1.6956411e-01 6.0280854e-01 3.6262131e+01 
8.1103641e-01 4.3400519e-02 3.6362503e+01 
-4.3633056e-01 9.6407855e-01 3.6210495e+01 
-3.3248141e-01 7.4490595e-01 3.6208149e+01 
-9.9602781e-02 6.8101031e-01 3.6189026e+01 
-9.4872363e-02 5.0901806e-01 3.6196312e+01 
5.5368353e-02 7.3023993e-01 3.6186886e+01 
-2.4468373e-01 9.1243076e-01 3.6148376e+01 
-4.1252479e-01 8.5678536e-01 3.6144405e+01 
6.6060674e-01 1.2690324e-01 3.6252037e+01 
6.3839072e-01 9.4940215e-02 3.6251534e+01 
1.9801831e-01 4.6057722e-01 3.6159576e+01 
-2.0988737e-01 6.0563350e-01 3.6115402e+01 
3.4714052e-01 2.3847018e-01 3.6174728e+01 
-5.4953814e-02 8.1432962e-01 3.6109497e+01 
-4.3633187e-01 9.6408641e-01 3.6080051e+01 
-9.2723845e-03 6.6170400e-01 3.6040791e+01 
-3.4361187e-01 8.5525334e-01 3.6023430e+01 
8.2112682e-01 3.3170834e-02 3.6156250e+01 
-4.3633327e-01 9.6409470e-01 3.5950001e+01 
-3.0786192e-01 9.3574220e-01 3.5950001e+01 
-4.0014124e-01 8.3450782e-01 3.5950001e+01 
-1.8296778e-01 8.8605887e-01 3.5950001e+01 
-3.1429604e-01 7.2153360e-01 3.5950001e+01 
-5.2764308e-02 8.1259257e-01 3.5950001e+01 
-2.0841572e-01 6.0291016e-01 3.5950001e+01 
7.3435359e-02 7.1221334e-01 3.5950001e+01 
-8.1316888e-02 4.9587393e-01 3.5950001e+01 
1.9406070e-01 5.7529378e-01 3.5950001e+01 
7.2046272e-02 3.9139685e-01 3.5950001e+01 
3.2794797e-01 4.1504097e-01 3.5950001e+01 
2.5315723e-01 2.8441605e-01 3.5950001e+01 
4.8835394e-01 2.5853598e-01 3.5950001e+01 
4.4998336e-01 1.8099399e-01 3.5950001e+01 
6.5536499e-01 1.2644932e-01 3.5950001e+01 
6.3892084e-01 8.6551160e-02 3.5950001e+01 
-4.3633473e-01 9.6410358e-01 3.5817055e+01 
8.3111709e-01 2.2839896e-02 3.5950001e+01 
-5.0632600e-02 8.1079596e-01 3.5790836e+01 
-2.6430866e-01 9.1914719e-01 3.5782475e+01 
-4.0254679e-01 8.3793819e-01 3.5781216e+01 
-2.0694597e-01 6.0016954e-01 3.5783600e+01 
-8.1781395e-02 6.5604115e-01 3.5733089e+01 
-4.3937277e-02 4.6580139e-01 3.5739162e+01 
-3.1373850e-01 7.1968991e-01 3.5713120e+01 
3.3065894e-01 4.1186032e-01 3.5756229e+01 
1.6584852e-01 3.3063442e-01 3.5737579e+01 
6.1512489e-02 7.2536284e-01 3.5707314e+01 
-4.3633634e-01 9.6411306e-01 3.5680031e+01 
-1.5757792e-01 8.7291580e-01 3.5673042e+01 
3.5493094e-01 2.2495976e-01 3.5725273e+01 
-4.8531491e-02 8.0892098e-01 3.5630131e+01 
-2.9002690e-01 9.2845821e-01 3.5619057e+01 
-1.7537189e-01 7.5290573e-01 3.5615166e+01 
-4.0886766e-01 8.4841871e-01 3.5608490e+01 
-9.4446726e-03 5.8259279e-01 3.5625549e+01 
-2.0546779e-01 5.9739077e-01 3.5614952e+01 
1.7707515e-01 5.9642631e-01 3.5624470e+01 
8.4105742e-01 1.2351888e-02 3.5742672e+01 
6.0807323e-01 9.4479226e-02 3.5692169e+01 
6.4979710e-02 3.9059904e-01 3.5611164e+01 
-4.3633804e-01 9.6412331e-01 3.5538738e+01 
-1.4897920e-01 8.6804253e-01 3.5542713e+01 
-9.1334991e-02 6.7300045e-01 3.5548176e+01 
-3.1382075e-01 7.1892291e-01 3.5540031e+01 
6.4559802e-02 7.2247517e-01 3.5545815e+01 
6.8965119e-01 9.6494943e-02 3.5631828e+01 
-8.6857468e-02 4.9513862e-01 3.5526848e+01 
-3.1023884e-01 9.3588531e-01 3.5490536e+01 
-2.0958483e-01 7.6815736e-01 3.5472454e+01 
-4.0721193e-01 8.4499711e-01 3.5464943e+01 
-4.6458263e-02 8.0696934e-01 3.5467846e+01 
5.2069187e-01 2.2655888e-01 3.5519463e+01 
4.6731281e-01 1.6203767e-01 3.5518009e+01 
-2.0398131e-01 5.9457207e-01 3.5443989e+01 
1.8105502e-01 5.9206027e-01 3.5462208e+01 
2.4244882e-01 2.8139490e-01 3.5474056e+01 
4.0243175e-02 4.0409917e-01 3.5446728e+01 
3.1472906e-01 4.3003687e-01 3.5455551e+01 
-4.3633986e-01 9.6413422e-01 3.5392963e+01 
-3.2091635e-01 7.2683299e-01 3.5394699e+01 
8.5089999e-01 1.7654218e-03 3.5535347e+01 
-2.3322862e-01 9.0590233e-01 3.5375961e+01 
6.7607827e-02 7.1947443e-01 3.5382706e+01 
3.2195687e-02 5.3296530e-01 3.5381084e+01 
-8.3826452e-02 4.9076930e-01 3.5354668e+01 
-4.0545076e-01 8.4141600e-01 3.5316803e+01 
6.9939172e-01 8.5972384e-02 3.5424564e+01 
6.7761844e-01 5.4106515e-02 3.5423889e+01 
-4.4410054e-02 8.0494291e-01 3.5303936e+01 
-5.1387906e-02 6.3903809e-01 3.5302036e+01 
1.8507138e-01 5.8753818e-01 3.5298317e+01 
-2.0248671e-01 5.9171170e-01 3.5270630e+01 
-4.3634179e-01 9.6414584e-01 3.5242489e+01 
-3.1872559e-01 7.2338629e-01 3.5244247e+01 
7.5129181e-02 3.7867138e-01 3.5266899e+01 
5.3025997e-01 2.1599405e-01 3.5312279e+01 
4.7740462e-01 1.5185884e-01 3.5310734e+01 
7.0660427e-02 7.1636117e-01 3.5217949e+01 
-2.4200960e-01 9.0878701e-01 3.5191254e+01 
8.6065090e-01 -8.9130113e-03 3.5328018e+01 
-4.0357611e-01 8.3766460e-01 3.5163841e+01 
-8.0734767e-02 4.8630011e-01 3.5180050e+01 
1.0175288e-01 5.4410183e-01 3.5179489e+01 
-4.2383809e-02 8.0284375e-01 3.5138348e+01 
-4.9691774e-02 6.3524294e-01 3.5136497e+01 
3.1993666e-01 4.2355865e-01 3.5164433e+01 
1.8912935e-01 5.8285928e-01 3.5132755e+01 
7.0903265e-01 7.5370282e-02 3.5217304e+01 
6.8743253e-01 4.3585125e-02 3.5216587e+01 
2.4719225e-01 2.7229124e-01 3.5140743e+01 
-4.3634385e-01 9.6415812e-01 3.5087082e+01 
-2.0098418e-01 5.8880770e-01 3.5094791e+01 
-3.3094051e-01 7.3744327e-01 3.5087399e+01 
4.7842469e-02 3.9381561e-01 3.5100666e+01 
7.3721685e-02 7.1313620e-01 3.5051491e+01 
-1.6723973e-01 7.2148502e-01 3.5037075e+01 
-2.3447379e-01 9.0517366e-01 3.5029060e+01 
5.3972554e-01 2.0537132e-01 3.5105095e+01 
4.8740488e-01 1.4161304e-01 3.5103458e+01 
-4.0157935e-01 8.3373123e-01 3.5005825e+01 
-7.7580385e-02 4.8172688e-01 3.5002911e+01 
8.7031615e-01 -1.9676926e-02 3.5120693e+01 
-4.0376294e-02 8.0067396e-01 3.4971035e+01 
-1.0777251e-03 5.6473428e-01 3.4966663e+01 
1.9323435e-01 5.7802272e-01 3.4965469e+01 
-4.3634602e-01 9.6417117e-01 3.4926483e+01 
-3.1398687e-01 7.1593010e-01 3.4928284e+01 
8.1162140e-02 3.6954471e-01 3.4940647e+01 
-1.9947398e-01 5.8585811e-01 3.4916389e+01 
7.1858072e-01 6.4694799e-02 3.5010040e+01 
6.9716221e-01 3.2995347e-02 3.5009285e+01 
-8.5920848e-02 6.5925437e-01 3.4885880e+01 
7.6795928e-02 7.0980030e-01 3.4883286e+01 
-2.2936618e-01 9.0244675e-01 3.4864368e+01 
-3.9945102e-01 8.2960302e-01 3.4842484e+01 
3.3314112e-01 4.0725467e-01 3.4881569e+01 
5.4909629e-01 1.9469678e-01 3.4897911e+01 
4.9731696e-01 1.3130254e-01 3.4896183e+01 
-7.4361175e-02 4.7704521e-01 3.4823166e+01 
-3.8384061e-02 7.9843599e-01 3.4801949e+01 
1.7853911e-01 5.9524381e-01 3.4813824e+01 
2.9516578e-01 2.3876640e-01 3.4826241e+01 
8.7990177e-01 -3.0519836e-02 3.4913368e+01 
-4.3634832e-01 9.6418482e-01 3.4760433e+01 
-3.1258085e-01 7.1328664e-01 3.4758312e+01 
-1.9795637e-01 5.8286071e-01 3.4735336e+01 
6.4072959e-02 3.7762752e-01 3.4750160e+01 
-8.4678978e-02 6.5554446e-01 3.4715923e+01 
3.4917627e-02 5.1862895e-01 3.4718227e+01 
7.9887763e-02 7.0635456e-01 3.4713280e+01 
-2.2818601e-01 9.0126395e-01 3.4694862e+01 
7.2804278e-01 5.3952098e-02 3.4802780e+01 
7.0681274e-01 2.2341991e-02 3.4801983e+01 
-3.9912605e-01 8.2847023e-01 3.4673569e+01 
-3.6403451e-02 7.9613239e-01 3.4631039e+01 
-7.1074918e-02 4.7225043e-01 3.4640720e+01 
5.5837971e-01 1.8397646e-01 3.4690727e+01 
5.0714445e-01 1.2092985e-01 3.4688911e+01 
2.0160876e-01 5.6787378e-01 3.4625530e+01 
-4.3635073e-01 9.6419919e-01 3.4588638e+01 
-3.1541687e-01 7.1572810e-01 3.4574295e+01 
8.8941389e-01 -4.1435257e-02 3.4706043e+01 
-1.9643170e-01 5.7981330e-01 3.4551540e+01 
-8.3476409e-02 6.5172750e-01 3.4544109e+01 
8.3002076e-02 7.0280004e-01 3.4541420e+01 
4.8492871e-02 5.2303547e-01 3.4545547e+01 
-2.2516984e-01 8.9926535e-01 3.4522358e+01 
9.7076878e-02 3.5281336e-01 3.4547947e+01 
-3.9943019e-01 8.2835650e-01 3.4498760e+01 
3.4423670e-01 3.9297190e-01 3.4540073e+01 
7.3742551e-01 4.3148365e-02 3.4595516e+01 
7.1638930e-01 1.1629904e-02 3.4594681e+01 
-3.4430556e-02 7.9376584e-01 3.4458248e+01 
1.8663816e-01 5.8533818e-01 3.4470551e+01 
-6.7719251e-02 4.6733770e-01 3.4455486e+01 
5.8744222e-01 1.5716073e-01 3.4498188e+01 
-4.3635324e-01 9.6421421e-01 3.4410789e+01 
3.1257463e-01 2.2132427e-01 3.4459179e+01 
5.1689088e-01 1.1049771e-01 3.4481636e+01 
-3.2007241e-01 7.2038388e-01 3.4392273e+01 
-8.2310095e-02 6.4780504e-01 3.4370388e+01 
8.9885855e-01 -5.2416708e-02 3.4498718e+01 
-1.9490033e-01 5.7671356e-01 3.4364906e+01 
8.6144090e-02 6.9913799e-01 3.4367657e+01 
7.4797675e-02 3.6460650e-01 3.4380360e+01 
-2.1158653e-01 8.9267528e-01 3.4350559e+01 
-4.0807888e-01 8.4283638e-01 3.4315468e+01 
-3.2461215e-02 7.9133946e-01 3.4283527e+01 
7.4673569e-01 3.2289781e-02 3.4388256e+01 
7.2589725e-01 8.6400821e-04 3.4387379e+01 
2.1024454e-01 5.5708575e-01 3.4278080e+01 
-6.4291738e-02 4.6230185e-01 3.4267365e+01 
-3.0899662e-01 7.0596498e-01 3.4239407e+01 
-4.3635583e-01 9.6422976e-01 3.4226559e+01 
5.7671458e-01 1.6242273e-01 3.4276360e+01 
5.2656013e-01 1.0000902e-01 3.4274361e+01 
-1.8806119e-01 8.8122022e-01 3.4182983e+01 
8.9319348e-02 6.9536984e-01 3.4191933e+01 
-1.9336271e-01 5.7355899e-01 3.4175339e+01 
9.0824175e-01 -6.3457705e-02 3.4291393e+01 
3.5579404e-01 3.7778580e-01 3.4190983e+01 
1.0896966e-01 3.3877340e-01 3.4171825e+01 
-4.0174064e-01 8.3097017e-01 3.4135143e+01 
7.8355730e-02 5.1670331e-01 3.4155277e+01 
-3.0490981e-02 7.8885651e-01 3.4106812e+01 
1.9499709e-01 5.7482708e-01 3.4119572e+01 
-4.0165100e-02 6.0990173e-01 3.4105183e+01 
-3.0436781e-01 9.3012553e-01 3.4077248e+01 
7.5598001e-01 2.1382544e-02 3.4180992e+01 
7.3534167e-01 -9.9507561e-03 3.4180077e+01 
-6.0789764e-02 4.5713744e-01 3.4076252e+01 
-3.1309915e-01 7.0988935e-01 3.4053303e+01 
-4.3635851e-01 9.6424586e-01 3.4035587e+01 
3.3105886e-01 2.0279627e-01 3.4080620e+01 
-1.6739552e-01 8.7027079e-01 3.4014023e+01 
9.2533760e-02 6.9149721e-01 3.4014187e+01 
5.3615606e-01 8.9466892e-02 3.4067089e+01 
-1.1541992e-01 6.8656588e-01 3.3989834e+01 
5.6206948e-01 1.7115501e-01 3.4052979e+01 
-1.9181934e-01 5.7034689e-01 3.3982727e+01 
8.6114332e-02 3.5084173e-01 3.3998859e+01 
-3.9828956e-01 8.2443589e-01 3.3949982e+01 
9.1756958e-01 -7.4551761e-02 3.4084068e+01 
-3.0534014e-01 9.3012404e-01 3.3927078e+01 
-2.8515114e-02 7.8632045e-01 3.3928051e+01 
2.1919754e-01 5.4565352e-01 3.3922676e+01 
-3.0834091e-01 7.0294482e-01 3.3867390e+01 
-5.7210609e-02 4.5183873e-01 3.3882046e+01 
7.6516521e-01 1.0432850e-02 3.3973732e+01 
7.4472803e-01 -2.0809427e-02 3.3972775e+01 
-4.3636128e-01 9.6426243e-01 3.3837498e+01 
-1.6483027e-01 8.6798936e-01 3.3834202e+01 
-6.2628865e-02 6.3005888e-01 3.3829193e+01 
9.5793642e-02 6.8752199e-01 3.3834362e+01 
3.6788756e-01 3.6167371e-01 3.3833839e+01 
5.9478956e-01 1.4075859e-01 3.3861988e+01 
-1.9027077e-01 5.6707460e-01 3.3786968e+01 
5.4568267e-01 7.8874581e-02 3.3859814e+01 
-3.9237541e-01 8.1405187e-01 3.3765064e+01 
-2.8645673e-01 9.2160827e-01 3.3750370e+01 
1.2154823e-01 3.2391053e-01 3.3783550e+01 
-1.8867384e-01 7.1288466e-01 3.3746384e+01 
-2.6528537e-02 7.8373522e-01 3.3747181e+01 
9.2684811e-01 -8.5692398e-02 3.3876743e+01 
2.0367374e-01 5.6370944e-01 3.3760422e+01 
1.8140780e-02 5.4484630e-01 3.3749214e+01 
-3.0190268e-01 6.9391823e-01 3.3682610e+01 
-5.3551387e-02 4.4639975e-01 3.3684635e+01 
-1.4792879e-01 8.5811871e-01 3.3658730e+01 
7.7429789e-01 -5.5309682e-04 3.3766472e+01 
7.5406158e-01 -3.1706996e-02 3.3765472e+01 
-7.7937916e-02 6.3109374e-01 3.3655243e+01 
9.9105731e-02 6.8344617e-01 3.3652397e+01 
-4.3636411e-01 9.6427935e-01 3.3631874e+01 
-3.8667780e-01 8.0435222e-01 3.3580349e+01 
-1.8871760e-01 5.6373906e-01 3.3587948e+01 
3.4240234e-01 1.8664706e-01 3.3634285e+01 
6.0374802e-01 1.2990022e-01 3.3654800e+01 
5.5514407e-01 6.8235524e-02 3.3652542e+01 
-2.9333341e-01 9.2395145e-01 3.3569027e+01 
-2.4525832e-02 7.8110492e-01 3.3564137e+01 
1.2811439e-01 3.1614909e-01 3.3584583e+01 
2.2853047e-01 5.3357285e-01 3.3558842e+01 
9.3608332e-01 -9.6873134e-02 3.3669422e+01 
-2.9536453e-01 6.8475074e-01 3.3497906e+01 
-1.6189799e-01 8.6451864e-01 3.3478790e+01 
-4.9809054e-02 4.4081411e-01 3.3483906e+01 
1.0247723e-01 6.7927200e-01 3.3468231e+01 
7.8338474e-01 -1.1569086e-02 3.3559208e+01 
7.6334769e-01 -4.2638421e-02 3.3558174e+01 
3.8060218e-01 3.4461322e-01 3.3468163e+01 
-4.3636698e-01 9.6429652e-01 3.3418278e+01 
-3.8087666e-01 7.9476082e-01 3.3395645e+01 
-1.4266863e-01 7.4060071e-01 3.3397949e+01 
-3.0584016e-01 9.2888367e-01 3.3389786e+01 
-1.8716060e-01 5.6033713e-01 3.3385551e+01 
-2.2501193e-02 7.7843416e-01 3.3378857e+01 
2.1273324e-01 5.5198556e-01 3.3392620e+01 
6.1266333e-01 1.1903242e-01 3.3447617e+01 
2.2503298e-02 5.3321964e-01 3.3381046e+01 
5.6454450e-01 5.7553317e-02 3.3445271e+01 
1.3487670e-01 3.0815533e-01 3.3382244e+01 
9.4528133e-01 -1.0808749e-01 3.3462097e+01 
-2.8882200e-01 6.7556685e-01 3.3313206e+01 
-1.6242540e-01 8.6379075e-01 3.3296555e+01 
1.0591584e-01 6.7500216e-01 3.3281796e+01 
-4.5980379e-02 4.3507507e-01 3.3279736e+01 
7.9243231e-01 -2.2608908e-02 3.3351948e+01 
7.7259177e-01 -5.3598631e-02 3.3350872e+01 
3.6831388e-01 1.6372856e-01 3.3272469e+01 
-3.7496701e-01 7.8523028e-01 3.3210941e+01 
-1.3959049e-01 7.3194200e-01 3.3206188e+01 
-4.3636987e-01 9.6431375e-01 3.3196220e+01 
-2.0448403e-02 7.7572787e-01 3.3191277e+01 
-1.8560053e-01 5.5686557e-01 3.3179653e+01 
5.9884202e-01 1.2713607e-01 3.3246422e+01 
2.3831362e-01 5.2084059e-01 3.3186069e+01 
5.7388824e-01 4.6831686e-02 3.3237995e+01 
1.4184460e-01 2.9991952e-01 3.3176407e+01 
-3.9726343e-02 5.3179580e-01 3.3145584e+01 
-2.8227758e-01 6.6637504e-01 3.3128510e+01 
9.5444816e-01 -1.1932899e-01 3.3254772e+01 
-1.5435062e-01 8.5840869e-01 3.3092857e+01 
1.0942982e-01 6.7063946e-01 3.3093021e+01 
-4.2061951e-02 4.2917559e-01 3.3071999e+01 
8.0144727e-01 -3.3666342e-02 3.3144684e+01 
7.8179914e-01 -6.4582527e-02 3.3143570e+01 
-3.6896503e-01 7.7574533e-01 3.3026237e+01 
-2.9839233e-01 9.2451322e-01 3.2999584e+01 
-1.8916394e-01 7.0086306e-01 3.3001835e+01 
-1.8360803e-02 7.7299130e-01 3.3001324e+01 
4.1563025e-01 3.0122939e-01 3.3032883e+01 
2.2650090e-01 5.3455037e-01 3.3003525e+01 
-4.3637270e-01 9.6433079e-01 3.2965187e+01 
-1.8403833e-01 5.5332083e-01 3.2970127e+01 
2.4788646e-01 2.2954385e-01 3.3000359e+01 
6.3039380e-01 9.7292803e-02 3.3033241e+01 
5.8317977e-01 3.6074493e-02 3.3030724e+01 
-2.8013593e-01 6.6228914e-01 3.2912991e+01 
9.6358985e-01 -1.3059114e-01 3.3047451e+01 
-1.5372260e-01 8.5707951e-01 3.2909359e+01 
1.1302798e-01 6.6618711e-01 3.2901840e+01 
-3.8050134e-02 4.2310813e-01 3.2860569e+01 
-3.6288601e-01 7.6629466e-01 3.2841537e+01 
-2.1230108e-01 7.7819604e-01 3.2835632e+01 
8.1043619e-01 -4.4735175e-02 3.2937424e+01 
7.9097527e-01 -7.5584970e-02 3.2936272e+01 
-2.9738230e-01 9.2356372e-01 3.2816494e+01 
-1.6231252e-02 7.7023029e-01 3.2808926e+01 
-2.9629650e-02 5.7500935e-01 3.2807304e+01 
2.4862608e-01 5.0745475e-01 3.2803818e+01 
-2.8941116e-01 6.7245930e-01 3.2754688e+01 
-1.8247496e-01 5.4969907e-01 3.2756840e+01 
6.3922322e-01 8.6433157e-02 3.2826054e+01 
5.9242344e-01 2.5285732e-02 3.2823448e+01 
-4.3637550e-01 9.6434748e-01 3.2724621e+01 
-1.5330258e-01 8.5588866e-01 3.2726288e+01 
2.3469558e-01 2.3265935e-01 3.2748127e+01 
9.7271252e-01 -1.4186749e-01 3.2840126e+01 
7.4984305e-02 4.5892352e-01 3.2713512e+01 
1.1671983e-01 6.6164863e-01 3.2708176e+01 
4.0829685e-01 3.0756074e-01 3.2709141e+01 
-3.7605065e-01 7.8397655e-01 3.2642017e+01 
-2.9644078e-01 9.2265576e-01 3.2633430e+01 
-3.3941064e-02 4.1686484e-01 3.2645306e+01 
8.1940567e-01 -5.5809181e-02 3.2730160e+01 
8.0012554e-01 -8.6600810e-02 3.2728970e+01 
-1.4052087e-02 7.6745123e-01 3.2614010e+01 
2.3230386e-01 5.2672940e-01 3.2628918e+01 
-2.7243945e-01 6.5071702e-01 3.2597458e+01 
5.0187129e-01 7.1659781e-02 3.2622471e+01 
-1.5284662e-01 8.5470915e-01 3.2543228e+01 
6.4803833e-01 7.5588405e-02 3.2618866e+01 
-1.8091156e-01 5.4599643e-01 3.2539650e+01 
-1.3694961e-01 6.9238639e-01 3.2520878e+01 
1.2051563e-01 6.5702814e-01 3.2511959e+01 
9.8182219e-01 -1.5315153e-01 3.2632805e+01 
2.2142401e-01 2.3649634e-01 3.2521305e+01 
-4.3637818e-01 9.6436352e-01 3.2473904e+01 
-3.4488443e-01 7.3992312e-01 3.2462055e+01 
-2.9549679e-01 9.2176092e-01 3.2450371e+01 
-2.4996342e-01 6.2263423e-01 3.2429493e+01 
8.2836217e-01 -6.6882133e-02 3.2522896e+01 
8.0925542e-01 -9.7624853e-02 3.2521667e+01 
-1.1815089e-02 7.6466084e-01 3.2416504e+01 
-2.9730633e-02 4.1043735e-01 3.2426071e+01 
2.5955689e-01 4.9341509e-01 3.2411507e+01 
-1.5236825e-01 8.5355461e-01 3.2360165e+01 
-1.2675819e-01 6.9701427e-01 3.2326473e+01 
-1.7934941e-01 5.4220855e-01 3.2318409e+01 
6.7565167e-01 4.9085394e-02 3.2395306e+01 
5.0700921e-01 6.2395874e-02 3.2370399e+01 
8.0997981e-02 4.4402179e-01 3.2318626e+01 
1.2442627e-01 6.5232998e-01 3.2313110e+01 
9.9092489e-01 -1.6443677e-01 3.2425480e+01 
-2.9454464e-01 9.2088038e-01 3.2267307e+01 
4.2351502e-01 2.8752849e-01 3.2314655e+01 
-3.7694463e-01 7.8326058e-01 3.2250801e+01 
2.0265730e-01 2.4380222e-01 3.2282913e+01 
-2.7016386e-01 6.4521170e-01 3.2232040e+01 
-4.3638065e-01 9.6437842e-01 3.2212372e+01 
-9.5114270e-03 7.6186663e-01 3.2216320e+01 
2.4299128e-01 5.1320821e-01 3.2231865e+01 
8.3731234e-01 -7.7947810e-02 3.2315632e+01 
-2.4872487e-02 5.5845815e-01 3.2214584e+01 
8.1837040e-01 -1.0865189e-01 3.2314365e+01 
-2.5414439e-02 4.0381682e-01 3.2202705e+01 
-1.5186544e-01 8.5243022e-01 3.2177101e+01 
6.6565377e-01 5.3967983e-02 3.2204487e+01 
6.1991364e-01 -7.2283777e-03 3.2201626e+01 
1.2846345e-01 6.4755905e-01 3.2111549e+01 
-3.1310481e-01 9.2927599e-01 3.2091015e+01 
-1.7778988e-01 5.3833097e-01 3.2092972e+01 
1.0000267e+00 -1.7571677e-01 3.2218155e+01 
-3.4700125e-01 7.4020863e-01 3.2066849e+01 
1.8014956e-01 2.5473398e-01 3.2090096e+01 
3.8277161e-01 1.2859836e-01 3.2086903e+01 
-7.1316124e-03 7.5907665e-01 3.2013386e+01 
8.4626263e-01 -8.8999979e-02 3.2108368e+01 
8.2747585e-01 -1.1967669e-01 3.2107063e+01 
2.7120647e-01 4.7872329e-01 3.2008514e+01 
-2.5735977e-01 6.2775427e-01 3.1969324e+01 
-2.0987779e-02 3.9699396e-01 3.1975061e+01 
-4.3638289e-01 9.6439183e-01 3.1939308e+01 
6.7446816e-01 4.3204527e-02 3.1997295e+01 
6.2901235e-01 -1.8101310e-02 3.1994350e+01 
-1.3980079e-01 8.4451973e-01 3.1906954e+01 
1.3263971e-01 6.4272070e-01 3.1907187e+01 
-3.5028189e-01 7.4341244e-01 3.1881886e+01 
1.0091337e+00 -1.8698505e-01 3.2010830e+01 
-1.2854294e-01 6.8771958e-01 3.1871641e+01 
-2.9010534e-01 9.1790682e-01 3.1862780e+01 
1.4094758e-02 5.5673087e-01 3.1875368e+01 
4.3965966e-01 2.6666194e-01 3.1907679e+01 
-1.7623456e-01 5.3435880e-01 3.1863169e+01 
5.1407707e-01 1.3056879e-01 3.1898407e+01 
1.8830436e-01 2.4498889e-01 3.1859713e+01 
-4.6654460e-03 7.5629961e-01 3.1807608e+01 
2.5363219e-01 5.0005358e-01 3.1823412e+01 
-4.2612961e-01 8.7055129e-01 3.1794443e+01 
8.5521954e-01 -1.0003241e-01 3.1901104e+01 
8.3657736e-01 -1.3069399e-01 3.1899761e+01 
-2.6094219e-01 6.3052112e-01 3.1784365e+01 
7.0038986e-01 1.8890850e-02 3.1816566e+01 
-1.7014673e-02 3.9041850e-01 3.1743380e+01 
-1.4107019e-01 8.4451485e-01 3.1721788e+01 
-9.9926874e-02 5.9663862e-01 3.1718941e+01 
-3.5354087e-01 7.4664944e-01 3.1696922e+01 
1.3608418e-01 6.3882792e-01 3.1700718e+01 
6.7032135e-01 -4.8038390e-02 3.1767616e+01 
1.0182519e+00 -1.9823509e-01 3.1803505e+01 
-4.3638480e-01 9.6440309e-01 3.1654837e+01 
-1.7469035e-01 5.3030080e-01 3.1629633e+01 
4.0211412e-01 1.0759933e-01 3.1671713e+01 
-2.1032636e-01 8.0030710e-01 3.1602354e+01 
-2.6453692e-01 6.3329434e-01 3.1599405e+01 
-2.1206988e-03 7.5356477e-01 3.1600407e+01 
1.9180527e-01 2.3811315e-01 3.1621380e+01 
8.6427462e-01 -1.1109828e-01 3.1693903e+01 
8.4577817e-01 -1.4174032e-01 3.1692522e+01 
2.8592822e-01 4.6061021e-01 3.1598158e+01 
6.6509414e-01 4.4538077e-02 3.1593071e+01 
-3.1309432e-01 9.2842329e-01 3.1511335e+01 
-3.5677752e-01 7.4992037e-01 3.1511957e+01 
6.4768159e-01 -4.0187605e-02 3.1579737e+01 
-1.7052690e-02 3.8698754e-01 3.1510839e+01 
-6.4141460e-02 5.8165276e-01 3.1496143e+01 
1.3866003e-01 6.3606381e-01 3.1493673e+01 
1.0273819e+00 -2.0945387e-01 3.1596302e+01 
-1.6095507e-01 8.5455447e-01 3.1446074e+01 
-2.6814461e-01 6.3607454e-01 3.1414444e+01 
-1.7319568e-01 5.2625293e-01 3.1397970e+01 
4.9068831e-04 7.5090265e-01 3.1393421e+01 
-4.3638614e-01 9.6441114e-01 3.1377611e+01 
8.7342709e-01 -1.2218364e-01 3.1486885e+01 
8.5507613e-01 -1.5280281e-01 3.1485470e+01 
2.8333703e-01 4.6405724e-01 3.1386093e+01 
1.8974489e-01 2.3503280e-01 3.1389898e+01 
-1.2216794e-01 7.0039761e-01 3.1346544e+01 
-2.8805891e-01 9.1601241e-01 3.1330290e+01 
-3.5999170e-01 7.5322598e-01 3.1326992e+01 
7.0183557e-01 1.0506374e-02 3.1376028e+01 
6.5711844e-01 -5.1298302e-02 3.1372843e+01 
1.4131881e-01 6.3336390e-01 3.1286839e+01 
4.5355901e-01 6.8609059e-02 3.1323109e+01 
-1.3444668e-01 8.3923322e-01 3.1264942e+01 
-1.7080002e-02 3.8354781e-01 3.1280140e+01 
1.0365248e+00 -2.2062859e-01 3.1389336e+01 
-4.3212557e-01 8.8319808e-01 3.1239536e+01 
4.5306289e-01 2.4870379e-01 3.1277369e+01 
-2.7176547e-01 6.3886267e-01 3.1229483e+01 
3.1761916e-03 7.4832147e-01 3.1186646e+01 
2.6373237e-01 4.8841554e-01 3.1200693e+01 
4.9390968e-02 4.7150722e-01 3.1188902e+01 
8.8259256e-01 -1.3321629e-01 3.1280104e+01 
8.6437285e-01 -1.6382773e-01 3.1278652e+01 
-1.7175007e-01 5.2221370e-01 3.1168121e+01 
-3.7055236e-01 7.6736641e-01 3.1150814e+01 
-2.7050266e-01 9.0731013e-01 3.1145184e+01 
1.8778040e-01 2.3193821e-01 3.1160227e+01 
-4.3638691e-01 9.6441591e-01 3.1107292e+01 
7.1107423e-01 -3.2613231e-04 3.1169447e+01 
6.6652793e-01 -6.2389661e-02 3.1166183e+01 
-1.2791036e-01 8.3495802e-01 3.1079777e+01 
1.4406717e-01 6.3073742e-01 3.1080212e+01 
1.0456862e+00 -2.3175314e-01 3.1182606e+01 
-2.7539918e-01 6.4166003e-01 3.1044523e+01 
-1.7096333e-02 3.8009697e-01 3.1051226e+01 
3.0523053e-01 4.3775070e-01 3.1008261e+01 
-3.2222924e-01 9.3234289e-01 3.0971981e+01 
5.9432308e-03 7.4582940e-01 3.0980074e+01 
8.9177746e-01 -1.4419042e-01 3.1073553e+01 
8.7367404e-01 -1.7481010e-01 3.1072067e+01 
-3.6635700e-01 7.5994176e-01 3.0957062e+01 
-1.7035314e-01 5.1818144e-01 3.0940027e+01 
-1.4742397e-01 6.9335324e-01 3.0934095e+01 
1.8589397e-01 2.2883835e-01 3.0932295e+01 
-1.6372736e-01 8.5468459e-01 3.0897768e+01 
6.7591554e-01 -7.3456958e-02 3.0959755e+01 
4.3206689e-01 7.2281018e-02 3.0921160e+01 
7.5343770e-01 -3.8524155e-02 3.0947941e+01 
1.4691253e-01 6.2819237e-01 3.0873789e+01 
-2.7904508e-01 6.4446801e-01 3.0859562e+01 
-4.3638715e-01 9.6441728e-01 3.0843557e+01 
1.0548728e+00 -2.4282147e-01 3.0976107e+01 
-6.6890649e-02 6.7270279e-01 3.0824713e+01 
-1.7111292e-02 3.7664086e-01 3.0824039e+01 
-2.9923451e-01 9.2104763e-01 3.0797726e+01 
5.2421880e-01 1.6823599e-01 3.0850807e+01 
-3.6951017e-01 7.6335257e-01 3.0772097e+01 
8.7991860e-03 7.4343455e-01 3.0773706e+01 
9.0098828e-01 -1.5510029e-01 3.0867231e+01 
8.8298535e-01 -1.8574487e-01 3.0865709e+01 
2.9150072e-01 4.5579857e-01 3.0766699e+01 
-1.5559873e-01 8.5002500e-01 3.0714972e+01 
-1.6900456e-01 5.1415485e-01 3.0713640e+01 
7.5559998e-01 -4.2859130e-02 3.0778667e+01 
1.8407847e-01 2.2573574e-01 3.0706066e+01 
-2.8270215e-01 6.4728838e-01 3.0674599e+01 
6.8528652e-01 -8.4495433e-02 3.0753550e+01 
-5.3067628e-02 5.7185602e-01 3.0669491e+01 
1.4986224e-01 6.2573689e-01 3.0667566e+01 
1.0640901e+00 -2.5382757e-01 3.0769833e+01 
-2.9066265e-01 9.1672027e-01 3.0614929e+01 
-4.3638682e-01 9.6441531e-01 3.0586103e+01 
-3.6367235e-01 7.5348186e-01 3.0584919e+01 
-1.7125826e-02 3.7317848e-01 3.0598536e+01 
1.1751398e-02 7.4114496e-01 3.0567535e+01 
9.1023147e-01 -1.6594014e-01 3.0661133e+01 
8.9231241e-01 -1.9662707e-01 3.0659576e+01 
-1.4747706e-01 8.4537786e-01 3.0532175e+01 
2.7279282e-01 4.7996768e-01 3.0540644e+01 
7.1374601e-01 -1.0639688e-02 3.0590647e+01 
-2.8636909e-01 6.5012288e-01 3.0489637e+01 
-1.6770400e-01 5.1013261e-01 3.0488914e+01 
-5.0075717e-02 5.6963438e-01 3.0463305e+01 
1.8233138e-01 2.2262955e-01 3.0481497e+01 
1.5292352e-01 6.2337899e-01 3.0461540e+01 
7.2646910e-01 -1.1452387e-01 3.0528379e+01 
-2.8209355e-01 9.1244817e-01 3.0432133e+01 
1.0585971e-01 4.0489325e-01 3.0452154e+01 
1.0733445e+00 -2.6476547e-01 3.0563780e+01 
-1.4216956e-01 6.9415551e-01 3.0427021e+01 
4.6330488e-01 2.3648702e-01 3.0452637e+01 
-3.7575957e-01 7.7028191e-01 3.0402164e+01 
4.6052396e-01 4.3621849e-02 3.0433302e+01 
-1.7140856e-02 3.6970884e-01 3.0374672e+01 
1.4807174e-02 7.3896867e-01 3.0361559e+01 
-1.3935532e-01 8.4075189e-01 3.0349379e+01 
9.1951329e-01 -1.7670430e-01 3.0455254e+01 
9.0166080e-01 -2.0745173e-01 3.0453663e+01 
-4.3638593e-01 9.6441001e-01 3.0334642e+01 
2.9752350e-01 4.5067132e-01 3.0354767e+01 
-2.9004434e-01 6.5297353e-01 3.0304676e+01 
7.4834913e-01 -4.2810779e-02 3.0345375e+01 
-1.6645114e-01 5.0611347e-01 3.0265806e+01 
7.0400071e-01 -1.0646682e-01 3.0341801e+01 
-2.7351573e-01 9.0825188e-01 3.0249336e+01 
-4.6979882e-02 5.6751990e-01 3.0257301e+01 
1.5610363e-01 6.2112659e-01 3.0255707e+01 
1.8065035e-01 2.1951903e-01 3.0258541e+01 
1.0826417e+00 -2.7562919e-01 3.0357946e+01 
-3.7885654e-01 7.7380133e-01 3.0217197e+01 
1.4295806e-01 4.0015477e-01 3.0190653e+01 
-1.3122573e-01 8.3615708e-01 3.0166580e+01 
1.7973782e-02 7.3691368e-01 3.0155773e+01 
9.2883998e-01 -1.8738708e-01 3.0249590e+01 
-1.7157262e-02 3.6623096e-01 3.0152401e+01 
9.1103619e-01 -2.1821389e-01 3.0247963e+01 
-2.9372618e-01 6.5584230e-01 3.0119713e+01 
3.4756985e-01 3.8882473e-01 3.0147978e+01 
-4.3638447e-01 9.6440130e-01 3.0088907e+01 
5.7325298e-01 1.1483061e-01 3.0142958e+01 
-2.6492462e-01 9.0413469e-01 3.0066540e+01 
7.5778157e-01 -5.3193051e-02 3.0139896e+01 
-1.6524568e-01 5.0209624e-01 3.0044271e+01 
1.5940979e-01 6.1898762e-01 3.0050062e+01 
-3.8193515e-01 7.7735782e-01 3.0032230e+01 
7.4516082e-01 -1.3639525e-01 3.0117090e+01 
1.0919878e+00 -2.8641284e-01 3.0152325e+01 
1.7903310e-01 2.1640332e-01 3.0037155e+01 
-1.2307969e-01 8.3160400e-01 2.9983784e+01 
4.7961321e-01 2.2363991e-02 3.0022303e+01 
2.1258458e-02 7.3498791e-01 2.9950174e+01 
-2.9741275e-01 6.5873122e-01 2.9934750e+01 
9.3821788e-01 -1.9798288e-01 3.0044136e+01 
9.2044407e-01 -2.2890857e-01 3.0042475e+01 
3.0408338e-01 4.4592416e-01 2.9943598e+01 
-1.7175896e-02 3.6274391e-01 2.9931683e+01 
-1.6124290e-01 6.6518313e-01 2.9910936e+01 
-2.5631654e-01 9.0010041e-01 2.9883741e+01 
-4.3638247e-01 9.6438932e-01 2.9848642e+01 
-3.8499546e-01 7.8095180e-01 2.9847263e+01 
7.2271365e-01 -1.2826559e-01 2.9930902e+01 
1.6284926e-01 6.1697006e-01 2.9844603e+01 
7.1455711e-01 -1.8680379e-02 2.9907156e+01 
1.1603630e-01 3.9914107e-01 2.9847565e+01 
-1.6408733e-01 4.9807972e-01 2.9824268e+01 
1.1013887e+00 -2.9711050e-01 2.9946913e+01 
-1.1490420e-01 8.2710093e-01 2.9800983e+01 
4.7259235e-01 2.2817488e-01 2.9836121e+01 
2.1256106e-01 1.8919984e-01 2.9819111e+01 
-3.0110255e-01 6.6164201e-01 2.9749788e+01 
2.4668405e-02 7.3319936e-01 2.9744761e+01 
2.8535521e-01 4.7107896e-01 2.9759361e+01 
9.4765311e-01 -2.0848608e-01 2.9838888e+01 
9.2988992e-01 -2.3953085e-01 2.9837194e+01 
-1.5221374e-01 6.6605884e-01 2.9720524e+01 
-2.4770442e-01 8.9616066e-01 2.9700937e+01 
-1.7197579e-02 3.5924673e-01 2.9712475e+01 
-3.8803729e-01 7.8458375e-01 2.9662296e+01 
7.7682906e-01 -7.3632747e-02 2.9729563e+01 
1.6642922e-01 6.1508173e-01 2.9639324e+01 
7.6389897e-01 -1.5804929e-01 2.9706633e+01 
-1.0662035e-01 8.2261628e-01 2.9618160e+01 
-4.3637991e-01 9.6437401e-01 2.9613607e+01 
1.1108502e+00 -3.0771640e-01 2.9741705e+01 
-1.6297577e-01 4.9406275e-01 2.9605757e+01 
1.7598088e-01 2.1015269e-01 2.9598927e+01 
-3.0479342e-01 6.6457641e-01 2.9564825e+01 
5.8052129e-01 1.0694128e-01 2.9618544e+01 
4.9856120e-01 1.1684118e-03 2.9612129e+01 
-2.2778817e-01 7.2653735e-01 2.9534454e+01 
2.8210793e-02 7.3155588e-01 2.9539526e+01 
1.1515497e-02 5.2193499e-01 2.9536814e+01 
9.5715183e-01 -2.1889111e-01 2.9633842e+01 
9.3937939e-01 -2.5007579e-01 2.9632114e+01 
-2.3936881e-01 8.9245492e-01 2.9517998e+01 
3.1124240e-01 4.4162282e-01 2.9533165e+01 
-3.9106008e-01 7.8825426e-01 2.9477329e+01 
-1.7223094e-02 3.5573846e-01 2.9494734e+01 
7.8645712e-01 -8.3679326e-02 2.9524696e+01 
7.4146867e-01 -1.4985320e-01 2.9520821e+01 
-9.9123463e-02 8.1872320e-01 2.9433390e+01 
-1.0243858e-01 6.2868047e-01 2.9435144e+01 
1.7015684e-01 6.1333048e-01 2.9434227e+01 
1.1203781e+00 -3.1822464e-01 2.9536697e+01 
-4.3637681e-01 9.6435547e-01 2.9383575e+01 
-2.5072259e-01 8.3195770e-01 2.9384134e+01 
-3.1649509e-01 6.7817390e-01 2.9383621e+01 
4.7964439e-01 2.2314312e-01 2.9426027e+01 
-1.6191077e-01 4.9004427e-01 2.9388693e+01 
2.1761174e-01 1.7738970e-01 2.9392241e+01 
3.1892762e-02 7.3006529e-01 2.9334471e+01 
2.9283464e-01 4.6710870e-01 2.9349230e+01 
7.8045852e-02 4.5235080e-01 2.9335918e+01 
9.6672016e-01 -2.2919245e-01 2.9428995e+01 
9.4891781e-01 -2.6053849e-01 2.9427235e+01 
-3.9406270e-01 7.9196411e-01 2.9292362e+01 
-2.1239799e-01 8.8000309e-01 2.9281551e+01 
-1.7253201e-02 3.5221824e-01 2.9278421e+01 
-2.3168649e-01 7.2981918e-01 2.9231131e+01 
-2.9688556e-02 5.5883259e-01 2.9229912e+01 
1.7403924e-01 6.1172420e-01 2.9229303e+01 
8.2394314e-01 -1.1715557e-01 2.9300596e+01 
7.8272671e-01 -1.7944783e-01 2.9296974e+01 
1.1299784e+00 -3.2862943e-01 2.9331886e+01 
-3.1216851e-01 6.7052430e-01 2.9194897e+01 
-8.3424442e-02 8.1022477e-01 2.9177965e+01 
-1.6089202e-01 4.8602313e-01 2.9173038e+01 
-4.3637314e-01 9.6433365e-01 2.9158329e+01 
1.8065406e-01 1.9887547e-01 2.9181257e+01 
5.9997934e-01 8.7731376e-02 2.9209408e+01 
5.1740056e-01 -1.9945519e-02 2.9202744e+01 
3.5721421e-02 7.2873539e-01 2.9129587e+01 
9.7636414e-01 -2.3938458e-01 2.9224342e+01 
9.5851076e-01 -2.7091399e-01 2.9222548e+01 
-3.9704350e-01 7.9571444e-01 2.9107393e+01 
-2.2488390e-01 8.8659233e-01 2.9099035e+01 
3.1906232e-01 4.3783250e-01 2.9123438e+01 
-1.3182700e-01 6.6278851e-01 2.9100773e+01 
-1.7288627e-02 3.4868515e-01 2.9063499e+01 
-2.9159430e-01 6.4182228e-01 2.9032650e+01 
8.0595398e-01 -1.0339903e-01 2.9115545e+01 
7.6030880e-01 -1.7119114e-01 2.9111521e+01 
1.7808357e-01 6.1027062e-01 2.9024551e+01 
1.2555073e-01 3.7266883e-01 2.9020258e+01 
-9.5047094e-02 8.1851953e-01 2.8995449e+01 
1.1396568e+00 -3.3892506e-01 2.9127268e+01 
4.8744318e-01 2.1858317e-01 2.9016632e+01 
-1.5991929e-01 4.8199829e-01 2.8958755e+01 
-4.3636897e-01 9.6430868e-01 2.8937666e+01 
2.2269693e-01 1.6560000e-01 2.8969381e+01 
-4.0000015e-01 7.9950666e-01 2.8922424e+01 
3.9703861e-02 7.2757399e-01 2.8924873e+01 
-2.3733534e-01 8.9321232e-01 2.8916521e+01 
9.8608989e-01 -2.4946198e-01 2.9019878e+01 
-2.1482627e-01 7.1412009e-01 2.8906782e+01 
9.6816355e-01 -2.8119743e-01 2.9018049e+01 
3.2323933e-01 4.3614918e-01 2.8918831e+01 
-2.9146621e-01 6.3948292e-01 2.8839390e+01 
-1.7330071e-02 3.4513825e-01 2.8849926e+01 
8.1583548e-01 -1.1306142e-01 2.8911253e+01 
-2.1792430e-02 5.5638403e-01 2.8820118e+01 
-1.0672411e-01 8.2667536e-01 2.8812933e+01 
6.5220088e-01 3.5969552e-02 2.8875292e+01 
1.8229690e-01 6.0897756e-01 2.8819969e+01 
8.0168700e-01 -2.0055303e-01 2.8888081e+01 
1.2966004e-01 3.7122428e-01 2.8815483e+01 
1.1494191e+00 -3.4910575e-01 2.8922838e+01 
-4.0292972e-01 8.0334234e-01 2.8737457e+01 
-1.5899234e-01 4.7796872e-01 2.8745804e+01 
-2.4974677e-01 8.9988720e-01 2.8734005e+01 
5.3616476e-01 -4.0956490e-02 2.8794117e+01 
1.8618095e-01 1.8688063e-01 2.8760290e+01 
-4.3636426e-01 9.6428055e-01 2.8721392e+01 
-2.2540677e-01 7.2104281e-01 2.8724276e+01 
4.3847125e-02 7.2658890e-01 2.8720327e+01 
9.9590325e-01 -2.5941920e-01 2.8815601e+01 
9.7788173e-01 -2.9138389e-01 2.8813740e+01 
3.2760450e-01 4.3461782e-01 2.8714392e+01 
-3.0078948e-01 6.4947164e-01 2.8641651e+01 
4.4356906e-01 2.8252417e-01 2.8670712e+01 
-1.1845593e-01 8.3468276e-01 2.8630417e+01 
-1.7378200e-02 3.4157676e-01 2.8637667e+01 
8.2581413e-01 -1.2258504e-01 2.8707146e+01 
7.7927673e-01 -1.9224121e-01 2.8702972e+01 
-6.6596568e-02 6.3166630e-01 2.8619734e+01 
1.8668631e-01 6.0785264e-01 2.8615551e+01 
1.3395025e-01 3.6992979e-01 2.8610863e+01 
1.1592708e+00 -3.5916579e-01 2.8718592e+01 
-4.0582860e-01 8.0722368e-01 2.8552488e+01 
-2.6212680e-01 9.0664005e-01 2.8551487e+01 
-2.3621804e-01 7.2796571e-01 2.8541782e+01 
-1.5811090e-01 4.7393340e-01 2.8534147e+01 
2.2777095e-01 1.5386707e-01 2.8550364e+01 
-4.3635905e-01 9.6424937e-01 2.8509323e+01 
4.8158251e-02 7.2578782e-01 2.8515944e+01 
1.0058103e+00 -2.6925078e-01 2.8611506e+01 
9.8767066e-01 -3.0146846e-01 2.8609610e+01 
3.3216551e-01 4.3324643e-01 2.8510117e+01 
-3.2684737e-01 6.8277669e-01 2.8455040e+01 
-1.3019659e-01 8.4251410e-01 2.8447874e+01 
6.3897592e-01 5.1741645e-02 2.8496359e+01 
8.3589613e-01 -1.3196455e-01 2.8503216e+01 
-1.7433662e-02 3.3799973e-01 2.8426683e+01 
7.8882194e-01 -2.0264643e-01 2.8498970e+01 
5.4725933e-01 -5.5171907e-02 2.8470709e+01 
1.9125883e-01 6.0690367e-01 2.8411295e+01 
1.1692178e+00 -3.6909947e-01 2.8514524e+01 
-2.7468389e-01 9.1356844e-01 2.8368908e+01 
-4.0869337e-01 8.1115514e-01 2.8367517e+01 
-2.4725792e-01 7.3438364e-01 2.8359159e+01 
-2.3764135e-01 5.6539011e-01 2.8357605e+01 
-1.5727477e-01 4.6989137e-01 2.8323750e+01 
3.9717364e-01 3.5255924e-01 2.8340611e+01 
5.9231162e-02 5.0974351e-01 2.8320211e+01 
5.2644238e-02 7.2517842e-01 2.8311722e+01 
-4.3635333e-01 9.6421510e-01 2.8301285e+01 
1.8848804e-01 3.1433922e-01 2.8322588e+01 
1.0158169e+00 -2.7895129e-01 2.8407587e+01 
9.9753571e-01 -3.1144631e-01 2.8405659e+01 
-1.0458177e-01 6.2536424e-01 2.8283520e+01 
2.2860837e-01 1.4847809e-01 2.8306076e+01 
-3.3049211e-01 6.8591022e-01 2.8270071e+01 
-1.4117619e-01 8.4978276e-01 2.8264948e+01 
8.2339948e-01 -1.2141655e-01 2.8311661e+01 
7.6883417e-01 -1.9556426e-01 2.8302671e+01 
-1.7497076e-02 3.3440638e-01 2.8216940e+01 
1.9602150e-01 6.0613835e-01 2.8207197e+01 
-4.1153657e-01 8.1517601e-01 2.8182535e+01 
-2.8487733e-01 9.1943204e-01 2.8180927e+01 
1.1792659e+00 -3.7890112e-01 2.8310635e+01 
-2.4171036e-01 5.6787217e-01 2.8172644e+01 
5.9691942e-01 1.0146795e-01 2.8163084e+01 
-1.5648372e-01 4.6584159e-01 2.8114576e+01 
5.7312068e-02 7.2476840e-01 2.8107656e+01 
-4.3634710e-01 9.6417791e-01 2.8097111e+01 
4.8403174e-01 -2.2416575e-02 2.8147320e+01 
1.0259291e+00 -2.8851533e-01 2.8203842e+01 
1.0074822e+00 -3.2131252e-01 2.8201881e+01 
-3.3403257e-01 6.8893647e-01 2.8085037e+01 
-1.0367694e-01 6.3332683e-01 2.8088047e+01 
1.6699298e-01 1.8796447e-01 2.8108662e+01 
3.4190533e-01 4.3101549e-01 2.8102041e+01 
-1.3139242e-01 8.4669584e-01 2.8035519e+01 
3.4236565e-02 4.6607870e-01 2.8038082e+01 
8.5639524e-01 -1.5026996e-01 2.8095879e+01 
-2.8952646e-01 9.2261875e-01 2.7996807e+01 
-4.1411647e-01 8.1878829e-01 2.7996550e+01 
2.0098132e-01 6.0556424e-01 2.8003256e+01 
7.5877219e-01 -1.9509453e-01 2.8060659e+01 
-2.5355181e-01 5.8002537e-01 2.7979805e+01 
1.1894206e+00 -3.8856509e-01 2.8106918e+01 
-1.7602377e-01 7.3285228e-01 2.7967024e+01 
2.5553742e-02 2.9331255e-01 2.7949749e+01 
-3.3722106e-01 6.9149250e-01 2.7899986e+01 
-4.3634039e-01 9.6413773e-01 2.7896645e+01 
-1.5573758e-01 4.6178314e-01 2.7906590e+01 
6.2168695e-02 7.2456545e-01 2.7903746e+01 
1.0361526e+00 -2.9793751e-01 2.8000267e+01 
4.0220118e-01 3.5767126e-01 2.7903625e+01 
6.4103086e-03 4.1163042e-01 2.7877295e+01 
5.2320695e-01 1.9567886e-01 2.7903622e+01 
-3.2606554e-01 8.3739793e-01 2.7857571e+01 
-1.7621759e-01 8.7062442e-01 2.7858543e+01 
4.0188959e-01 2.4986167e-02 2.7901575e+01 
-7.1797274e-02 7.0153457e-01 2.7851068e+01 
6.5484989e-01 4.2219091e-02 2.7903627e+01 
2.1148080e-01 1.5184078e-01 2.7871996e+01 
5.7312316e-01 -8.3968639e-02 2.7901299e+01 
9.6823531e-01 -3.1050277e-01 2.7943527e+01 
7.9947555e-01 -9.9173121e-02 2.7903637e+01 
1.3511747e-01 3.5085720e-01 2.7840797e+01 
7.6819593e-01 -2.0497353e-01 2.7867264e+01 
1.1996875e+00 -3.9808577e-01 2.7903368e+01 
-2.4758521e-01 7.3136067e-01 2.7760735e+01 
3.2269070e-01 2.7610704e-01 2.7755657e+01 
-4.3633321e-01 9.6409476e-01 2.7700001e+01 
-2.6038668e-01 9.1080952e-01 2.7700001e+01 
-3.9422178e-01 7.7798569e-01 2.7700001e+01 
-9.2824712e-02 8.2952505e-01 2.7700001e+01 
-2.8332001e-01 6.1471123e-01 2.7700001e+01 
6.7220680e-02 7.2457713e-01 2.7700001e+01 
-1.5503694e-01 4.5771992e-01 2.7700001e+01 
2.1992749e-01 5.9241718e-01 2.7700001e+01 
-7.7190506e-03 3.1675047e-01 2.7700001e+01 
3.4792382e-01 4.3528730e-01 2.7700001e+01 
1.5232614e-01 1.9070335e-01 2.7700001e+01 
4.6936619e-01 2.7301461e-01 2.7700001e+01 
3.1967539e-01 7.4814647e-02 2.7700001e+01 
5.9444356e-01 1.1358079e-01 2.7700001e+01 
4.9024394e-01 -3.5970703e-02 2.7700001e+01 
-9.2330769e-02 6.2004679e-01 2.7647902e+01 
7.3273045e-01 -3.4518220e-02 2.7700001e+01 
6.6240299e-01 -1.4412166e-01 2.7700001e+01 
8.8178307e-01 -1.7183511e-01 2.7700001e+01 
8.3695728e-01 -2.4832968e-01 2.7700001e+01 
1.5248123e-01 4.7952771e-01 2.7618032e+01 
1.0376387e+00 -3.0135608e-01 2.7700001e+01 
1.0186838e+00 -3.3929288e-01 2.7700001e+01 
1.2100714e+00 -4.0745673e-01 2.7700001e+01 
-1.7527607e-01 8.7319577e-01 2.7541456e+01 
-4.3632531e-01 9.6404755e-01 2.7500572e+01 
7.2473675e-02 7.2480732e-01 2.7496332e+01 
-1.5438418e-01 4.5367023e-01 2.7495737e+01 
2.3797989e-01 1.2609304e-01 2.7498522e+01 
-4.0877339e-01 8.0256546e-01 2.7463545e+01 
-3.1512073e-01 6.5501136e-01 2.7464714e+01 
4.0749776e-01 1.2974516e-02 2.7498425e+01 
5.3774357e-01 1.8871599e-01 2.7496378e+01 
4.1112328e-01 3.5933858e-01 2.7480532e+01 
5.7917297e-01 -9.6446551e-02 2.7498701e+01 
6.6926467e-01 3.3971664e-02 2.7496374e+01 
2.5452903e-01 5.5981863e-01 2.7451582e+01 
3.4462683e-02 2.7670601e-01 2.7448467e+01 
7.5247896e-01 -2.0351820e-01 2.7498970e+01 
3.7438966e-02 5.3441721e-01 2.7426083e+01 
8.9873517e-01 -2.8600860e-01 2.7513014e+01 
8.2211506e-01 -1.1703362e-01 2.7479591e+01 
-2.8510699e-01 9.2432016e-01 2.7396593e+01 
1.2205856e+00 -4.1668600e-01 2.7496601e+01 
-1.9328178e-01 7.4016619e-01 2.7358360e+01 
-6.2858552e-02 8.1748772e-01 2.7350172e+01 
1.0166304e+00 -2.8593341e-01 2.7450756e+01 
-3.6440876e-01 7.2544068e-01 2.7303871e+01 
-2.6325095e-01 5.8274597e-01 2.7305046e+01 
-4.3631649e-01 9.6399480e-01 2.7292809e+01 
1.2007182e-01 4.0059537e-01 2.7305941e+01 
7.7923253e-02 7.2524554e-01 2.7292521e+01 
-1.5377006e-01 4.4958541e-01 2.7291361e+01 
1.0477753e+00 -3.5941789e-01 2.7388012e+01 
-9.8116279e-02 6.5706193e-01 2.7267292e+01 
3.6464050e-01 4.2800069e-01 2.7287571e+01 
-1.9566305e-01 8.8553756e-01 2.7249840e+01 
2.2376470e-01 1.3137215e-01 2.7266573e+01 
8.7805200e-01 -2.7919158e-01 2.7318674e+01 
4.8573059e-01 2.6623797e-01 2.7247663e+01 
4.9693042e-01 -4.9684666e-02 2.7252684e+01 
6.1115354e-01 1.0570247e-01 2.7247658e+01 
8.9790112e-01 -1.8408296e-01 2.7282778e+01 
6.6973907e-01 -1.5812218e-01 2.7253284e+01 
7.4891210e-01 -4.4172268e-02 2.7247639e+01 
1.3256188e-02 5.2887452e-01 2.7186253e+01 
2.6009330e-01 2.6487535e-01 2.7201981e+01 
2.2328182e-01 6.0484052e-01 2.7188278e+01 
-1.7313799e-02 3.1563067e-01 2.7187080e+01 
-5.2938104e-02 8.1477475e-01 2.7167370e+01 
1.2312274e+00 -4.2579460e-01 2.7293037e+01 
-4.0890232e-01 7.9937625e-01 2.7143023e+01 
-3.1523412e-01 6.5110606e-01 2.7144201e+01 
8.3556250e-02 7.2587740e-01 2.7088566e+01 
-1.5319350e-01 4.4546449e-01 2.7086866e+01 
-4.3630674e-01 9.6393645e-01 2.7076149e+01 
1.0776721e+00 -3.3376589e-01 2.7186508e+01 
1.0579301e+00 -3.6861172e-01 2.7184378e+01 
-1.8609761e-01 8.8326818e-01 2.7066936e+01 
3.7107959e-01 4.2742357e-01 2.7083715e+01 
1.6482505e-01 1.6958556e-01 2.7082481e+01 
-1.9288744e-01 7.3583591e-01 2.7037756e+01 
9.0836251e-01 -1.9197218e-01 2.7079157e+01 
-3.6446664e-01 7.2191799e-01 2.6983353e+01 
8.5550749e-01 -2.7196530e-01 2.7074385e+01 
-2.6357526e-01 5.7831204e-01 2.6984537e+01 
-4.3625351e-02 8.1266546e-01 2.6982847e+01 
-3.2589224e-01 9.4428265e-01 2.6975523e+01 
2.2943366e-01 6.0503346e-01 2.6984291e+01 
-1.6631179e-02 3.1118357e-01 2.6982553e+01 
1.7919190e-01 3.8788465e-01 2.6982018e+01 
1.2419842e+00 -4.3480167e-01 2.7089300e+01 
3.1992799e-01 5.9666552e-02 2.6955332e+01 
4.9710175e-01 2.6190436e-01 2.6953699e+01 
6.1727750e-01 -1.3162698e-01 2.6962877e+01 
-1.8179907e-01 8.8341832e-01 2.6891376e+01 
-8.2801379e-02 6.5844178e-01 2.6886042e+01 
8.9359447e-02 7.2668856e-01 2.6884459e+01 
-1.5265350e-01 4.4130653e-01 2.6882256e+01 
3.4631354e-01 4.6733946e-01 2.6895481e+01 
1.0882585e+00 -3.4237114e-01 2.6982735e+01 
7.2633512e-02 5.1345593e-01 2.6879267e+01 
1.0681729e+00 -3.7773144e-01 2.6980568e+01 
-4.3629608e-01 9.6387255e-01 2.6849972e+01 
1.6580349e-01 1.6483738e-01 2.6877932e+01 
7.3050815e-01 -1.8652737e-02 2.6901093e+01 
-4.0910429e-01 7.9615837e-01 2.6822500e+01 
-3.1541497e-01 6.4714670e-01 2.6823689e+01 
8.9578152e-01 -2.9765052e-01 2.6892174e+01 
-1.9813953e-01 7.2902083e-01 2.6797380e+01 
-4.3146390e-02 8.1588137e-01 2.6798080e+01 
-3.1957036e-01 9.4294500e-01 2.6793034e+01 
9.4803333e-01 -2.2585498e-01 2.6882631e+01 
2.3575833e-01 6.0538149e-01 2.6780153e+01 
-1.5973024e-02 3.0669981e-01 2.6777906e+01 
2.3454924e-01 3.4511736e-01 2.6782213e+01 
1.2528434e+00 -4.4372645e-01 2.6885391e+01 
-1.7344435e-01 8.8201398e-01 2.6708614e+01 
-5.3157441e-02 6.3773328e-01 2.6678797e+01 
4.8118183e-01 5.8693960e-02 2.6718853e+01 
9.5319584e-02 7.2766459e-01 2.6680201e+01 
-1.5214899e-01 4.3711048e-01 2.6677521e+01 
1.0989368e+00 -3.5089666e-01 2.6778786e+01 
-3.6459190e-01 7.1835440e-01 2.6662836e+01 
6.0751501e-02 4.7411481e-01 2.6673796e+01 
-2.6397499e-01 5.7380056e-01 2.6664028e+01 
1.0784932e+00 -3.8679248e-01 2.6776583e+01 
3.8452476e-01 4.2669073e-01 2.6675552e+01 
1.6677648e-01 1.6005835e-01 2.6673260e+01 
-4.3628448e-01 9.6380311e-01 2.6613605e+01 
-3.6119178e-02 8.1542253e-01 2.6617289e+01 
9.2957735e-01 -2.0743872e-01 2.6671389e+01 
8.7447953e-01 -2.9076689e-01 2.6666458e+01 
2.4224137e-01 6.0586935e-01 2.6575859e+01 
-1.5338697e-02 3.0217740e-01 2.6573137e+01 
1.2637922e+00 -4.5258832e-01 2.6681301e+01 
5.5511802e-01 1.9937269e-01 2.6570696e+01 
-1.7434385e-01 8.8476568e-01 2.6526093e+01 
4.0278018e-01 -3.0601777e-03 2.6568329e+01 
-1.0977552e-01 7.0912182e-01 2.6516153e+01 
-4.0937704e-01 7.9291391e-01 2.6501978e+01 
-3.1566116e-01 6.4313179e-01 2.6503174e+01 
3.5160586e-01 2.3918046e-01 2.6513710e+01 
3.6906490e-01 4.5529038e-01 2.6492054e+01 
1.0142336e-01 7.2879100e-01 2.6475782e+01 
1.3830093e-01 1.7722343e-01 2.6489302e+01 
-1.5167892e-01 4.3287542e-01 2.6472662e+01 
1.1096928e+00 -3.5936022e-01 2.6574656e+01 
1.4764506e-01 3.9803839e-01 2.6474131e+01 
1.0888803e+00 -3.9581040e-01 2.6572418e+01 
-3.1745169e-01 9.4451046e-01 2.6434898e+01 
-3.4485459e-02 8.1822294e-01 2.6434351e+01 
6.7370826e-01 -1.7706862e-01 2.6460331e+01 
7.6920027e-01 -4.9078654e-02 2.6455688e+01 
9.4029891e-01 -2.1504997e-01 2.6467232e+01 
-1.9891942e-01 7.3693514e-01 2.6372574e+01 
8.8403273e-01 -3.0011544e-01 2.6462221e+01 
-4.3627200e-01 9.6372831e-01 2.6366308e+01 
2.4886821e-01 6.0648167e-01 2.6371407e+01 
-1.4727541e-02 2.9761428e-01 2.6368242e+01 
-3.9730158e-02 6.1563230e-01 2.6354824e+01 
-1.7379706e-01 8.8696223e-01 2.6343056e+01 
-3.6478329e-01 7.1475077e-01 2.6342318e+01 
-2.6444423e-01 5.6920820e-01 2.6343519e+01 
1.2748179e+00 -4.6140668e-01 2.6477030e+01 
1.0765741e-01 7.3005325e-01 2.6271206e+01 
-1.5124226e-01 4.2860034e-01 2.6267675e+01 
1.1205120e+00 -3.6777979e-01 2.6370340e+01 
9.0726316e-02 5.1499856e-01 2.6265591e+01 
-3.1744093e-01 9.4577897e-01 2.6251831e+01 
1.0993233e+00 -4.0480089e-01 2.6368067e+01 
-3.3142637e-02 8.2128125e-01 2.6251287e+01 
3.9862067e-01 4.2641330e-01 2.6266762e+01 
1.6870369e-01 1.5039258e-01 2.6263538e+01 
-2.3673542e-01 7.9341608e-01 2.6236818e+01 
-4.0973696e-01 7.8968281e-01 2.6181465e+01 
-3.1596383e-01 6.3904983e-01 2.6182653e+01 
9.5107520e-01 -2.2260262e-01 2.6262888e+01 
8.9362007e-01 -3.0944461e-01 2.6257799e+01 
-1.3072865e-01 5.6956875e-01 2.6166937e+01 
-1.7313503e-01 8.8917136e-01 2.6159986e+01 
2.5562426e-01 6.0720301e-01 2.6166790e+01 
-1.4138882e-02 2.9300854e-01 2.6163218e+01 
2.0703301e-01 3.8297799e-01 2.6165709e+01 
1.2859077e+00 -4.7020105e-01 2.6272570e+01 
5.6977439e-01 1.9695728e-01 2.6161900e+01 
4.0578684e-01 -1.3501500e-02 2.6158575e+01 
-4.3625867e-01 9.6364856e-01 2.6107265e+01 
3.8993278e-01 2.3590431e-01 2.6137421e+01 
2.2567226e-02 6.3089895e-01 2.6076445e+01 
-3.4248972e-01 8.5483420e-01 2.6067381e+01 
-1.8905006e-01 7.3296189e-01 2.6066471e+01 
-3.1787202e-02 8.2440645e-01 2.6068216e+01 
3.8340923e-01 4.5551103e-01 2.6082952e+01 
1.1400832e-01 7.3143685e-01 2.6066462e+01 
1.4007954e-01 1.6755562e-01 2.6079338e+01 
-1.5083796e-01 4.2428428e-01 2.6062559e+01 
1.1313802e+00 -3.7617338e-01 2.6165836e+01 
1.1098112e+00 -4.1377985e-01 2.6163527e+01 
-3.6514381e-01 7.1126819e-01 2.6021650e+01 
-2.6457831e-01 5.6399113e-01 2.6023146e+01 
-1.7244512e-01 8.9142060e-01 2.5976917e+01 
7.9140353e-01 -6.2353786e-02 2.6041460e+01 
6.9309163e-01 -1.9777231e-01 2.6037582e+01 
9.6189010e-01 -2.3011383e-01 2.6058353e+01 
-5.9458777e-02 6.3562751e-01 2.5971306e+01 
9.0323347e-01 -3.1876624e-01 2.6053185e+01 
2.6249498e-01 6.0801786e-01 2.5962008e+01 
-1.3572032e-02 2.8835812e-01 2.5958059e+01 
1.2970487e+00 -4.7899109e-01 2.6067921e+01 
2.5418541e-01 3.0633429e-01 2.5928549e+01 
-3.0486935e-01 9.4390142e-01 2.5883232e+01 
-2.6797229e-01 7.7608734e-01 2.5882799e+01 
-3.0407343e-02 8.2757717e-01 2.5885143e+01 
-4.1463673e-01 7.9580003e-01 2.5862995e+01 
-3.1460151e-01 6.3232481e-01 2.5859823e+01 
1.2046264e-01 7.3292702e-01 2.5861549e+01 
-1.5046494e-01 4.1992620e-01 2.5857307e+01 
1.1422827e+00 -3.8455907e-01 2.5961140e+01 
1.1203330e+00 -4.2276326e-01 2.5958794e+01 
6.3763924e-02 4.5644864e-01 2.5853495e+01 
-4.3624464e-01 9.6356440e-01 2.5835583e+01 
4.1323993e-01 4.2646205e-01 2.5857311e+01 
1.7060262e-01 1.4055842e-01 2.5853296e+01 
-1.7173706e-01 8.9370459e-01 2.5793846e+01 
-1.3892765e-01 7.1449900e-01 2.5790831e+01 
5.3634752e-02 6.7693269e-01 2.5791599e+01 
9.7272766e-01 -2.3760089e-01 2.5853624e+01 
9.1286457e-01 -3.2809237e-01 2.5848375e+01 
2.6946566e-01 6.0891068e-01 2.5757053e+01 
-1.3026283e-02 2.8366107e-01 2.5752769e+01 
-5.3073827e-02 5.7361978e-01 2.5734142e+01 
1.3082279e+00 -4.8779660e-01 2.5863077e+01 
5.8489454e-01 1.9469243e-01 2.5752438e+01 
4.0883476e-01 -2.4101542e-02 2.5748297e+01 
-3.1706783e-01 9.4961286e-01 2.5702549e+01 
-4.3956628e-01 8.6693645e-01 2.5699659e+01 
-3.6424673e-01 7.0566523e-01 2.5699594e+01 
-2.9009277e-02 8.3078277e-01 2.5702072e+01 
-2.6438329e-01 5.5808437e-01 2.5699532e+01 
3.7033194e-01 2.1481581e-01 2.5690437e+01 
3.9822254e-01 4.5601737e-01 2.5673178e+01 
1.2700683e-01 7.3450911e-01 2.5656462e+01 
1.4181910e-01 1.5770465e-01 2.5668842e+01 
-1.5012217e-01 4.1552514e-01 2.5651922e+01 
1.1532052e+00 -3.9295512e-01 2.5756247e+01 
1.5090202e-01 3.7991247e-01 2.5653374e+01 
1.1308776e+00 -4.3176726e-01 2.5753864e+01 
8.5614830e-02 5.2001303e-01 2.5634687e+01 
-1.7101559e-01 8.9601600e-01 2.5610775e+01 
-1.4261961e-01 6.4578158e-01 2.5592913e+01 
8.1141955e-01 -7.3058620e-02 2.5631042e+01 
9.8357171e-01 -2.4508113e-01 2.5648697e+01 
7.0714778e-01 -2.1506587e-01 2.5625628e+01 
-4.3623000e-01 9.6347654e-01 2.5550270e+01 
9.2250508e-01 -3.3743533e-01 2.5643366e+01 
-4.1015926e-01 7.8213930e-01 2.5539364e+01 
-3.1622860e-01 6.2989181e-01 2.5539303e+01 
-6.8829708e-02 5.2346069e-01 2.5544146e+01 
2.7652165e-01 6.0986590e-01 2.5551922e+01 
-2.1114407e-01 4.8515871e-01 2.5539244e+01 
-1.2500918e-02 2.7891546e-01 2.5547340e+01 
1.3194324e+00 -4.9663737e-01 2.5658033e+01 
-2.7600106e-02 8.3401346e-01 2.5519001e+01 
-2.2143817e-02 6.4488852e-01 2.5448870e+01 
1.3362730e-01 7.3616838e-01 2.5451199e+01 
-1.4980859e-01 4.1108003e-01 2.5446398e+01 
1.1641330e+00 -4.0137985e-01 2.5551151e+01 
1.1414338e+00 -4.4080818e-01 2.5548733e+01 
-1.9146235e-01 7.1289057e-01 2.5432335e+01 
-1.7028497e-01 8.9834756e-01 2.5427706e+01 
4.2825398e-01 4.2670625e-01 2.5447168e+01 
1.7247002e-01 1.3052680e-01 2.5442511e+01 
1.8208696e-01 4.1777062e-01 2.5422625e+01 
-4.4023791e-01 8.6622280e-01 2.5379128e+01 
-3.6578283e-01 7.0374703e-01 2.5379072e+01 
-2.6630020e-01 5.5498147e-01 2.5379017e+01 
9.9440604e-01 -2.5257194e-01 2.5443565e+01 
9.3214631e-01 -3.4680751e-01 2.5438154e+01 
-3.1681040e-01 9.5225513e-01 2.5336412e+01 
-2.6944220e-01 7.7627158e-01 2.5334244e+01 
-9.2655104e-03 6.2039578e-01 2.5340048e+01 
-2.6186738e-02 8.3725977e-01 2.5335928e+01 
2.8364819e-01 6.1086786e-01 2.5346611e+01 
-1.1995199e-02 2.7411929e-01 2.5341772e+01 
3.5168993e-01 2.3624262e-01 2.5344568e+01 
1.3306489e+00 -5.0553346e-01 2.5452785e+01 
6.0033917e-01 1.9244185e-01 2.5342276e+01 
4.1190642e-01 -3.4902722e-02 2.5337469e+01 
-4.3621495e-01 9.6338612e-01 2.5250231e+01 
-1.6954930e-01 9.0069222e-01 2.5244635e+01 
4.1337600e-01 4.5667779e-01 2.5262693e+01 
1.4031041e-01 7.3788989e-01 2.5245752e+01 
1.4351840e-01 1.4764395e-01 2.5257795e+01 
-1.4952312e-01 4.0658993e-01 2.5240730e+01 
1.1750513e+00 -4.0985176e-01 2.5345850e+01 
1.9005451e-01 4.4563493e-01 2.5244701e+01 
1.1519905e+00 -4.4990245e-01 2.5343397e+01 
-4.1163766e-01 7.8074008e-01 2.5218836e+01 
-3.1790262e-01 6.2742507e-01 2.5218784e+01 
-3.0403936e-01 9.4932318e-01 2.5165419e+01 
-2.6197895e-01 7.8222191e-01 2.5155273e+01 
8.3118588e-01 -8.3400063e-02 2.5220497e+01 
-2.4775835e-02 8.4051245e-01 2.5152857e+01 
1.0052146e+00 -2.6009092e-01 2.5238226e+01 
7.2041339e-01 -2.3203991e-01 2.5214588e+01 
9.4177973e-01 -3.5622162e-01 2.5232735e+01 
7.7008545e-02 5.6233704e-01 2.5137386e+01 
2.9083055e-01 6.1190087e-01 2.5141117e+01 
-1.1508378e-02 2.6927066e-01 2.5136061e+01 
4.3674362e-01 1.5127823e-01 2.5155958e+01 
1.3418643e+00 -5.1450491e-01 2.5247332e+01 
-4.3317962e-01 8.3352119e-01 2.5072035e+01 
-1.6881254e-01 9.0304291e-01 2.5061563e+01 
-3.6738139e-01 7.0181036e-01 2.5058548e+01 
-2.6826072e-01 5.5182660e-01 2.5058502e+01 
1.4704242e-01 7.3965877e-01 2.5040119e+01 
-1.4926471e-01 4.0205377e-01 2.5034920e+01 
1.1859456e+00 -4.1838935e-01 2.5140341e+01 
1.1625361e+00 -4.5906666e-01 2.5137852e+01 
6.6424586e-02 4.3814972e-01 2.5031002e+01 
-1.2864824e-01 7.1349293e-01 2.5017595e+01 
4.4353279e-01 4.2701352e-01 2.5036299e+01 
-2.7844161e-01 8.3511412e-01 2.5004343e+01 
1.7430347e-01 1.2026928e-01 2.5031158e+01 
-2.3373811e-02 8.4376252e-01 2.4969784e+01 
1.0159808e+00 -2.6765564e-01 2.5032675e+01 
-4.3619978e-01 9.6329463e-01 2.4934250e+01 
9.5139647e-01 -3.6569050e-01 2.5027103e+01 
8.3429322e-02 5.6365740e-01 2.4931620e+01 
2.9805383e-01 6.1294913e-01 2.4935434e+01 
-1.1039690e-02 2.6436758e-01 2.4930202e+01 
2.4853458e-01 3.8425511e-01 2.4933540e+01 
1.3530654e+00 -5.2357197e-01 2.5041666e+01 
-4.1316637e-01 7.7935004e-01 2.4898308e+01 
-3.1962201e-01 6.2492436e-01 2.4898266e+01 
6.1596888e-01 1.9006850e-01 2.4931379e+01 
4.1498575e-01 -4.5946937e-02 2.4926071e+01 
-1.2510374e-01 5.6097651e-01 2.4884756e+01 
-1.6807851e-01 9.0539283e-01 2.4878494e+01 
4.3395391e-01 2.3383884e-01 2.4904570e+01 
4.2873964e-01 4.5735914e-01 2.4851467e+01 
1.5380955e-01 7.4145997e-01 2.4834295e+01 
1.4517693e-01 1.3734755e-01 2.4846170e+01 
-1.4903229e-01 3.9747056e-01 2.4828960e+01 
1.1968011e+00 -4.2701137e-01 2.4934618e+01 
1.1730593e+00 -4.6831760e-01 2.4932091e+01 
6.7046680e-02 4.3346065e-01 2.4825016e+01 
-3.1640348e-01 9.5627135e-01 2.4787205e+01 
-2.1986887e-02 8.4700102e-01 2.4786713e+01 
-1.7599639e-01 7.4760932e-01 2.4784870e+01 
-4.3428972e-01 8.3260536e-01 2.4749866e+01 
8.5085768e-01 -9.3816407e-02 2.4809231e+01 
-3.6904129e-01 6.9985676e-01 2.4738026e+01 
1.0266887e+00 -2.7528384e-01 2.4826910e+01 
7.3350388e-01 -2.4919245e-01 2.4803024e+01 
-2.6703683e-01 5.4391044e-01 2.4733170e+01 
9.6098757e-01 -3.7522715e-01 2.4821257e+01 
2.6682077e-02 6.6072452e-01 2.4723106e+01 
3.0530313e-01 6.1399668e-01 2.4729559e+01 
-1.0588360e-02 2.5940812e-01 2.4724195e+01 
1.3642386e+00 -5.3275496e-01 2.4835785e+01 
-1.6735092e-01 9.0773523e-01 2.4695423e+01 
-2.7964368e-01 8.3275598e-01 2.4683037e+01 
2.9764545e-01 3.0818892e-01 2.4691965e+01 
1.6059794e-01 7.4327844e-01 2.4628275e+01 
-1.4882480e-01 3.9283925e-01 2.4622850e+01 
1.2076026e+00 -4.3573660e-01 2.4728678e+01 
1.1835485e+00 -4.7767216e-01 2.4726114e+01 
6.7654699e-02 4.2872179e-01 2.4618877e+01 
-4.3618479e-01 9.6320426e-01 2.4600973e+01 
-2.0621097e-02 8.5021919e-01 2.4603640e+01 
4.5894492e-01 4.2724982e-01 2.4624666e+01 
1.7610128e-01 1.0975802e-01 2.4619217e+01 
-4.1474190e-01 7.7797300e-01 2.4577780e+01 
-3.2138544e-01 6.2238944e-01 2.4577747e+01 
1.0373217e+00 -2.8299341e-01 2.4620924e+01 
-2.3953497e-01 7.7707952e-01 2.4521053e+01 
9.7054404e-01 -3.8484484e-01 2.4615191e+01 
-1.6663331e-01 9.1006362e-01 2.4512352e+01 
3.1256348e-01 6.1502767e-01 2.4523485e+01 
-1.0153597e-02 2.5439036e-01 2.4518038e+01 
2.6262936e-01 3.8473555e-01 2.4521467e+01 
1.3753709e+00 -5.4207450e-01 2.4629684e+01 
6.3164341e-01 1.8743438e-01 2.4519714e+01 
-4.8742749e-02 5.3950942e-01 2.4483150e+01 
4.1805783e-01 -5.7275664e-02 2.4514076e+01 
4.4888499e-01 2.3303138e-01 2.4492208e+01 
-3.1613064e-01 9.5894754e-01 2.4421064e+01 
-4.3544230e-01 8.3168292e-01 2.4420479e+01 
-1.9282261e-02 8.5340840e-01 2.4420567e+01 
-3.7076139e-01 6.9788790e-01 2.4417501e+01 
4.4418198e-01 4.5792660e-01 2.4439463e+01 
1.6739362e-01 7.4509901e-01 2.4422056e+01 
-2.4978189e-01 5.1323891e-01 2.4417015e+01 
1.4679477e-01 1.2678985e-01 2.4433945e+01 
-1.4864115e-01 3.8815880e-01 2.4416590e+01 
1.2183356e+00 -4.4458398e-01 2.4522514e+01 
1.4908350e-01 5.2383590e-01 2.4416132e+01 
1.5534723e-01 3.5134816e-01 2.4417990e+01 
1.1939919e+00 -4.8714739e-01 2.4519915e+01 
-2.8253296e-01 8.2928091e-01 2.4359261e+01 
-1.7228140e-01 6.5265435e-01 2.4362057e+01 
-1.6592912e-01 9.1237152e-01 2.4329281e+01 
8.7033403e-01 -1.0449259e-01 2.4397131e+01 
1.0478631e+00 -2.9080227e-01 2.4414715e+01 
7.4647039e-01 -2.6665279e-01 2.4390707e+01 
9.8005670e-01 -3.9455697e-01 2.4408899e+01 
3.1981984e-01 6.1602604e-01 2.4317211e+01 
-9.7345980e-03 2.4931239e-01 2.4311726e+01 
3.3365555e-02 6.6859847e-01 2.4296026e+01 
3.3627704e-01 2.2959825e-01 2.4312658e+01 
1.3864483e+00 -5.5155110e-01 2.4423361e+01 
-4.1636077e-01 7.7661276e-01 2.4257252e+01 
-3.2319164e-01 6.1982024e-01 2.4257229e+01 
-4.3617052e-01 9.6311778e-01 2.4248888e+01 
-1.7061202e-01 7.5398231e-01 2.4235706e+01 
-1.7976006e-02 8.5656029e-01 2.4237495e+01 
1.7418259e-01 7.4690634e-01 2.4215633e+01 
-1.4848028e-01 3.8342813e-01 2.4210171e+01 
1.2289847e+00 -4.5357260e-01 2.4316126e+01 
1.5561509e-01 5.2489126e-01 2.4209764e+01 
1.2043779e+00 -4.9676052e-01 2.4313490e+01 
4.7435725e-01 4.2727932e-01 2.4212236e+01 
1.7786238e-01 9.8965608e-02 2.4206665e+01 
-1.6524169e-01 9.1465259e-01 2.4146210e+01 
1.0582967e+00 -2.9872853e-01 2.4208277e+01 
9.8951632e-01 -4.0437710e-01 2.4202381e+01 
-2.6957390e-01 5.3507406e-01 2.4100937e+01 
-3.7254041e-01 6.9590580e-01 2.4096979e+01 
3.2705700e-01 6.1697561e-01 2.4110729e+01 
2.2760339e-02 4.6228051e-01 2.4103487e+01 
-9.3305483e-03 2.4417225e-01 2.4105255e+01 
2.7662918e-01 3.8503861e-01 2.4108667e+01 
-4.3663767e-01 8.3075422e-01 2.4083229e+01 
1.3974574e+00 -5.6120557e-01 2.4216808e+01 
6.4722180e-01 1.8440033e-01 2.4107244e+01 
4.2110878e-01 -6.8930060e-02 2.4101467e+01 
-3.1586528e-01 9.6159452e-01 2.4054926e+01 
-1.6707774e-02 8.5966641e-01 2.4054422e+01 
4.6370018e-01 2.3194017e-01 2.4079092e+01 
-2.8687978e-01 8.2475471e-01 2.4032751e+01 
4.5957011e-01 4.5824367e-01 2.4026644e+01 
1.8095072e-01 7.4868518e-01 2.4009003e+01 
1.4837258e-01 1.1594572e-01 2.4021097e+01 
-1.4834109e-01 3.7864625e-01 2.4003593e+01 
1.6209964e-01 5.2590668e-01 2.4003210e+01 
1.2395349e+00 -4.6272165e-01 2.4109509e+01 
1.2146945e+00 -5.0652891e-01 2.4106836e+01 
-1.6457419e-01 9.1690063e-01 2.3963139e+01 
-1.1857112e-01 7.3855883e-01 2.3960262e+01 
-4.1801944e-01 7.7527308e-01 2.3936726e+01 
-3.2503951e-01 6.1721677e-01 2.3936710e+01 
1.0686055e+00 -3.0679032e-01 2.4001608e+01 
9.9891347e-01 -4.1431901e-01 2.3995630e+01 
8.9238876e-01 -1.1857107e-01 2.3969908e+01 
7.6192510e-01 -2.8646281e-01 2.3961222e+01 
3.3425981e-01 6.1786020e-01 2.3904039e+01 
2.3244303e-02 4.5748365e-01 2.3896793e+01 
-8.9406203e-03 2.3896800e-01 2.3898624e+01 
-2.4169739e-01 7.7240252e-01 2.3879854e+01 
4.5691749e-01 1.0043072e-01 2.3915018e+01 
-4.3615755e-01 9.6303880e-01 2.3876305e+01 
1.4083844e+00 -5.7105875e-01 2.4010023e+01 
-1.5482814e-02 8.6271876e-01 2.3871349e+01 
5.8232084e-02 6.6290146e-01 2.3869537e+01 
1.8768382e-01 7.5041997e-01 2.3802158e+01 
-1.4822249e-01 3.7381205e-01 2.3796854e+01 
1.2499708e+00 -4.7205046e-01 2.3902657e+01 
-2.5212449e-01 5.0322270e-01 2.3786627e+01 
1.2249298e+00 -5.1647007e-01 2.3899946e+01 
-1.6392973e-01 9.1910970e-01 2.3780067e+01 
-3.7437692e-01 6.9391245e-01 2.3776455e+01 
-1.1674419e-01 7.4088609e-01 2.3777250e+01 
4.8963484e-01 4.2696428e-01 2.3798975e+01 
1.7958628e-01 8.7865040e-02 2.3793476e+01 
1.9715622e-01 2.7967593e-01 2.3761219e+01 
-4.3787619e-01 8.2981974e-01 2.3737400e+01 
-2.8717041e-01 8.1302065e-01 2.3702682e+01 
1.0787729e+00 -3.1500599e-01 2.3794703e+01 
1.0082386e+00 -4.2439666e-01 2.3788643e+01 
-3.1561410e-01 9.6418935e-01 2.3688787e+01 
-1.4306206e-02 8.6570925e-01 2.3688278e+01 
1.2158955e-01 5.7150555e-01 2.3693172e+01 
3.4141290e-01 6.1866343e-01 2.3697132e+01 
2.3719039e-02 4.5263240e-01 2.3689936e+01 
-8.5639758e-03 2.3369774e-01 2.3691832e+01 
2.2114752e-01 2.8586218e-01 2.3692486e+01 
1.4192156e+00 -5.8113188e-01 2.3803003e+01 
6.6255462e-01 1.8083836e-01 2.3693859e+01 
4.2411417e-01 -8.0944978e-02 2.3688148e+01 
3.7457243e-01 1.0112036e-01 2.3661978e+01 
-3.2694101e-01 6.1459988e-01 2.3616192e+01 
-4.0957448e-01 7.5251788e-01 2.3613459e+01 
-1.6326994e-01 9.2126071e-01 2.3596996e+01 
4.7473165e-01 4.5822737e-01 2.3612946e+01 
1.9436759e-01 7.5209528e-01 2.3595097e+01 
1.4986607e-01 1.0482293e-01 2.3607580e+01 
-1.4812341e-01 3.6892450e-01 2.3589951e+01 
2.4520110e-01 4.4938049e-01 2.3594755e+01 
1.2602772e+00 -4.8157850e-01 2.3695568e+01 
-1.0692395e-01 5.8997828e-01 2.3577944e+01 
1.2350717e+00 -5.2660167e-01 2.3692822e+01 
-1.9411552e-01 7.1497631e-01 2.3535522e+01 
-3.4596390e-01 8.6988974e-01 2.3526278e+01 
9.0454876e-01 -1.2338672e-01 2.3586546e+01 
1.0887486e+00 -3.2335916e-01 2.3587498e+01 
7.7066875e-01 -3.0214232e-01 2.3561571e+01 
1.0174520e+00 -4.3461099e-01 2.3581356e+01 
-4.3614674e-01 9.6297240e-01 2.3481318e+01 
3.6244933e-02 4.2853448e-01 2.3493288e+01 
3.4845427e-01 6.1941725e-01 2.3490042e+01 
-8.2424823e-03 2.2839816e-01 2.3484901e+01 
2.3244743e-01 2.9396808e-01 2.3488268e+01 
-3.7626949e-01 6.9191003e-01 2.3455933e+01 
1.4299368e+00 -5.9144598e-01 2.3595745e+01 
-2.6494727e-01 5.1438928e-01 2.3439394e+01 
6.3495362e-01 -1.2577909e-02 2.3476830e+01 
4.7430340e-02 8.4388548e-01 2.3424957e+01 
-1.5113731e-01 9.1977179e-01 2.3413239e+01 
-1.8842214e-01 6.9091284e-01 2.3394566e+01 
1.1143919e+00 -4.1161522e-01 2.3490065e+01 
2.0098548e-01 7.5369483e-01 2.3387880e+01 
-1.4804277e-01 3.6398396e-01 2.3382940e+01 
1.2704892e+00 -4.9136543e-01 2.3488274e+01 
1.2451701e+00 -5.3696352e-01 2.3485491e+01 
-1.0427897e-01 5.3197539e-01 2.3366907e+01 
5.0450277e-01 4.2637786e-01 2.3384724e+01 
1.8110166e-01 7.6549910e-02 2.3379543e+01 
4.0530406e-02 6.8655157e-01 2.3355295e+01 
-3.2885638e-01 6.1190706e-01 2.3295671e+01 
-4.2360795e-01 7.7776718e-01 2.3290382e+01 
-2.2676916e-01 4.5695958e-01 2.3295675e+01 
1.0988171e+00 -3.3217964e-01 2.3380028e+01 
1.0268935e+00 -4.4514671e-01 2.3373806e+01 
9.1559611e-02 8.2570386e-01 2.3272957e+01 
3.5530624e-01 6.2016714e-01 2.3282873e+01 
-8.0124615e-03 2.2310263e-01 2.3277920e+01 
-2.3820063e-01 9.4688249e-01 2.3254484e+01 
-6.2758163e-02 8.9203560e-01 2.3254904e+01 
1.4405305e+00 -6.0201889e-01 2.3388313e+01 
5.5725154e-02 4.2394930e-01 2.3256020e+01 
3.9210442e-01 2.0778997e-01 2.3270485e+01 
6.7718446e-01 1.7704147e-01 2.3279091e+01 
4.2669433e-01 -9.3123958e-02 2.3273808e+01 
-3.0010354e-02 7.2584683e-01 2.3210073e+01 
9.0459210e-01 -1.1609921e-01 2.3270834e+01 
-9.7947933e-02 5.3298515e-01 2.3205841e+01 
-1.9504046e-01 7.7643543e-01 2.3198162e+01 
4.8930955e-01 4.5804638e-01 2.3198578e+01 
2.0751823e-01 7.5520194e-01 2.3180662e+01 
-1.4797948e-01 3.5899207e-01 2.3175930e+01 
1.8732257e-01 5.2970248e-01 2.3175400e+01 
1.2806687e+00 -5.0149173e-01 2.3280901e+01 
3.9558125e-01 4.1262913e-01 2.3180519e+01 
1.2553079e+00 -5.4760426e-01 2.3278084e+01 
1.8163174e-01 7.0918240e-02 2.3172598e+01 
-2.6617825e-01 5.0972009e-01 2.3141127e+01 
-3.8469461e-01 7.0048296e-01 2.3128822e+01 
-3.5292545e-01 8.6407781e-01 2.3124865e+01 
4.7318127e-02 8.5015982e-01 2.3116383e+01 
-1.4893758e-01 9.2302626e-01 2.3096149e+01 
-4.3613955e-01 9.6292734e-01 2.3090166e+01 
1.1088191e+00 -3.4134698e-01 2.3172722e+01 
1.0364138e+00 -4.5593533e-01 2.3166426e+01 
-2.6451293e-01 8.0169237e-01 2.3067924e+01 
7.8301793e-01 -3.2129639e-01 2.3135336e+01 
3.6205116e-01 6.2078965e-01 2.3075703e+01 
-7.7957548e-03 2.1774229e-01 2.3070940e+01 
2.9861087e-01 2.1753128e-01 2.3071957e+01 
1.4509737e+00 -6.1286211e-01 2.3180887e+01 
-7.5454049e-02 7.3274755e-01 2.3033218e+01 
6.2996757e-01 -2.6104817e-02 2.3078354e+01 
5.8671329e-03 4.5069066e-01 2.3026648e+01 
-1.4747897e-01 6.0546982e-01 2.2994665e+01 
-3.3082375e-01 6.0920119e-01 2.2975153e+01 
-4.1436747e-01 7.5175709e-01 2.2971848e+01 
2.1395151e-01 7.5660110e-01 2.2973440e+01 
-1.4793241e-01 3.5394797e-01 2.2968920e+01 
1.9336563e-01 5.3053641e-01 2.2968357e+01 
-3.5756269e-01 8.8687891e-01 2.2952375e+01 
1.2906637e+00 -5.1186776e-01 2.3073534e+01 
1.2653084e+00 -5.5847716e-01 2.3070683e+01 
5.1853114e-01 4.2578015e-01 2.2970501e+01 
-2.3646833e-01 9.4927984e-01 2.2937397e+01 
-6.0206190e-02 8.9583772e-01 2.2937815e+01 
1.4550871e-01 9.1341540e-02 2.2949434e+01 
3.9526228e-02 6.7998105e-01 2.2894148e+01 
-2.9189989e-01 8.0669153e-01 2.2884363e+01 
1.1186062e+00 -3.5074326e-01 2.2965425e+01 
9.3380713e-01 -1.4449859e-01 2.2935165e+01 
-5.1485628e-02 5.4706943e-01 2.2867428e+01 
1.0458294e+00 -4.6691012e-01 2.2959053e+01 
3.6867368e-01 6.2126869e-01 2.2868526e+01 
-4.4111305e-01 8.2761902e-01 2.2850208e+01 
-7.5914697e-03 2.1231553e-01 2.2863960e+01 
3.4177139e-01 9.0783194e-02 2.2873018e+01 
2.0076139e-01 2.5823078e-01 2.2861296e+01 
3.7860644e-01 2.9325855e-01 2.2860529e+01 
1.4612525e+00 -6.2399602e-01 2.2973471e+01 
4.2856127e-01 -1.0527847e-01 2.2860006e+01 
-3.8021600e-01 6.8788797e-01 2.2814886e+01 
8.8906342e-01 -2.6121482e-01 2.2878479e+01 
-2.6810622e-01 5.0515950e-01 2.2805027e+01 
4.8963264e-02 8.5568166e-01 2.2781332e+01 
-1.6530025e-01 9.3161547e-01 2.2768660e+01 
2.2027096e-01 7.5787681e-01 2.2766214e+01 
1.5195708e-01 8.2151279e-02 2.2779675e+01 
-1.4790040e-01 3.4885076e-01 2.2761913e+01 
1.3004593e+00 -5.2251250e-01 2.2866175e+01 
7.2039045e-02 3.8338366e-01 2.2757689e+01 
1.2751596e+00 -5.6959945e-01 2.2863289e+01 
5.0451678e-01 4.5744902e-01 2.2742922e+01 
-4.3613648e-01 9.6290654e-01 2.2716236e+01 
-2.4547674e-01 7.6352119e-01 2.2709349e+01 
-1.5137006e-01 6.0071212e-01 2.2704905e+01 
-2.3652302e-02 7.1996051e-01 2.2674707e+01 
1.1281620e+00 -3.6038664e-01 2.2758135e+01 
-4.2497972e-01 7.7020073e-01 2.2654613e+01 
-3.3282942e-01 6.0646170e-01 2.2654634e+01 
-2.3148142e-01 4.4822136e-01 2.2654655e+01 
-6.0552772e-02 4.7463012e-01 2.2654819e+01 
3.7515840e-01 6.2158823e-01 2.2661348e+01 
-7.3987087e-03 2.0682073e-01 2.2656984e+01 
3.1523886e-01 2.0194311e-01 2.2662321e+01 
3.2976341e-01 4.0784532e-01 2.2654531e+01 
1.0905206e+00 -4.9565867e-01 2.2732183e+01 
1.4713528e+00 -6.3544089e-01 2.2766060e+01 
-2.3479818e-01 9.5153236e-01 2.2620310e+01 
5.0056118e-01 2.6355234e-01 2.2650881e+01 
-5.7822026e-02 8.9938813e-01 2.2620724e+01 
1.1289950e-01 8.2895011e-01 2.2621138e+01 
6.9703025e-01 1.7110181e-01 2.2657969e+01 
7.9474276e-01 -3.4308171e-01 2.2638334e+01 
2.2646222e-01 7.5901353e-01 2.2558985e+01 
5.0560880e-01 4.6343264e-01 2.2573109e+01 
-1.4788233e-01 3.4369957e-01 2.2554907e+01 
6.0103558e-02 6.8997955e-01 2.2549452e+01 
7.2398253e-02 3.7801775e-01 2.2550652e+01 
1.3100402e+00 -5.3344482e-01 2.2658823e+01 
1.2848494e+00 -5.8098853e-01 2.2655905e+01 
1.8312849e-01 5.3507257e-02 2.2551769e+01 
-2.5846222e-01 8.1965542e-01 2.2524616e+01 
-4.4235477e-01 8.2681906e-01 2.2511513e+01 
-3.8226637e-01 6.8587357e-01 2.2494362e+01 
-2.9725790e-01 9.6748495e-01 2.2492002e+01 
-2.8505650e-01 5.2471387e-01 2.2494389e+01 
-1.4486906e-01 9.2894632e-01 2.2461973e+01 
1.1050200e+00 -5.0824600e-01 2.2562387e+01 
6.5739714e-02 8.5402292e-01 2.2460321e+01 
4.8170969e-01 -9.2351111e-03 2.2481342e+01 
-2.0242177e-01 6.8416452e-01 2.2439165e+01 
3.8149002e-01 6.2173218e-01 2.2454165e+01 
-7.2165639e-03 2.0125628e-01 2.2450006e+01 
1.1646889e+00 -3.9905700e-01 2.2530802e+01 
9.2106640e-01 -3.5492042e-01 2.2507561e+01 
3.8212574e-01 3.0814865e-01 2.2441839e+01 
1.4812609e+00 -6.4721698e-01 2.2558659e+01 
9.4345272e-01 -1.4824460e-01 2.2441990e+01 
-4.3613747e-01 9.6290970e-01 2.2358269e+01 
6.2609896e-02 6.9123232e-01 2.2364092e+01 
-1.8636177e-01 7.8278673e-01 2.2356901e+01 
9.5331860e-01 -3.2222122e-01 2.2431147e+01 
2.3251092e-01 7.5999576e-01 2.2351751e+01 
-1.4787705e-01 3.3849353e-01 2.2347902e+01 
-1.5501995e-01 5.1430821e-01 2.2341249e+01 
-4.2678279e-01 7.6902473e-01 2.2334085e+01 
-3.3487281e-01 6.0368907e-01 2.2334116e+01 
7.2756581e-02 3.7258536e-01 2.2343615e+01 
1.3193916e+00 -5.4468369e-01 2.2451483e+01 
4.2863911e-01 -1.1892819e-01 2.2368868e+01 
1.2943654e+00 -5.9266174e-01 2.2448530e+01 
1.9703765e-01 5.4708380e-01 2.2336693e+01 
5.3842264e-01 4.2350528e-01 2.2349138e+01 
1.8359688e-01 4.7522273e-02 2.2344830e+01 
-2.3320012e-01 9.5361739e-01 2.2303223e+01 
-5.5626601e-02 9.0265054e-01 2.2303633e+01 
1.1592287e-01 8.3360887e-01 2.2304043e+01 
-2.7674658e-02 5.0639307e-01 2.2287285e+01 
1.1465145e+00 -3.8048711e-01 2.2343584e+01 
1.0733103e+00 -5.0107390e-01 2.2336990e+01 
-2.8985184e-01 8.1290364e-01 2.2234650e+01 
3.8765311e-01 6.2168437e-01 2.2246977e+01 
-7.0441235e-03 1.9562058e-01 2.2243032e+01 
1.4909631e+00 -6.5934461e-01 2.2351269e+01 
9.2653386e-02 6.7741948e-01 2.2210583e+01 
-1.0381535e-01 7.5851756e-01 2.2198416e+01 
-4.4357660e-01 8.2607269e-01 2.2178974e+01 
-3.8436556e-01 6.8386084e-01 2.2173840e+01 
-2.7136290e-01 4.9567172e-01 2.2170666e+01 
-2.9640308e-01 9.6930540e-01 2.2161526e+01 
8.1158292e-01 -3.6625743e-01 2.2223717e+01 
-1.4303155e-01 9.3155068e-01 2.2144884e+01 
3.2380112e-02 8.7248933e-01 2.2145292e+01 
2.3840272e-01 7.6080799e-01 2.2144512e+01 
-1.4788343e-01 3.3323175e-01 2.2140898e+01 
7.0225346e-01 1.7746495e-01 2.2168039e+01 
7.3115543e-02 3.6708480e-01 2.2136581e+01 
1.3284981e+00 -5.5624801e-01 2.2244152e+01 
1.3036957e+00 -6.0463637e-01 2.2241167e+01 
5.4467762e-01 4.2231122e-01 2.2142008e+01 
1.8405038e-01 4.1442055e-02 2.2137892e+01 
3.5778069e-01 3.8658461e-01 2.2109282e+01 
-1.5072858e-01 5.9338915e-01 2.2065928e+01 
-1.8370791e-01 7.8494686e-01 2.2040012e+01 
-2.3077978e-02 7.3085934e-01 2.2040258e+01 
1.0821817e+00 -5.1292259e-01 2.2129656e+01 
1.6777425e-01 5.7903099e-01 2.2036680e+01 
3.9363232e-01 6.2142879e-01 2.2039785e+01 
-6.8804654e-03 1.8991207e-01 2.2036058e+01 
-5.8281053e-02 4.6305192e-01 2.2026995e+01 
-4.3614239e-01 9.6293622e-01 2.2015120e+01 
1.1824377e+00 -4.2023399e-01 2.2116255e+01 
-4.2860359e-01 7.6789397e-01 2.2013557e+01 
-3.3695331e-01 6.0088378e-01 2.2013597e+01 
2.4623194e-01 2.4743041e-01 2.2030500e+01 
-2.3622034e-01 4.3918720e-01 2.2013636e+01 
4.1936991e-01 4.4536415e-02 2.2035465e+01 
1.5004454e+00 -6.7184401e-01 2.2143890e+01 
-2.3168376e-01 9.5551270e-01 2.1986135e+01 
-5.3640123e-02 9.0558922e-01 2.1986542e+01 
1.1859040e-01 8.3782405e-01 2.1986950e+01 
9.6120626e-01 -1.6581079e-01 2.2027626e+01 
2.4412322e-01 7.6143467e-01 2.1937267e+01 
-1.4790031e-01 3.2791331e-01 2.1933897e+01 
6.9009155e-02 6.9152462e-01 2.1921587e+01 
1.3373450e+00 -5.6815654e-01 2.2036835e+01 
1.3128278e+00 -6.1692983e-01 2.2033817e+01 
5.5071616e-01 4.2087084e-01 2.1934874e+01 
1.8448929e-01 3.5263915e-02 2.1930954e+01 
-2.0426027e-01 6.7876953e-01 2.1905285e+01 
4.3394682e-01 -1.3489871e-01 2.1943766e+01 
-6.3800633e-02 7.4611378e-01 2.1895777e+01 
1.5234141e-01 3.6289385e-01 2.1907097e+01 
-2.6682827e-01 8.0828989e-01 2.1880285e+01 
-4.4808769e-01 8.6115116e-01 2.1853271e+01 
-3.8651142e-01 6.8185276e-01 2.1853315e+01 
-2.8945109e-01 5.1740527e-01 2.1853359e+01 
-1.1425213e-01 4.7883326e-01 2.1845615e+01 
1.1637460e+00 -4.0179333e-01 2.1929081e+01 
-3.2085952e-01 9.7719896e-01 2.1827389e+01 
-1.4134528e-01 9.3387800e-01 2.1827793e+01 
7.4091829e-02 8.5997099e-01 2.1829697e+01 
3.9941230e-01 6.2094927e-01 2.1832588e+01 
-6.7246635e-03 1.8412915e-01 2.1829086e+01 
4.0781239e-01 2.8875938e-01 2.1828815e+01 
1.1264921e+00 -5.4280704e-01 2.1902830e+01 
1.5096939e+00 -6.8473530e-01 2.1936525e+01 
6.7405778e-01 -8.2608104e-02 2.1799412e+01 
8.2800931e-01 -3.9013460e-01 2.1809156e+01 
-1.8134151e-01 7.8690338e-01 2.1723129e+01 
2.4965806e-01 7.6186037e-01 2.1730019e+01 
-7.8488179e-03 7.2586900e-01 2.1723345e+01 
-1.4792658e-01 3.2253736e-01 2.1726896e+01 
1.3459170e+00 -5.8042824e-01 2.1829533e+01 
1.8328798e-01 2.8918517e-01 2.1720671e+01 
1.3217497e+00 -6.2955952e-01 2.1826481e+01 
1.8491389e-01 2.8985191e-02 2.1724018e+01 
-4.3043837e-01 7.6681274e-01 2.1693029e+01 
-3.3907047e-01 5.9804648e-01 2.1693079e+01 
-2.3858717e-01 4.3455952e-01 2.1693127e+01 
-4.3615115e-01 9.6298552e-01 2.1685753e+01 
5.3583312e-01 4.5231947e-01 2.1707222e+01 
-2.3025869e-01 9.5719618e-01 2.1669046e+01 
-5.1882043e-02 9.0816909e-01 2.1669451e+01 
1.2087225e-01 8.4154892e-01 2.1669855e+01 
-5.3312499e-02 4.5830593e-01 2.1643988e+01 
-1.5750913e-01 5.9671736e-01 2.1636007e+01 
4.2829958e-01 -1.7568506e-02 2.1656330e+01 
1.0994313e+00 -5.3739780e-01 2.1715033e+01 
4.0497765e-01 6.2022984e-01 2.1625385e+01 
-6.5757851e-03 1.7827025e-01 2.1622116e+01 
3.5783470e-01 4.0355101e-01 2.1619883e+01 
1.1990107e+00 -4.4271347e-01 2.1701761e+01 
5.2915817e-01 2.5572118e-01 2.1616009e+01 
1.5186949e+00 -6.9803882e-01 2.1729176e+01 
7.2580820e-01 1.5621677e-01 2.1622677e+01 
9.8650567e-02 6.8429941e-01 2.1576998e+01 
-2.5366732e-01 8.1923795e-01 2.1565691e+01 
-9.8765545e-02 7.6330501e-01 2.1564573e+01 
9.7765177e-01 -1.8456650e-01 2.1613316e+01 
-3.8870168e-01 6.7985266e-01 2.1532791e+01 
-4.4595951e-01 8.2474715e-01 2.1530661e+01 
-2.9166448e-01 5.1366907e-01 2.1532845e+01 
-2.9485676e-01 9.7241843e-01 2.1517338e+01 
2.5499284e-01 7.6206940e-01 2.1522764e+01 
5.3607821e-01 4.5750764e-01 2.1537380e+01 
-1.4796107e-01 3.1710300e-01 2.1519897e+01 
-1.3982475e-01 9.3589914e-01 2.1510704e+01 
3.6289167e-02 8.7856436e-01 2.1511106e+01 
2.3068595e-01 5.3198123e-01 2.1519499e+01 
7.4211150e-02 3.5015821e-01 2.1515482e+01 
1.3541992e+00 -5.9308189e-01 2.1622246e+01 
1.3304491e+00 -6.4254290e-01 2.1619160e+01 
1.8532450e-01 2.2603260e-02 2.1517084e+01 
4.3986526e-01 -1.5164553e-01 2.1528114e+01 
-2.0625126e-01 6.7464018e-01 2.1477753e+01 
1.1797261e+00 -4.2445010e-01 2.1514635e+01 
-1.7928760e-01 7.8863198e-01 2.1406256e+01 
-1.7536037e-02 7.3607546e-01 2.1406353e+01 
4.1031298e-01 6.1925435e-01 2.1418177e+01 
-6.4328900e-03 1.7233385e-01 2.1415148e+01 
1.1434413e+00 -5.6801409e-01 2.1488234e+01 
4.0940437e-01 3.0186808e-01 2.1404728e+01 
1.5274345e+00 -7.1177459e-01 2.1521843e+01 
-4.3228334e-01 7.6578540e-01 2.1372501e+01 
-3.4122384e-01 5.9517813e-01 2.1372559e+01 
-4.3616357e-01 9.6305656e-01 2.1369225e+01 
-2.4094583e-01 4.2985818e-01 2.1372618e+01 
-2.2893430e-01 9.5864624e-01 2.1351959e+01 
-5.0371148e-02 9.1035581e-01 2.1352360e+01 
1.2273997e-01 8.4473825e-01 2.1352758e+01 
6.8791682e-01 -1.0670174e-01 2.1385464e+01 
8.4396130e-01 -4.1479328e-01 2.1394640e+01 
2.6011321e-01 7.6204640e-01 2.1315504e+01 
-1.4800264e-01 3.1160939e-01 2.1312899e+01 
2.3512085e-01 5.3137910e-01 2.1312580e+01 
-9.9072650e-02 4.9886757e-01 2.1301144e+01 
1.3621765e+00 -6.0613632e-01 2.1414976e+01 
1.8436533e-01 2.7714986e-01 2.1306627e+01 
7.6055571e-02 6.9100243e-01 2.1293673e+01 
1.3389138e+00 -6.5589732e-01 2.1411858e+01 
5.6736141e-01 4.1490111e-01 2.1313438e+01 
1.8572149e-01 1.6115529e-02 2.1310152e+01 
-5.2456588e-02 7.5551277e-01 2.1259262e+01 
-2.7930909e-01 8.1257397e-01 2.1219915e+01 
-4.4951212e-01 8.6096132e-01 2.1212206e+01 
-3.9093411e-01 6.7786419e-01 2.1212269e+01 
-2.7151442e-01 4.7288927e-01 2.1211452e+01 
-2.9416823e-01 9.7369719e-01 2.1202869e+01 
1.1159552e+00 -5.6300718e-01 2.1300476e+01 
8.1112370e-02 8.6411744e-01 2.1199059e+01 
4.1540295e-01 6.1800677e-01 2.1210964e+01 
-1.3848399e-01 9.3758529e-01 2.1193615e+01 
-6.2950337e-03 1.6631839e-01 2.1208181e+01 
3.5950851e-01 3.7648550e-01 2.1210875e+01 
1.2142800e+00 -4.6664053e-01 2.1287336e+01 
1.5358988e+00 -7.2596282e-01 2.1314529e+01 
7.3539990e-01 1.4812504e-01 2.1208523e+01 
5.4880440e-01 2.1242598e-01 2.1178146e+01 
9.9264753e-01 -2.0465690e-01 2.1199076e+01 
-2.4733865e-01 7.5643265e-01 2.1113436e+01 
5.5078053e-01 4.4653851e-01 2.1127159e+01 
-1.5049101e-01 5.7795662e-01 2.1104774e+01 
2.6500475e-01 7.6177573e-01 2.1108240e+01 
-1.4805017e-01 3.0605558e-01 2.1105904e+01 
-1.6463615e-01 7.9380965e-01 2.1094870e+01 
7.4971952e-02 3.3850393e-01 2.1101423e+01 
1.3698343e+00 -6.1961031e-01 2.1207727e+01 
1.3471316e+00 -6.6964024e-01 2.1204576e+01 
1.8610521e-01 9.5194289e-03 2.1103222e+01 
4.4572431e-01 -1.6899161e-01 2.1113829e+01 
-4.3617955e-01 9.6314853e-01 2.1064674e+01 
-4.3413314e-01 7.6481175e-01 2.1051975e+01 
-3.4342149e-01 5.9229428e-01 2.1052036e+01 
-2.4331558e-01 4.2511255e-01 2.1051878e+01 
-2.2771925e-01 9.5984131e-01 2.1034870e+01 
-4.9126040e-02 9.1211563e-01 2.1035267e+01 
1.2416576e-01 8.4734827e-01 2.1035662e+01 
-5.3179283e-02 4.4395894e-01 2.1016150e+01 
5.7488076e-02 6.1648232e-01 2.1014610e+01 
3.2496569e-01 5.6963569e-01 2.1022202e+01 
-2.9454857e-01 8.3582270e-01 2.1002966e+01 
1.1943256e+00 -4.4860187e-01 2.1100266e+01 
4.2023215e-01 6.1647093e-01 2.1003748e+01 
-6.1612665e-03 1.6022231e-01 2.1001215e+01 
4.2930782e-01 2.1007882e-01 2.1009871e+01 
2.4936557e-01 2.1649866e-01 2.0995319e+01 
1.1596034e+00 -5.9447777e-01 2.1073708e+01 
1.5440741e+00 -7.4062353e-01 2.1107239e+01 
-1.2849934e-01 6.1692709e-01 2.0956635e+01 
1.0249134e-01 6.8927443e-01 2.0943167e+01 
-9.5271185e-02 7.6684374e-01 2.0930796e+01 
7.0032787e-01 -1.3254406e-01 2.0971661e+01 
-4.4826508e-01 8.2369649e-01 2.0902285e+01 
8.5943770e-01 -4.4035077e-01 2.0980160e+01 
-2.9353839e-01 9.7478276e-01 2.0893034e+01 
-3.9317811e-01 6.7584252e-01 2.0891800e+01 
2.6965308e-01 7.6124191e-01 2.0900970e+01 
-1.4810251e-01 3.0044070e-01 2.0898909e+01 
-2.9626784e-01 5.0629056e-01 2.0891756e+01 
1.3771572e+00 -6.3352257e-01 2.1000502e+01 
-1.3733582e-01 9.3890798e-01 2.0876524e+01 
3.8840961e-02 8.8271052e-01 2.0876919e+01 
5.7706070e-01 4.0937686e-01 2.0899124e+01 
1.3550901e+00 -6.8378913e-01 2.0997318e+01 
1.8647605e-01 2.8124219e-03 2.0896294e+01 
1.4271143e-01 5.1119131e-01 2.0795483e+01 
1.1317004e+00 -5.8988202e-01 2.0886005e+01 
-1.6059917e-01 5.8542389e-01 2.0784706e+01 
4.2478514e-01 6.1463088e-01 2.0796526e+01 
-6.0306326e-03 1.5404411e-01 2.0794250e+01 
3.6755285e-01 3.7187320e-01 2.0797125e+01 
-4.3619889e-01 9.6326047e-01 2.0771313e+01 
-1.7621495e-01 7.9131138e-01 2.0772524e+01 
1.2281178e+00 -4.9215993e-01 2.0872995e+01 
-1.3948786e-02 7.3972392e-01 2.0772537e+01 
2.5002518e-01 2.0998517e-01 2.0788282e+01 
-5.1241204e-02 4.3993318e-01 2.0771322e+01 
4.2363301e-01 4.6945130e-03 2.0793827e+01 
1.5519465e+00 -7.5577676e-01 2.0899969e+01 
7.4368119e-01 1.3861030e-01 2.0794352e+01 
-4.3607366e-01 7.6417249e-01 2.0731667e+01 
5.5668485e-01 2.0575553e-01 2.0763916e+01 
-3.4575146e-01 5.8955151e-01 2.0731407e+01 
-2.4572387e-01 4.2038950e-01 2.0731588e+01 
-2.2662635e-01 9.6076083e-01 2.0717785e+01 
-4.8166309e-02 9.1341597e-01 2.0718174e+01 
1.2512307e-01 8.4933656e-01 2.0718569e+01 
1.0060527e+00 -2.2622699e-01 2.0784920e+01 
5.6005210e-01 4.4086212e-01 2.0712818e+01 
2.7404383e-01 7.6042938e-01 2.0693697e+01 
-1.4815852e-01 2.9476389e-01 2.0691917e+01 
2.4674259e-01 5.2802843e-01 2.0691919e+01 
7.5770743e-02 3.2653919e-01 2.0687370e+01 
1.3841306e+00 -6.4789182e-01 2.0793301e+01 
1.3627772e+00 -6.9836140e-01 2.0790083e+01 
1.8683444e-01 -4.0080049e-03 2.0689367e+01 
4.4697857e-01 -1.8389477e-01 2.0699528e+01 
-2.4884793e-01 8.2666963e-01 2.0621836e+01 
1.4613919e-01 6.7513275e-01 2.0615383e+01 
-7.8027457e-02 7.2622067e-01 2.0592554e+01 
-2.9297006e-01 9.7567010e-01 2.0587528e+01 
1.2074152e+00 -4.7439286e-01 2.0685991e+01 
2.4973665e-01 1.8312617e-01 2.0594055e+01 
4.2904657e-01 6.1247051e-01 2.0589300e+01 
-5.9021721e-03 1.4778227e-01 2.0587290e+01 
-2.9833919e-01 5.0210565e-01 2.0571131e+01 
-1.2202831e-01 4.5746371e-01 2.0567026e+01 
-1.3640426e-01 9.3984222e-01 2.0559433e+01 
-4.0402046e-01 6.8913180e-01 2.0557405e+01 
1.1748712e+00 -6.2230790e-01 2.0659285e+01 
1.5595024e+00 -7.7144241e-01 2.0692726e+01 
6.5490395e-02 3.2735869e-01 2.0557808e+01 
5.3013448e-02 8.7903517e-01 2.0547525e+01 
-4.3622145e-01 9.6339136e-01 2.0488417e+01 
8.7429494e-01 -4.6684113e-01 2.0565813e+01 
7.7808273e-01 -1.6352697e-01 2.0540951e+01 
2.7816254e-01 7.5932270e-01 2.0486420e+01 
-1.4821707e-01 2.8902429e-01 2.0484926e+01 
2.5000444e-01 5.2634668e-01 2.0485065e+01 
-2.6135212e-01 7.4862498e-01 2.0463295e+01 
1.3907396e+00 -6.6273671e-01 2.0586126e+01 
5.8548087e-01 4.0245795e-01 2.0484793e+01 
1.3701807e+00 -7.1337438e-01 2.0582876e+01 
1.9635350e-01 -1.8731460e-02 2.0447638e+01 
-2.5235978e-01 9.6680588e-01 2.0415367e+01 
-4.3795073e-01 7.6341170e-01 2.0410698e+01 
-3.4811443e-01 5.8678782e-01 2.0411108e+01 
-2.4822733e-01 4.1575646e-01 2.0410639e+01 
-4.7506824e-02 9.1422343e-01 2.0401085e+01 
1.2558590e-01 8.5066223e-01 2.0401466e+01 
-5.2031390e-02 4.2988732e-01 2.0388311e+01 
1.2133539e+00 -4.8794800e-01 2.0478895e+01 
1.0521181e+00 -2.9278553e-01 2.0456276e+01 
1.1465344e+00 -6.1811572e-01 2.0471640e+01 
4.3300101e-01 6.0997379e-01 2.0382071e+01 
-5.7749199e-03 1.4143525e-01 2.0380329e+01 
3.6621326e-01 3.4532389e-01 2.0380903e+01 
-8.6776186e-03 7.4228859e-01 2.0348057e+01 
1.5667278e+00 -7.8764051e-01 2.0485514e+01 
7.5050956e-01 1.2753861e-01 2.0380161e+01 
-2.0626931e-01 6.7250824e-01 2.0300516e+01 
2.8199485e-01 7.5790620e-01 2.0279139e+01 
-1.4827698e-01 2.8322095e-01 2.0277937e+01 
1.4099932e-01 5.4270560e-01 2.0276560e+01 
1.3969692e+00 -6.7807585e-01 2.0378983e+01 
8.3052196e-02 2.8792241e-01 2.0267019e+01 
5.8916813e-01 3.9843291e-01 2.0277622e+01 
1.3772885e+00 -7.2884554e-01 2.0375700e+01 
-3.0122283e-01 4.9928206e-01 2.0250837e+01 
4.9738422e-02 8.8099331e-01 2.0248411e+01 
-4.0640649e-01 6.8768728e-01 2.0244862e+01 
-1.6203061e-01 9.4717419e-01 2.0240414e+01 
4.0937975e-01 1.4643209e-01 2.0252375e+01 
-4.3624702e-01 9.6354038e-01 2.0215326e+01 
-7.3335633e-02 4.3758610e-01 2.0209417e+01 
1.2188671e+00 -5.0196683e-01 2.0271830e+01 
2.0339337e-01 5.7315069e-01 2.0174166e+01 
4.3663305e-01 6.0712457e-01 2.0174839e+01 
-5.6479061e-03 1.3500157e-01 2.0173370e+01 
2.9281628e-01 3.5229775e-01 2.0162292e+01 
-1.8880168e-01 7.9066819e-01 2.0138599e+01 
-1.0234963e-02 7.3766398e-01 2.0140656e+01 
1.7325047e-01 -1.1356723e-02 2.0160526e+01 
1.5736090e+00 -8.0439079e-01 2.0278334e+01 
4.0654585e-01 -1.7479470e-01 2.0168785e+01 
-4.3993157e-01 7.6311940e-01 2.0091049e+01 
-3.5051760e-01 5.8399636e-01 2.0090153e+01 
-2.5047189e-01 4.1072971e-01 2.0091009e+01 
9.3831611e-01 -5.2233863e-01 2.0168978e+01 
-2.3856600e-01 9.6450037e-01 2.0083668e+01 
-4.7164157e-02 9.1450590e-01 2.0083986e+01 
1.2553759e-01 8.5128194e-01 2.0084383e+01 
7.2000498e-01 -1.1899907e-01 2.0117012e+01 
2.8552639e-01 7.5616443e-01 2.0071856e+01 
-1.4833717e-01 2.7735305e-01 2.0070950e+01 
1.1797452e+00 -6.5190941e-01 2.0157234e+01 
1.4028047e+00 -6.9392776e-01 2.0171873e+01 
5.9248376e-01 3.9400816e-01 2.0070450e+01 
7.3791705e-02 3.1807628e-01 2.0055439e+01 
1.3840879e+00 -7.4479228e-01 2.0168558e+01 
-2.5879553e-01 7.4796355e-01 2.0031809e+01 
-1.6356264e-01 5.7552087e-01 2.0033417e+01 
9.9750316e-01 -2.2835131e-01 2.0097656e+01 
7.3803121e-01 1.4218473e-01 2.0063280e+01 
1.9682953e-01 1.0617460e-01 2.0032511e+01 
4.8351291e-01 1.4028719e-01 2.0019142e+01 
1.0143302e-01 6.6854584e-01 1.9994295e+01 
1.2239388e+00 -5.1646715e-01 2.0064802e+01 
-4.3627551e-01 9.6370643e-01 1.9951429e+01 
-9.7887717e-02 7.5409466e-01 1.9943575e+01 
4.4742823e-01 5.9546298e-01 1.9955889e+01 
-4.0851653e-01 6.8573618e-01 1.9933634e+01 
-3.0249050e-01 4.9354008e-01 1.9929884e+01 
-1.3521269e-01 9.4042844e-01 1.9925249e+01 
-1.1858393e-01 3.9941481e-01 1.9931046e+01 
1.5801325e+00 -8.2171315e-01 2.0071188e+01 
-2.8115310e-02 1.4868619e-01 1.9937626e+01 
5.6907561e-02 8.7831140e-01 1.9914875e+01 
8.5084140e-01 -3.3074713e-01 1.9965929e+01 
2.8874269e-01 7.5408185e-01 1.9864571e+01 
-1.4839645e-01 2.7141967e-01 1.9863964e+01 
1.5437700e-01 -6.7518819e-03 1.9878536e+01 
3.2408920e-01 -1.2823601e-01 1.9879709e+01 
5.6152904e-01 4.4589579e-01 1.9856541e+01 
1.4007677e+00 -7.0435828e-01 1.9954340e+01 
6.6290003e-01 2.6406875e-01 1.9858068e+01 
6.6933411e-01 -3.6835054e-01 1.9882675e+01 
3.3971375e-01 4.2123714e-01 1.9834658e+01 
-4.2978907e-03 7.3800379e-01 1.9817755e+01 
-1.4076300e-01 5.9331739e-01 1.9809952e+01 
1.4225956e+00 -7.7587509e-01 1.9936649e+01 
8.9507753e-01 -8.4891066e-02 1.9860992e+01 
1.2474332e+00 -6.9971800e-01 1.9914360e+01 
1.7703666e-01 2.6779065e-01 1.9814873e+01 
4.7917092e-01 -2.3784108e-01 1.9843939e+01 
1.0288558e+00 -5.8806986e-01 1.9879761e+01 
1.1404990e+00 -4.2471334e-01 1.9858732e+01 
-4.4168159e-01 7.6211512e-01 1.9768768e+01 
-3.5294586e-01 5.8119613e-01 1.9770519e+01 
8.6509359e-01 -4.9549088e-01 1.9844049e+01 
3.5542867e-01 9.0745777e-02 1.9793888e+01 
7.6792192e-01 9.4159700e-02 1.9810347e+01 
-4.7154430e-02 9.1423178e-01 1.9766905e+01 
-2.5315309e-01 4.0628844e-01 1.9768749e+01 
-2.5084892e-01 9.6723169e-01 1.9759377e+01 
1.3465789e-01 8.4696966e-01 1.9764151e+01 
4.4546202e-01 2.5900787e-01 1.9781734e+01 
1.2742753e+00 -5.8385330e-01 1.9857365e+01 
1.0112278e+00 -2.5649524e-01 1.9817427e+01 
5.6453198e-01 7.9309531e-02 1.9772215e+01 
1.3196680e-01 5.3594273e-01 1.9734840e+01 
1.5862844e+00 -8.3962721e-01 1.9864080e+01 
-2.6469281e-01 7.4292326e-01 1.9714251e+01 
-4.3630672e-01 9.6388876e-01 1.9696165e+01 
2.9284244e-02 8.8792533e-02 1.9701315e+01 
4.6902850e-01 5.6983113e-01 1.9695402e+01 
-9.0708591e-02 7.6231188e-01 1.9666565e+01 
7.2378635e-01 -1.7310268e-01 1.9713713e+01 
2.9162943e-01 7.5164300e-01 1.9657286e+01 
-1.4845371e-01 2.6541993e-01 1.9656981e+01 
8.7319148e-01 -3.6484572e-01 1.9697914e+01 
-4.1069984e-01 6.8395388e-01 1.9624285e+01 
2.4036446e-01 -7.7974588e-02 1.9643320e+01 
5.5276472e-02 8.7810594e-01 1.9616604e+01 
-1.3491891e-01 9.4001091e-01 1.9608170e+01 
-3.0699006e-01 4.9352482e-01 1.9610258e+01 
6.1703551e-01 3.4867179e-01 1.9633532e+01 
4.1205254e-01 -1.9836293e-01 1.9643837e+01 
-1.2730430e-01 3.9753330e-01 1.9605844e+01 
7.1808404e-01 1.6505566e-01 1.9634251e+01 
-2.9706806e-01 9.7864002e-01 1.9592743e+01 
5.8398700e-01 -3.1975383e-01 1.9644691e+01 
8.3742934e-01 -8.2378788e-03 1.9635031e+01 
1.7459166e-01 7.1752602e-01 1.9590034e+01 
7.5838017e-01 -4.3830964e-01 1.9644791e+01 
2.7039540e-01 3.7847340e-01 1.9592686e+01 
1.3574252e+00 -7.6500529e-01 1.9700659e+01 
6.2816679e-01 -3.3532627e-02 1.9614618e+01 
1.3863572e+00 -7.0693374e-01 1.9695236e+01 
9.5607603e-01 -1.8259850e-01 1.9635162e+01 
9.3755239e-01 -5.4895759e-01 1.9644041e+01 
1.0776583e+00 -3.5443485e-01 1.9634476e+01 
-2.5108638e-01 8.2335514e-01 1.9550198e+01 
1.1207845e+00 -6.5148604e-01 1.9643288e+01 
1.2081923e+00 -5.1851553e-01 1.9633852e+01 
5.1784284e-02 5.1051074e-01 1.9534492e+01 
1.5920511e+00 -8.5815257e-01 1.9657017e+01 
-9.6897585e-03 7.3585969e-01 1.9507771e+01 
-1.7085721e-01 5.6922227e-01 1.9502808e+01 
4.6454388e-01 2.6129070e-01 1.9513874e+01 
3.4591526e-01 6.1930150e-02 1.9510128e+01 
8.1164455e-01 -2.8631347e-01 1.9515024e+01 
-4.3634039e-01 9.6408558e-01 1.9450001e+01 
-4.4255745e-01 7.5817370e-01 1.9450001e+01 
-2.2366212e-01 9.6126974e-01 1.9450001e+01 
-4.7287535e-02 9.1330379e-01 1.9450001e+01 
-3.5454467e-01 5.7675940e-01 1.9450001e+01 
1.2292907e-01 8.5062140e-01 1.9450001e+01 
-2.5937217e-01 4.0761903e-01 1.9450001e+01 
-1.4850780e-01 2.5935298e-01 1.9450001e+01 
2.9417217e-01 7.4883229e-01 1.9450001e+01 
4.4080016e-01 6.0071421e-01 1.9450001e+01 
-3.3267548e-03 1.1008466e-01 1.9450001e+01 
5.6730074e-01 4.3428752e-01 1.9450001e+01 
1.5713090e-01 -2.3648854e-02 1.9450001e+01 
6.6751480e-01 2.4974594e-01 1.9450001e+01 
3.2709119e-01 -1.4635237e-01 1.9450001e+01 
7.7777725e-01 7.0181973e-02 1.9450001e+01 
4.9893725e-01 -2.6769516e-01 1.9450001e+01 
8.9882296e-01 -1.0356466e-01 1.9450001e+01 
6.7157233e-01 -3.8928717e-01 1.9450001e+01 
-4.4353139e-02 4.2060089e-01 1.9397219e+01 
1.0169269e+00 -2.7950707e-01 1.9450001e+01 
8.4808213e-01 -5.0516301e-01 1.9450001e+01 
1.1435012e+00 -4.4844979e-01 1.9450001e+01 
5.7335746e-01 6.5629296e-02 1.9394741e+01 
1.0290937e+00 -6.1257803e-01 1.9450001e+01 
1.1528944e-01 6.7267716e-01 1.9358524e+01 
-2.5199398e-01 8.2380533e-01 1.9350697e+01 
6.9501281e-01 -1.1956751e-01 1.9391495e+01 
-9.2664018e-02 7.5764644e-01 1.9344698e+01 
1.2775525e+00 -6.1060071e-01 1.9450001e+01 
5.1661557e-01 -6.3675694e-02 1.9379810e+01 
1.2136120e+00 -7.1257031e-01 1.9450001e+01 
-2.0929143e-01 6.6421616e-01 1.9337412e+01 
1.4258369e+00 -7.5874037e-01 1.9450001e+01 
1.4023883e+00 -8.0289012e-01 1.9450001e+01 
-2.9724577e-01 9.7878462e-01 1.9308994e+01 
3.7279212e-01 4.1656777e-01 1.9319901e+01 
1.5974191e+00 -8.7730879e-01 1.9450001e+01 
1.9259946e-01 1.7037030e-01 1.9312424e+01 
-1.3555788e-01 9.3928653e-01 1.9291830e+01 
-3.0934653e-01 4.8962688e-01 1.9289742e+01 
5.5039085e-02 8.7634665e-01 1.9283354e+01 
-4.1408285e-01 6.8383980e-01 1.9277357e+01 
8.7433761e-01 -3.8583800e-01 1.9330050e+01 
7.7468026e-01 -2.4747925e-01 1.9314049e+01 
6.2063581e-01 3.3680561e-01 1.9266470e+01 
-3.2196292e-01 8.2240337e-01 1.9233189e+01 
2.9636487e-01 7.4563611e-01 1.9242460e+01 
-1.4855994e-01 2.5320247e-01 1.9242422e+01 
7.2066420e-01 1.5075795e-01 1.9265749e+01 
2.4255137e-01 -9.3731329e-02 1.9256681e+01 
4.1429526e-01 -2.1532705e-01 1.9256163e+01 
8.3984637e-01 -2.4766592e-02 1.9264971e+01 
-4.3637669e-01 9.6429801e-01 1.9209482e+01 
5.8597183e-01 -3.3814353e-01 1.9255310e+01 
9.5840621e-01 -2.0144233e-01 1.9264837e+01 
-1.8693939e-01 7.8503406e-01 1.9193291e+01 
7.5980139e-01 -4.5838878e-01 1.9255209e+01 
1.0797940e+00 -3.7584803e-01 1.9265524e+01 
4.7348663e-01 5.5964893e-01 1.9202587e+01 
1.1392028e+00 -6.8373656e-01 1.9286854e+01 
3.8185480e-01 5.0285846e-02 1.9211855e+01 
-7.1009342e-03 7.3513925e-01 1.9186428e+01 
2.6678016e-02 7.4398614e-02 1.9192808e+01 
9.3828130e-01 -5.7091671e-01 1.9255959e+01 
1.2105346e+00 -5.4256868e-01 1.9266148e+01 
4.9934694e-01 1.4893590e-01 1.9195734e+01 
-2.5158232e-01 9.6679497e-01 1.9143658e+01 
6.0058504e-01 -1.2742575e-01 1.9182934e+01 
8.7627989e-01 -4.0069509e-01 1.9209028e+01 
1.3308588e+00 -7.8466552e-01 1.9257784e+01 
-4.9415413e-02 9.1231310e-01 1.9133095e+01 
-3.6048934e-01 5.8035380e-01 1.9130934e+01 
1.3332383e-01 8.4374130e-01 1.9133640e+01 
-1.5524490e-01 5.5508709e-01 1.9126286e+01 
-2.6048437e-01 4.0069956e-01 1.9128239e+01 
4.3385483e-02 2.2045895e-01 1.9127920e+01 
-4.4706532e-01 7.6766038e-01 1.9110224e+01 
1.6023893e+00 -8.9715940e-01 1.9242453e+01 
2.7763149e-01 5.4233700e-01 1.9094458e+01 
1.3949385e+00 -7.4854583e-01 1.9202114e+01 
-2.6448798e-01 7.3858368e-01 1.9063044e+01 
-9.7632192e-02 7.6820487e-01 1.9030140e+01 
2.9821914e-01 7.4207199e-01 1.9034925e+01 
-1.4862002e-01 2.4699695e-01 1.9034845e+01 
5.7062483e-01 4.2225692e-01 1.9043461e+01 
4.8357895e-01 -2.7331990e-01 1.9056087e+01 
6.6964036e-01 2.3505461e-01 1.9041933e+01 
1.0307062e+00 -3.1858906e-01 1.9075329e+01 
7.7903807e-01 5.2834533e-02 1.9040306e+01 
7.7156258e-01 -3.4255528e-01 1.9056335e+01 
1.5097164e-01 7.1915853e-01 1.8995251e+01 
9.0042067e-01 -1.2397710e-01 1.9038736e+01 
-3.0700880e-01 4.7739944e-01 1.8980728e+01 
3.1488699e-01 -1.5488636e-01 1.9009741e+01 
-1.3710929e-01 9.3827295e-01 1.8974751e+01 
-4.1197819e-01 6.7348146e-01 1.8972214e+01 
3.4948941e-02 8.8136578e-01 1.8974369e+01 
1.4270024e+00 -8.4139669e-01 1.9096161e+01 
-4.3641731e-01 9.6453589e-01 1.8961128e+01 
1.3111803e-01 -2.0074010e-02 1.8985538e+01 
6.7315751e-01 -4.1095763e-01 1.9017454e+01 
1.1453598e+00 -4.7515526e-01 1.9041271e+01 
4.4565955e-01 2.4889874e-01 1.8971201e+01 
5.6693739e-01 1.6288949e-02 1.8974216e+01 
-3.2569170e-02 1.2166541e-01 1.8952614e+01 
1.2798489e+00 -6.4032996e-01 1.9042639e+01 
9.2039806e-01 -5.7395995e-01 1.9015379e+01 
1.9679536e-01 1.7265198e-01 1.8949539e+01 
1.0865319e-02 3.1730357e-01 1.8934759e+01 
4.5107052e-01 5.8161134e-01 1.8930801e+01 
1.2128991e+00 -7.4170035e-01 1.9021240e+01 
1.6069394e+00 -9.1761082e-01 1.9034935e+01 
3.6616489e-02 4.9176860e-01 1.8882055e+01 
-1.5357744e-02 7.3191321e-01 1.8877710e+01 
-1.9179854e-01 7.7784002e-01 1.8865850e+01 
1.3721487e-01 8.3879411e-01 1.8832283e+01 
2.9975584e-01 7.3816025e-01 1.8827393e+01 
-1.4870028e-01 2.4074997e-01 1.8827267e+01 
-5.1639438e-02 9.1070926e-01 1.8816013e+01 
-4.4973901e-01 7.7238470e-01 1.8813313e+01 
-3.6569101e-01 5.8255708e-01 1.8810539e+01 
-2.6565614e-01 4.0045023e-01 1.8807592e+01 
1.4282806e+00 -8.0034542e-01 1.8928619e+01 
6.0407859e-01 3.5775429e-01 1.8826651e+01 
-2.5258651e-01 9.6615273e-01 1.8795340e+01 
1.4171922e+00 -8.5114253e-01 1.8925100e+01 
7.6248384e-01 6.7533277e-02 1.8822325e+01 
-1.7500959e-01 5.6948996e-01 1.8752356e+01 
-7.8977659e-02 7.4964559e-01 1.8733627e+01 
7.7009541e-01 -2.1896531e-01 1.8778681e+01 
5.9064694e-02 7.1288818e-01 1.8727894e+01 
1.2433527e+00 -6.1321312e-01 1.8821772e+01 
2.1251543e-01 5.5133969e-01 1.8725382e+01 
1.7754674e-01 -6.5175816e-02 1.8736824e+01 
3.2850791e-02 3.1544974e-01 1.8719246e+01 
4.5218554e-01 5.7601702e-01 1.8723322e+01 
-4.3646207e-01 9.6479833e-01 1.8704439e+01 
1.1940306e+00 -7.4632370e-01 1.8813919e+01 
-4.3637222e-03 8.7045811e-02 1.8722610e+01 
-2.7078232e-01 8.2590443e-01 1.8702972e+01 
4.1472468e-01 -2.3755044e-01 1.8731218e+01 
1.0819145e+00 -4.0958852e-01 1.8766272e+01 
1.7774346e-01 8.1757832e-01 1.8683735e+01 
1.6110632e+00 -9.3860847e-01 1.8827446e+01 
-6.6273876e-02 5.3866518e-01 1.8668486e+01 
7.6248169e-01 -4.8772237e-01 1.8728504e+01 
-3.1320462e-01 9.8287582e-01 1.8658051e+01 
-1.3877863e-01 9.3681639e-01 1.8657654e+01 
3.1907924e-02 8.7922376e-01 1.8657267e+01 
-4.1689619e-01 6.7698866e-01 1.8651680e+01 
-3.1937346e-01 4.9146163e-01 1.8648829e+01 
3.9423633e-01 3.5581958e-01 1.8660942e+01 
1.9159999e-01 1.9514789e-01 1.8652689e+01 
3.0099571e-01 7.3392135e-01 1.8619865e+01 
-1.4881299e-01 2.3447508e-01 1.8619690e+01 
-2.2507462e-01 6.6019756e-01 1.8594622e+01 
6.0456204e-01 3.5031551e-01 1.8619234e+01 
1.4309988e+00 -8.2002181e-01 1.8721195e+01 
1.4214811e+00 -8.7066108e-01 1.8717644e+01 
6.7248666e-01 -2.3752263e-01 1.8621443e+01 
1.6753133e-01 6.5087259e-01 1.8563471e+01 
-1.8160561e-01 7.9132181e-01 1.8555161e+01 
-2.2835201e-02 7.3792773e-01 1.8554626e+01 
5.2916789e-01 6.4694308e-02 1.8574705e+01 
1.2449946e+00 -6.3115388e-01 1.8614428e+01 
-2.2663771e-01 9.5885909e-01 1.8499308e+01 
4.5298591e-01 5.7008064e-01 1.8515846e+01 
-4.3400200e-03 7.9974182e-02 1.8515062e+01 
-5.4117113e-02 9.0862435e-01 1.8498913e+01 
-2.6895472e-01 3.9756826e-01 1.8502687e+01 
1.1364286e-01 8.4451491e-01 1.8498531e+01 
-4.5244280e-01 7.7794504e-01 1.8492905e+01 
-3.7098208e-01 5.8494347e-01 1.8490013e+01 
1.1540736e+00 -7.4110138e-01 1.8575958e+01 
1.6147549e+00 -9.6009791e-01 1.8619980e+01 
-4.3651077e-01 9.6508390e-01 1.8438875e+01 
-2.7599445e-01 7.4405342e-01 1.8434978e+01 
2.3719065e-02 4.6765214e-01 1.8439991e+01 
2.6267049e-01 4.9055994e-01 1.8415781e+01 
3.0195966e-01 7.2937548e-01 1.8412342e+01 
-1.4897041e-01 2.2818580e-01 1.8412109e+01 
8.1670567e-02 2.5494558e-01 1.8407158e+01 
5.1441759e-02 7.0539105e-01 1.8397499e+01 
6.0470009e-01 3.4251815e-01 1.8411823e+01 
1.4332594e+00 -8.4011799e-01 1.8513792e+01 
1.9075361e-01 -8.7751731e-02 1.8410284e+01 
7.6180559e-01 4.7815740e-02 1.8423145e+01 
1.4253651e+00 -8.9057750e-01 1.8510208e+01 
-4.2607263e-01 6.9088674e-01 1.8353737e+01 
-1.4064816e-01 9.3500245e-01 1.8340565e+01 
-3.1581408e-01 4.7675481e-01 1.8342798e+01 
2.8600954e-02 8.7654185e-01 1.8340174e+01 
1.9234164e-01 8.0441439e-01 1.8339767e+01 
-2.9386255e-01 9.7653544e-01 1.8324963e+01 
1.7908983e-01 6.2882519e-01 1.8321568e+01 
3.7444127e-01 2.9301724e-01 1.8313089e+01 
4.5349386e-01 5.6382591e-01 1.8308376e+01 
-4.3853973e-03 7.2877131e-02 1.8307512e+01 
-1.0498667e-01 7.6489866e-01 1.8287447e+01 
5.7438916e-01 8.8739730e-02 1.8318928e+01 
-2.5680870e-01 8.2384199e-01 1.8283585e+01 
1.2735094e+00 -6.8430287e-01 1.8386847e+01 
4.4142836e-01 -2.7581561e-01 1.8305328e+01 
1.2287861e+00 -7.9907495e-01 1.8373409e+01 
1.6180084e+00 -9.8202479e-01 1.8412535e+01 
-5.3502396e-02 4.1116118e-01 1.8233604e+01 
1.0444975e+00 -3.9068943e-01 1.8299818e+01 
4.0097478e-01 -1.3864035e-02 1.8240126e+01 
1.5931430e-01 -7.0708394e-02 1.8223669e+01 
3.0266848e-01 7.2454315e-01 1.8204824e+01 
-1.4918481e-01 2.2189569e-01 1.8204529e+01 
-4.5484707e-01 7.8388727e-01 1.8188286e+01 
1.7313418e-01 1.6578001e-01 1.8205402e+01 
-2.2784981e-01 9.5750928e-01 1.8182217e+01 
-5.6812495e-02 9.0612477e-01 1.8181818e+01 
6.0451674e-01 3.3438960e-01 1.8204418e+01 
1.0945530e-01 8.4134412e-01 1.8181419e+01 
1.4350652e+00 -8.6058426e-01 1.8306406e+01 
9.4471258e-01 -6.3589191e-01 1.8260599e+01 
1.4288347e+00 -9.1084743e-01 1.8302790e+01 
-3.7636846e-01 5.8754545e-01 1.8169550e+01 
-4.3656307e-01 9.6539074e-01 1.8163851e+01 
-2.7615634e-01 4.0050328e-01 1.8166689e+01 
-2.8171746e-02 7.3487753e-01 1.8129492e+01 
-2.6430082e-01 7.4852127e-01 1.8112425e+01 
-1.7914405e-01 5.6594354e-01 1.8110971e+01 
1.2468755e+00 -6.6807127e-01 1.8199795e+01 
3.3982426e-02 2.9560345e-01 1.8096428e+01 
4.5373154e-01 5.5727667e-01 1.8100912e+01 
-4.5160777e-03 6.5769896e-02 1.8099960e+01 
1.2068629e+00 -8.0083084e-01 1.8191725e+01 
-2.6931775e-01 8.1442744e-01 1.8076651e+01 
3.0331761e-01 3.8912156e-01 1.8085415e+01 
1.7291050e-01 6.1799550e-01 1.8077930e+01 
1.6208177e+00 -1.0043349e+00 1.8205103e+01 
-3.1406620e-01 9.8214823e-01 1.8023872e+01 
-1.4264466e-01 9.3287045e-01 1.8023472e+01 
2.5016092e-02 8.7341768e-01 1.8023071e+01 
-4.5829332e-01 8.3798873e-01 1.8015511e+01 
1.8744341e-01 8.0121541e-01 1.8022671e+01 
-4.2673549e-01 6.8526536e-01 1.8010714e+01 
-1.3254771e-01 3.7904963e-01 1.8011696e+01 
-3.2041684e-01 4.7629687e-01 1.8006533e+01 
6.4477152e-01 -4.3969926e-01 1.8053808e+01 
3.0314302e-01 7.1944457e-01 1.7997313e+01 
-1.4946844e-01 2.1561830e-01 1.7996946e+01 
7.6193827e-01 2.3571758e-02 1.8025635e+01 
6.0403270e-01 3.2596362e-01 1.7997019e+01 
1.4364187e+00 -8.8137120e-01 1.8099033e+01 
1.9052136e-01 -1.0400243e-01 1.7995256e+01 
4.5439795e-02 7.0162284e-01 1.7970184e+01 
1.4318801e+00 -9.3142647e-01 1.8095385e+01 
-2.9904670e-01 8.0117595e-01 1.7945711e+01 
1.9262797e-01 1.5187210e-01 1.7945786e+01 
-1.6619036e-01 5.6546026e-01 1.7896566e+01 
1.6451187e-01 5.5156744e-01 1.7895840e+01 
-4.3661857e-01 9.6571642e-01 1.7878729e+01 
3.7165377e-01 2.7862924e-01 1.7899036e+01 
4.4628537e-01 -2.3590146e-02 1.7909279e+01 
4.5372117e-01 5.5045664e-01 1.7893454e+01 
-4.7482452e-03 5.8667693e-02 1.7892408e+01 
1.2103518e+00 -8.1950647e-01 1.7984352e+01 
1.2801468e+00 -7.2875977e-01 1.7976450e+01 
-2.2912313e-01 9.5594543e-01 1.7865128e+01 
-5.9674382e-02 9.0326899e-01 1.7864725e+01 
1.0497770e-01 8.3768338e-01 1.7864323e+01 
-3.8185608e-01 5.9039539e-01 1.7849056e+01 
4.4066730e-01 -2.9448482e-01 1.7890390e+01 
1.6231766e+00 -1.0269741e+00 1.7997683e+01 
-4.5695776e-01 7.8765255e-01 1.7833223e+01 
-2.6829708e-01 3.7764937e-01 1.7835649e+01 
1.0441247e+00 -4.2373028e-01 1.7885405e+01 
9.4880420e-01 -6.6445738e-01 1.7871723e+01 
3.0340412e-01 7.1410012e-01 1.7789806e+01 
-1.4983356e-01 2.0936717e-01 1.7789362e+01 
8.2629353e-02 2.3419999e-01 1.7784288e+01 
-2.6238346e-01 8.2149303e-01 1.7762905e+01 
6.0328150e-01 3.1724840e-01 1.7789625e+01 
1.4373229e+00 -9.0242922e-01 1.7891668e+01 
1.9019625e-01 -1.1215506e-01 1.7787739e+01 
4.2049825e-02 6.9996172e-01 1.7763273e+01 
1.4344923e+00 -9.5227009e-01 1.7887985e+01 
3.0630556e-01 -1.5007846e-02 1.7763885e+01 
-2.9524872e-01 9.7522646e-01 1.7716217e+01 
-1.4474034e-01 9.3047029e-01 1.7706379e+01 
2.1245686e-02 8.6990654e-01 1.7705976e+01 
1.8222734e-01 7.9745996e-01 1.7705572e+01 
1.2745172e+00 -7.3802292e-01 1.7806356e+01 
1.7251278e-01 6.1188781e-01 1.7695971e+01 
-3.3519697e-01 4.9568963e-01 1.7687407e+01 
-2.2872719e-01 3.0974212e-01 1.7684595e+01 
-5.8159787e-02 3.3052361e-01 1.7682297e+01 
3.6985555e-01 2.7107084e-01 1.7691963e+01 
4.5348480e-01 5.4338944e-01 1.7686003e+01 
-5.0980477e-03 5.1585734e-02 1.7684851e+01 
1.2134413e+00 -8.3838797e-01 1.7776987e+01 
5.6786364e-01 6.1661936e-02 1.7697981e+01 
-4.3466800e-01 6.9719970e-01 1.7662508e+01 
1.6250790e+00 -1.0498883e+00 1.7790266e+01 
-2.3895486e-01 6.6745347e-01 1.7622208e+01 
-1.9135049e-01 7.8739309e-01 1.7604141e+01 
6.5817970e-01 -4.7159433e-01 1.7654011e+01 
-4.3667668e-01 9.6605760e-01 1.7582817e+01 
2.5872612e-01 4.6767053e-01 1.7587105e+01 
3.0347258e-01 7.0853007e-01 1.7582306e+01 
-1.5029244e-01 2.0315585e-01 1.7581776e+01 
2.6956668e-01 -1.8101698e-01 1.7590706e+01 
6.0227722e-01 3.0829048e-01 1.7582237e+01 
1.4377800e+00 -9.2370898e-01 1.7684305e+01 
-2.3043868e-01 9.5420241e-01 1.7548037e+01 
-6.2661164e-02 9.0011609e-01 1.7547630e+01 
1.4366617e+00 -9.7333372e-01 1.7680590e+01 
1.0028309e-01 8.3360845e-01 1.7547224e+01 
7.5775707e-01 -2.3259550e-04 1.7580027e+01 
1.5054277e-01 2.3124713e-01 1.7542627e+01 
-3.8744411e-01 5.9352183e-01 1.7528576e+01 
-2.6164269e-01 3.5709241e-01 1.7514557e+01 
-1.4805044e-01 5.8494288e-01 1.7506361e+01 
-3.7573423e-02 7.2965926e-01 1.7495775e+01 
-4.5752248e-01 7.7936584e-01 1.7489346e+01 
-4.2466842e-02 3.5588318e-01 1.7486708e+01 
1.2463562e+00 -7.2536331e-01 1.7577908e+01 
4.5304453e-01 5.3609890e-01 1.7478556e+01 
-5.5815983e-03 4.4539202e-02 1.7477293e+01 
3.9988264e-01 6.0267262e-03 1.7480379e+01 
-2.6504284e-01 8.2194954e-01 1.7447784e+01 
1.6405353e-01 5.9831822e-01 1.7452377e+01 
1.2502770e+00 -8.7999415e-01 1.7550018e+01 
1.6265190e+00 -1.0730234e+00 1.7582850e+01 
-2.3096068e-01 6.7369181e-01 1.7414518e+01 
-2.9597834e-01 9.7437012e-01 1.7405289e+01 
-1.4690621e-01 9.2784971e-01 1.7389288e+01 
1.7332515e-02 8.6607957e-01 1.7388880e+01 
1.7675859e-01 7.9323411e-01 1.7388472e+01 
9.5600629e-01 -6.9814992e-01 1.7457077e+01 
3.0336922e-01 7.0275486e-01 1.7374811e+01 
-3.4075269e-01 4.9760577e-01 1.7366930e+01 
3.1729901e-01 3.3705068e-01 1.7379641e+01 
-1.5085736e-01 1.9699787e-01 1.7374184e+01 
6.0104698e-01 2.9911077e-01 1.7374857e+01 
-4.3891582e-01 7.0165133e-01 1.7346533e+01 
1.4377930e+00 -9.4516104e-01 1.7476938e+01 
1.8903089e-01 -1.2843058e-01 1.7372696e+01 
1.4383790e+00 -9.9457270e-01 1.7473192e+01 
1.0368016e+00 -4.5759404e-01 1.7385384e+01 
-1.7051984e-01 4.2507941e-01 1.7304735e+01 
-2.7988113e-03 7.0792174e-01 1.7292467e+01 
-1.9496667e-01 7.8573215e-01 1.7287075e+01 
-4.3673670e-01 9.6640992e-01 1.7275360e+01 
4.3572995e-01 1.7621604e-01 1.7291197e+01 
1.2453462e+00 -7.4480420e-01 1.7370607e+01 
1.2587869e+00 -9.0013355e-01 1.7380186e+01 
4.5242244e-01 5.2860850e-01 1.7271114e+01 
3.4443337e-02 2.6911759e-01 1.7265982e+01 
-6.2149754e-03 3.7543274e-02 1.7269732e+01 
2.4044433e-01 7.7524386e-02 1.7268169e+01 
1.4171864e-01 5.2126914e-01 1.7246904e+01 
-2.3177823e-01 9.5231348e-01 1.7230946e+01 
-6.5733902e-02 8.9672375e-01 1.7230536e+01 
4.3799698e-01 -3.2273430e-01 1.7267963e+01 
1.6274900e+00 -1.0963255e+00 1.7375429e+01 
1.0641392e-01 8.2399702e-01 1.7219727e+01 
-4.6081042e-01 8.0278951e-01 1.7210894e+01 
-3.9312431e-01 5.9694231e-01 1.7208090e+01 
3.9265361e-01 -1.2363017e-01 1.7235056e+01 
-2.7819824e-01 3.7625524e-01 1.7200983e+01 
-9.8830856e-02 5.4141957e-01 1.7178406e+01 
1.5695414e-01 -1.1053354e-01 1.7186039e+01 
3.0311489e-01 6.9679463e-01 1.7167322e+01 
-1.5154058e-01 1.9090681e-01 1.7166592e+01 
1.4373643e+00 -9.6673602e-01 1.7269566e+01 
-3.3312780e-01 8.0173403e-01 1.7130537e+01 
1.4396352e+00 -1.0159423e+00 1.7265785e+01 
-1.2042311e-01 7.5738549e-01 1.7128328e+01 
-4.5903933e-01 8.5968262e-01 1.7122757e+01 
5.8030719e-01 3.2768714e-01 1.7146736e+01 
3.6943264e-02 6.9582582e-01 1.7125565e+01 
-2.9672188e-01 9.7339600e-01 1.7089577e+01 
-1.4911464e-01 9.2505449e-01 1.7072195e+01 
1.3325342e-02 8.6200321e-01 1.7071783e+01 
1.7110854e-01 7.8862089e-01 1.7071371e+01 
1.2439125e+00 -7.6431280e-01 1.7163298e+01 
3.8354895e-01 2.9281455e-01 1.7066921e+01 
4.5164052e-01 5.2094197e-01 1.7063679e+01 
-5.4271694e-02 3.2115915e-01 1.7053221e+01 
-7.0142276e-03 3.0613108e-02 1.7062166e+01 
-3.4646127e-01 4.9980178e-01 1.7046448e+01 
1.2201132e+00 -8.9588028e-01 1.7154863e+01 
-4.4913670e-01 7.2641665e-01 1.7040005e+01 
-2.4072641e-01 3.0878514e-01 1.7043652e+01 
5.4853302e-01 1.1840208e-01 1.7062210e+01 
7.4718642e-01 -2.1935593e-02 1.7063923e+01 
2.7865568e-01 3.0755511e-02 1.7044083e+01 
1.6279861e+00 -1.1197406e+00 1.7167997e+01 
-3.7431112e-01 8.6695594e-01 1.6988129e+01 
-2.7897093e-01 7.1640700e-01 1.6984539e+01 
-1.4966588e-01 4.8461959e-01 1.6986731e+01 
1.4394663e-01 6.1629158e-01 1.6981573e+01 
-4.3679762e-01 9.6676791e-01 1.6955530e+01 
9.6156108e-01 -7.3213387e-01 1.7042398e+01 
5.7512420e-01 3.2781464e-01 1.6976665e+01 
3.0273035e-01 6.9066983e-01 1.6959837e+01 
-1.5235437e-01 1.8489620e-01 1.6958994e+01 
-4.8223205e-02 7.1554649e-01 1.6945845e+01 
8.2409658e-02 2.0670670e-01 1.6953743e+01 
1.8704942e-01 -1.4455435e-01 1.6957640e+01 
1.4364964e+00 -9.8838454e-01 1.7062178e+01 
1.4404206e+00 -1.0373979e+00 1.7058365e+01 
-2.3312448e-01 9.5031041e-01 1.6913855e+01 
-6.8855457e-02 8.9314795e-01 1.6913441e+01 
9.0481937e-02 8.2452786e-01 1.6913029e+01 
-3.9889297e-01 6.0068893e-01 1.6887604e+01 
-2.9847246e-01 4.0334722e-01 1.6884813e+01 
-1.0704673e-01 3.3586326e-01 1.6883018e+01 
1.0304997e+00 -4.9075457e-01 1.6944084e+01 
1.2548982e+00 -9.3481761e-01 1.6969318e+01 
1.2421130e+00 -7.8390396e-01 1.6955971e+01 
-4.6165842e-01 7.9201573e-01 1.6846865e+01 
-1.2788182e-01 5.3855187e-01 1.6848127e+01 
4.5072076e-01 5.1312286e-01 1.6856247e+01 
5.0010788e-01 -1.2559409e-01 1.6873705e+01 
-7.9953708e-03 2.3763852e-02 1.6854597e+01 
4.2312598e-01 1.7662974e-01 1.6839964e+01 
-1.2488241e-01 7.5485075e-01 1.6811253e+01 
4.3494302e-01 -3.4151030e-01 1.6852995e+01 
-2.9177254e-01 7.4379194e-01 1.6808722e+01 
2.5560679e-02 6.8957174e-01 1.6811764e+01 
1.6280007e+00 -1.1432147e+00 1.6960550e+01 
1.3924929e-01 4.1756427e-01 1.6797647e+01 
1.7622586e-01 1.8626611e-01 1.6774817e+01 
-3.1579402e-01 9.7910523e-01 1.6755518e+01 
-1.5133928e-01 9.2212898e-01 1.6755102e+01 
9.2707397e-03 8.5774195e-01 1.6754686e+01 
1.6534586e-01 7.8370261e-01 1.6754271e+01 
3.0223647e-01 6.8440074e-01 1.6752357e+01 
-1.5331100e-01 1.7897964e-01 1.6751392e+01 
-4.4501227e-01 7.0541871e-01 1.6728754e+01 
5.9623742e-01 2.7051368e-01 1.6752745e+01 
-3.5234055e-01 5.0232095e-01 1.6725967e+01 
1.8570434e-01 -1.5251741e-01 1.6750105e+01 
1.4351916e+00 -1.0100573e+00 1.6854773e+01 
-2.4696954e-01 3.0881932e-01 1.6723181e+01 
1.4407264e+00 -1.0588943e+00 1.6850925e+01 
-3.7240291e-01 8.3224398e-01 1.6704855e+01 
1.5201463e-01 5.7136416e-01 1.6688568e+01 
-7.7531941e-02 4.8215786e-01 1.6670349e+01 
-4.7958367e-02 3.1835014e-01 1.6669312e+01 
1.2399168e+00 -8.0347955e-01 1.6748623e+01 
4.4968513e-01 5.0517476e-01 1.6648821e+01 
3.1233996e-01 -7.1448744e-03 1.6656858e+01 
-9.1743944e-03 1.7010642e-02 1.6647024e+01 
1.2222652e+00 -9.3456191e-01 1.6740042e+01 
-4.3685833e-01 9.6712452e-01 1.6622425e+01 
-1.9981016e-01 7.5322396e-01 1.6622377e+01 
-2.0300193e-01 5.7961529e-01 1.6618172e+01 
7.4126822e-01 -4.5543637e-02 1.6649353e+01 
-2.3446089e-01 9.4822371e-01 1.6596764e+01 
-7.1990386e-02 8.8944298e-01 1.6596348e+01 
1.6275277e+00 -1.1666939e+00 1.6753082e+01 
8.5491531e-02 8.1967175e-01 1.6595930e+01 
7.1758765e-01 -5.7823890e-01 1.6644547e+01 
-8.0491090e-03 6.1934406e-01 1.6578722e+01 
-4.6348438e-01 8.1654108e-01 1.6569899e+01 
-4.0473583e-01 6.0478330e-01 1.6567118e+01 
-3.0449212e-01 4.0482321e-01 1.6564337e+01 
-3.2895541e-01 8.6330533e-01 1.6548359e+01 
2.4971338e-01 4.3482807e-01 1.6550716e+01 
3.0165401e-01 6.7800754e-01 1.6544882e+01 
-1.5442276e-01 1.7317063e-01 1.6543787e+01 
8.1382930e-02 1.9325210e-01 1.6538439e+01 
5.9434009e-01 2.6071960e-01 1.6545382e+01 
1.4334526e+00 -1.0317049e+00 1.6647343e+01 
1.4405431e+00 -1.0803865e+00 1.6643463e+01 
1.4662078e-01 -1.3005626e-01 1.6526093e+01 
-1.2938122e-01 7.5222623e-01 1.6494150e+01 
-4.5975924e-01 8.6660951e-01 1.6468908e+01 
1.0250838e+00 -5.2356094e-01 1.6541168e+01 
-1.5721449e-01 4.8582977e-01 1.6457386e+01 
1.0015972e+00 -7.9960459e-01 1.6534554e+01 
-3.1618422e-01 9.7810447e-01 1.6438429e+01 
-1.5355504e-01 9.1911614e-01 1.6438009e+01 
1.5501626e-01 5.7357913e-01 1.6444962e+01 
5.2131959e-03 8.5335857e-01 1.6437590e+01 
1.2373488e+00 -8.2301295e-01 1.6541246e+01 
1.6117397e-01 7.7770412e-01 1.6438929e+01 
4.4855550e-01 4.9712121e-01 1.6441399e+01 
-1.0567258e-02 1.0368605e-02 1.6439447e+01 
1.2226135e+00 -9.5390195e-01 1.6532593e+01 
3.5166633e-01 -1.4241427e-01 1.6448439e+01 
-5.0317794e-02 3.1307474e-01 1.6424068e+01 
2.1367256e-01 4.1584473e-02 1.6435101e+01 
-4.4919384e-01 7.1127230e-01 1.6408262e+01 
7.6149249e-01 -2.7614757e-01 1.6459314e+01 
-3.5839814e-01 5.0519168e-01 1.6405487e+01 
-2.5342241e-01 3.0924445e-01 1.6402712e+01 
4.3067178e-01 -3.6006889e-01 1.6438019e+01 
4.7949758e-01 9.7133085e-02 1.6419882e+01 
1.6265604e+00 -1.1901240e+00 1.6545586e+01 
-3.1025526e-01 8.0064297e-01 1.6385426e+01 
1.8019734e-02 6.8277204e-01 1.6386889e+01 
1.5132418e-01 -1.4147292e-01 1.6355877e+01 
3.0100381e-01 6.7151058e-01 1.6337410e+01 
-1.5570189e-01 1.6748278e-01 1.6336178e+01 
5.9233510e-01 2.5084019e-01 1.6338024e+01 
1.4312817e+00 -1.0532781e+00 1.6439882e+01 
7.4009573e-01 -6.9327906e-02 1.6343616e+01 
1.4398618e+00 -1.1018295e+00 1.6435970e+01 
-2.0772131e-01 5.8209932e-01 1.6297787e+01 
-2.3577181e-01 9.4608259e-01 1.6279675e+01 
-6.3924015e-02 4.9749628e-01 1.6284246e+01 
-7.5104855e-02 8.8566160e-01 1.6279253e+01 
-4.3691725e-01 9.6747082e-01 1.6275051e+01 
8.0513798e-02 8.1470048e-01 1.6278831e+01 
-4.1062856e-01 6.0924542e-01 1.6246630e+01 
-3.1073412e-01 4.0666854e-01 1.6243860e+01 
5.6719054e-02 2.0631045e-01 1.6240038e+01 
1.2344199e+00 -8.4245944e-01 1.6333839e+01 
-2.0698030e-01 7.7914339e-01 1.6226551e+01 
-5.8324065e-02 7.1701592e-01 1.6227829e+01 
-1.3763550e-01 3.5053924e-01 1.6224487e+01 
4.4735384e-01 4.8898584e-01 1.6233978e+01 
-1.2189894e-02 3.8528566e-03 1.6231865e+01 
1.2481461e-01 6.2091410e-01 1.6219131e+01 
1.2224596e+00 -9.7319365e-01 1.6325111e+01 
3.2585806e-01 -2.9149588e-02 1.6225428e+01 
1.6250926e+00 -1.2134511e+00 1.6338058e+01 
7.1510333e-01 -6.0256815e-01 1.6244408e+01 
-3.1654420e-01 9.7703618e-01 1.6121340e+01 
-1.5573797e-01 9.1605729e-01 1.6120916e+01 
3.0030665e-01 6.6493016e-01 1.6129940e+01 
3.0278477e-01 2.9075888e-01 1.6136017e+01 
1.8368264e-01 7.5596344e-01 1.6125147e+01 
1.1952125e-03 8.4891427e-01 1.6120495e+01 
-1.5716071e-01 1.6192965e-01 1.6128563e+01 
5.9024590e-01 2.4090266e-01 1.6130669e+01 
1.8002035e-01 -1.7581090e-01 1.6127480e+01 
1.4286814e+00 -1.0747273e+00 1.6232388e+01 
1.4386731e+00 -1.1231780e+00 1.6228443e+01 
-4.5318621e-01 7.1745712e-01 1.6087769e+01 
-3.6463836e-01 5.0844055e-01 1.6085005e+01 
-2.6011577e-01 3.1009164e-01 1.6082241e+01 
-2.8829667e-01 8.0890542e-01 1.6070845e+01 
1.0153768e+00 -5.5132204e-01 1.6135567e+01 
1.0564384e+00 -8.7066543e-01 1.6154903e+01 
1.5827113e-01 5.6144893e-01 1.6063761e+01 
4.8323753e-01 -2.6451033e-01 1.6082476e+01 
-4.7509607e-02 3.0877236e-01 1.6040184e+01 
1.2311416e+00 -8.6177468e-01 1.6126394e+01 
-6.2227700e-02 7.1519101e-01 1.6018372e+01 
4.4610202e-01 4.8079216e-01 1.6026562e+01 
-1.4058210e-02 -2.5214944e-03 1.6024279e+01 
1.2217907e+00 -9.9240088e-01 1.6117594e+01 
3.2492721e-01 -4.0712617e-02 1.6020636e+01 
1.6231177e+00 -1.2366209e+00 1.6130495e+01 
-2.3704223e-01 9.4391507e-01 1.5962584e+01 
-7.8166559e-02 8.8185489e-01 1.5962158e+01 
7.5599909e-02 8.0968267e-01 1.5961733e+01 
-4.1654781e-01 6.1409098e-01 1.5926143e+01 
-1.2746558e-01 5.2856165e-01 1.5923850e+01 
-3.1721547e-01 4.0891165e-01 1.5923385e+01 
-4.3697244e-01 9.6779555e-01 1.5912314e+01 
2.9958332e-01 6.5828651e-01 1.5922473e+01 
3.0009305e-01 2.8280345e-01 1.5928639e+01 
-1.5881148e-01 1.5652481e-01 1.5920945e+01 
7.5702238e-01 -4.3516451e-01 1.5964382e+01 
7.8354672e-02 1.7370979e-01 1.5915435e+01 
5.8809602e-01 2.3093438e-01 1.5923316e+01 
1.4256542e+00 -1.0960032e+00 1.6024855e+01 
5.3412918e-02 6.6359836e-01 1.5888313e+01 
1.4369680e+00 -1.1443865e+00 1.6020876e+01 
1.4633314e-01 -1.5772374e-01 1.5899263e+01 
-1.3829063e-01 7.4686939e-01 1.5859871e+01 
7.1092254e-01 -5.7530653e-02 1.5872418e+01 
1.2275248e+00 -8.8091409e-01 1.5918907e+01 
-1.5786520e-01 9.1299254e-01 1.5803824e+01 
4.4482183e-01 4.7256374e-01 1.5819145e+01 
-2.7425974e-03 8.4446847e-01 1.5803397e+01 
-1.6188087e-02 -8.7393476e-03 1.5816689e+01 
1.2205943e+00 -1.0114874e+00 1.5910031e+01 
4.7689137e-01 7.2120890e-02 1.5815663e+01 
2.0934795e-01 1.9156650e-02 1.5808699e+01 
-4.6754874e-02 3.0643597e-01 1.5794824e+01 
1.6288012e-01 7.5876290e-01 1.5779715e+01 
-2.9966745e-01 9.6858382e-01 1.5771445e+01 
4.2161956e-01 -3.8718870e-01 1.5815502e+01 
3.4521687e-01 -1.6776197e-01 1.5803640e+01 
-4.5697227e-01 7.2396737e-01 1.5767276e+01 
1.6206290e+00 -1.2595792e+00 1.5922888e+01 
-3.7106219e-01 5.1209193e-01 1.5764523e+01 
-2.6707718e-01 3.1139106e-01 1.5761770e+01 
-2.8033158e-01 8.1904846e-01 1.5742662e+01 
5.6797427e-01 2.6261351e-01 1.5736609e+01 
3.1290483e-01 2.9659301e-01 1.5727667e+01 
2.9885459e-01 6.5160000e-01 1.5715007e+01 
1.3793521e-01 -1.5824442e-01 1.5729074e+01 
-1.6066648e-01 1.5128182e-01 1.5713323e+01 
-1.7001833e-01 4.8981935e-01 1.5705066e+01 
8.0479398e-02 6.5107822e-01 1.5690318e+01 
1.4222025e+00 -1.1170561e+00 1.5817276e+01 
1.4347373e+00 -1.1654098e+00 1.5813264e+01 
1.0107974e+00 -8.7080997e-01 1.5755278e+01 
-4.0354621e-01 9.0495718e-01 1.5657127e+01 
-2.3825796e-01 9.4174784e-01 1.5645493e+01 
-8.1144646e-02 8.7807256e-01 1.5645063e+01 
1.0752422e-01 3.8773730e-01 1.5653515e+01 
7.0798807e-02 8.0468529e-01 1.5644635e+01 
-3.4396689e-02 4.8891902e-01 1.5637972e+01 
1.0061411e+00 -5.8325815e-01 1.5706368e+01 
2.0058246e-01 7.3064643e-01 1.5631041e+01 
-4.2246932e-01 6.1933196e-01 1.5605656e+01 
-2.2782274e-01 7.6779997e-01 1.5604477e+01 
1.2235806e+00 -8.9983326e-01 1.5711372e+01 
-3.2394996e-01 4.1157970e-01 1.5602908e+01 
4.4353515e-01 4.6432412e-01 1.5611732e+01 
2.8410060e-02 2.1886985e-01 1.5604908e+01 
5.8699042e-01 -1.5788400e-01 1.5630824e+01 
-6.8678647e-02 7.1041006e-01 1.5593622e+01 
-1.8595383e-02 -1.4785611e-02 1.5609096e+01 
1.2188581e+00 -1.0304167e+00 1.5702423e+01 
-1.2926880e-01 3.3049646e-01 1.5575135e+01 
3.0289981e-01 -4.4676874e-02 1.5587492e+01 
-3.1072173e-01 8.1145728e-01 1.5557919e+01 
1.6176200e+00 -1.2822716e+00 1.5715234e+01 
1.3474894e-01 6.0038471e-01 1.5548540e+01 
6.9728476e-01 -6.3174027e-01 1.5606795e+01 
-2.1489944e-01 5.5695456e-01 1.5540973e+01 
-4.3702155e-01 9.6808439e-01 1.5533011e+01 
2.9814133e-01 6.4489073e-01 1.5507542e+01 
-1.6273798e-01 1.4621428e-01 1.5505695e+01 
-1.5991490e-01 9.0996051e-01 1.5486732e+01 
-6.5614190e-03 8.4007913e-01 1.5486301e+01 
5.8370823e-01 2.1101488e-01 1.5508615e+01 
1.6319612e-01 7.5042224e-01 1.5485049e+01 
1.7146002e-01 -1.9786106e-01 1.5504814e+01 
1.4183289e+00 -1.1378367e+00 1.5609649e+01 
2.4889827e-01 4.5533225e-01 1.5479148e+01 
-2.8352338e-01 9.5953667e-01 1.5464977e+01 
1.4319720e+00 -1.1862018e+00 1.5605602e+01 
-4.6053529e-01 7.3079354e-01 1.5446782e+01 
1.6819847e-01 2.1087176e-01 1.5459461e+01 
-3.7766743e-01 5.1616812e-01 1.5444040e+01 
-2.7433151e-01 3.1317151e-01 1.5441299e+01 
-1.4356925e-01 7.4296445e-01 1.5434506e+01 
3.7691809e-02 6.4880508e-01 1.5429073e+01 
5.8358416e-02 4.4372201e-01 1.5426497e+01 
-2.6953301e-01 8.3742368e-01 1.5413499e+01 
1.2193208e+00 -9.1848779e-01 1.5503786e+01 
3.4018761e-01 1.7969635e-01 1.5411963e+01 
4.4226378e-01 4.5609686e-01 1.5404317e+01 
2.6731601e-02 2.1307164e-01 1.5397251e+01 
-2.1295929e-02 -2.0645197e-02 1.5401497e+01 
1.2165695e+00 -1.0491524e+00 1.5494761e+01 
1.7853105e-01 6.0940391e-01 1.5372745e+01 
7.2077471e-01 -1.1689972e-01 1.5405311e+01 
4.1327816e-01 -4.0435606e-01 1.5400049e+01 
-1.6485165e-01 5.3191835e-01 1.5355991e+01 
1.6140839e+00 -1.3046438e+00 1.5507528e+01 
-3.3440503e-01 9.8021144e-01 1.5331925e+01 
-2.3940536e-01 9.3960673e-01 1.5328403e+01 
-8.4009625e-02 8.7436277e-01 1.5327970e+01 
6.6157311e-02 7.9977363e-01 1.5327537e+01 
1.0122157e+00 -6.2734288e-01 1.5397222e+01 
-4.6834603e-01 8.0695164e-01 1.5305769e+01 
2.9746425e-01 6.3817912e-01 1.5300076e+01 
-3.2822999e-01 8.6048800e-01 1.5285633e+01 
-1.6503829e-01 1.4133574e-01 1.5298064e+01 
-1.4009412e-01 3.0586782e-01 1.5293047e+01 
-4.2836821e-01 6.2497628e-01 1.5285168e+01 
-3.3094814e-01 4.1469851e-01 1.5282432e+01 
5.8141118e-01 2.0136493e-01 1.5301141e+01 
-7.3650695e-02 7.0720124e-01 1.5276464e+01 
1.8689987e-01 6.9898047e-02 1.5291228e+01 
1.6767123e-01 -2.0468383e-01 1.5297118e+01 
1.4140358e+00 -1.1582952e+00 1.5401967e+01 
1.4286630e+00 -1.2067169e+00 1.5397887e+01 
-2.1548216e-01 7.1862459e-01 1.5254698e+01 
1.5740831e-01 5.7524681e-01 1.5239196e+01 
-2.8411990e-01 9.5829666e-01 1.5195641e+01 
1.2149235e+00 -9.3707919e-01 1.5295985e+01 
4.4093940e-01 4.4803980e-01 1.5196973e+01 
-2.4413655e-02 -2.6184846e-02 1.5193971e+01 
-1.7924635e-01 4.9349973e-01 1.5175090e+01 
-3.4757830e-02 4.5265719e-01 1.5177312e+01 
-1.6186620e-01 9.0699863e-01 1.5169640e+01 
-1.0224150e-02 8.3580256e-01 1.5169205e+01 
1.2463175e+00 -1.0938618e+00 1.5267131e+01 
1.5878867e-01 7.4397808e-01 1.5151668e+01 
4.6501809e-01 -8.7334402e-02 1.5176653e+01 
6.9046223e-01 -6.5474516e-01 1.5206632e+01 
-4.3706134e-01 9.6831876e-01 1.5137596e+01 
1.6100141e+00 -1.3266408e+00 1.5299767e+01 
-2.7530456e-01 8.2047987e-01 1.5137607e+01 
-4.6385917e-01 7.3792243e-01 1.5126288e+01 
-3.8444871e-01 5.2068907e-01 1.5123558e+01 
-1.4767313e-01 7.4041229e-01 1.5117358e+01 
-2.8190106e-01 3.1546062e-01 1.5120828e+01 
2.9684460e-01 6.3148993e-01 1.5092751e+01 
9.6338224e-01 -8.8391143e-01 1.5173644e+01 
-1.6757771e-01 1.3666318e-01 1.5090582e+01 
3.5812625e-01 2.2320229e-01 1.5094431e+01 
7.0558339e-02 1.4932786e-01 1.5084863e+01 
5.7901824e-01 1.9212714e-01 1.5093810e+01 
7.2415912e-01 -1.4950430e-01 1.5106251e+01 
1.8242407e-01 4.3880484e-01 1.5071619e+01 
7.1519315e-02 6.3241476e-01 1.5063198e+01 
1.4094853e+00 -1.1785313e+00 1.5194321e+01 
1.4249609e+00 -1.2270032e+00 1.5190211e+01 
-2.3810150e-01 9.3678916e-01 1.5042323e+01 
1.3228926e-01 -1.8452786e-01 1.5068973e+01 
-3.5455346e-02 3.0500871e-01 1.5026932e+01 
-2.2795759e-01 5.9448880e-01 1.5016753e+01 
-8.6733326e-02 8.7077230e-01 1.5010875e+01 
6.1720174e-02 7.9501152e-01 1.5010438e+01 
2.0427428e-01 7.0972335e-01 1.5010001e+01 
-3.8285759e-01 8.3626956e-01 1.4991854e+01 
3.6811775e-01 -2.1377333e-01 1.5016303e+01 
4.3958834e-01 4.4018123e-01 1.4989836e+01 
-2.7957730e-02 -3.1386096e-02 1.4986669e+01 
-4.3421903e-01 6.3102829e-01 1.4964679e+01 
1.2110890e+00 -1.0865159e+00 1.5079147e+01 
-3.3821729e-01 4.1829252e-01 1.4961955e+01 
-4.6961549e-01 8.1140286e-01 1.4955375e+01 
1.2382866e+00 -9.9554574e-01 1.5067947e+01 
2.2375065e-01 -4.7518131e-03 1.4973964e+01 
4.0189105e-01 -4.1973302e-01 1.4984648e+01 
1.6054080e+00 -1.3481894e+00 1.5092131e+01 
-1.5069836e-01 7.3912460e-01 1.4908289e+01 
1.0047501e+00 -6.6150099e-01 1.4981424e+01 
-3.1001434e-01 7.5757581e-01 1.4898746e+01 
-3.0118182e-01 9.6504313e-01 1.4887639e+01 
-1.4149718e-01 4.8992178e-01 1.4885057e+01 
2.9630330e-01 6.2484765e-01 1.4885700e+01 
-1.7036586e-01 1.3221282e-01 1.4883398e+01 
6.7649513e-02 1.4360660e-01 1.4877614e+01 
5.7666445e-01 1.8308346e-01 1.4886877e+01 
1.5834145e-01 -2.1716318e-01 1.4882464e+01 
-1.6369912e-01 9.0414315e-01 1.4852548e+01 
1.4046961e+00 -1.1984928e+00 1.4986897e+01 
-1.3695309e-02 8.3169359e-01 1.4852109e+01 
1.3191965e-01 7.5221866e-01 1.4851670e+01 
2.3260726e-02 5.2923876e-01 1.4850681e+01 
1.4208709e+00 -1.2470080e+00 1.4982761e+01 
1.2689476e-01 4.4809559e-01 1.4842002e+01 
-4.6692848e-01 7.4533725e-01 1.4805794e+01 
-3.9139766e-01 5.2567244e-01 1.4803076e+01 
-2.8980523e-01 3.1828484e-01 1.4800357e+01 
-4.8979949e-02 2.9496187e-01 1.4782284e+01 
1.2060438e+00 -9.7414225e-01 1.4881109e+01 
4.3832424e-01 4.3241507e-01 1.4782970e+01 
-3.1829655e-02 -3.6350299e-02 1.4779662e+01 
-2.2372605e-01 7.7078164e-01 1.4749726e+01 
-8.1826732e-02 7.0249373e-01 1.4749569e+01 
-4.3708739e-01 9.6847248e-01 1.4742517e+01 
1.2396116e+00 -1.1312637e+00 1.4852307e+01 
3.7525755e-01 -9.8748475e-02 1.4760183e+01 
1.6002654e+00 -1.3692160e+00 1.4884809e+01 
-2.4144393e-01 9.3550062e-01 1.4694221e+01 
-8.9288801e-02 8.6734658e-01 1.4693781e+01 
5.7530224e-02 7.9046100e-01 1.4693340e+01 
6.7915791e-01 -6.7888230e-01 1.4753304e+01 
1.9869052e-01 7.0474797e-01 1.4692900e+01 
2.9586068e-01 6.1827207e-01 1.4678920e+01 
9.5951033e-01 -9.1738236e-01 1.4759048e+01 
-1.7341389e-01 1.2799706e-01 1.4676508e+01 
6.4438015e-02 1.3807476e-01 1.4670655e+01 
5.7440215e-01 1.7417996e-01 1.4680214e+01 
-4.3999618e-01 6.3748813e-01 1.4644190e+01 
1.3995017e+00 -1.2179503e+00 1.4779783e+01 
-3.4576148e-01 4.2238462e-01 1.4641478e+01 
5.3277221e-02 6.2484205e-01 1.4640955e+01 
7.1576673e-01 -1.7099763e-01 1.4677972e+01 
1.4162145e+00 -1.2665654e+00 1.4775622e+01 
1.2241044e-01 -1.9610235e-01 1.4655064e+01 
-3.0162719e-01 8.0466622e-01 1.4587916e+01 
-2.3580249e-01 6.0003376e-01 1.4584362e+01 
3.5714182e-01 -2.2792551e-01 1.4601656e+01 
3.2929793e-01 1.4872457e-01 1.4583359e+01 
4.3716821e-01 4.2476395e-01 1.4576373e+01 
1.4158909e-01 4.7004291e-01 1.4566837e+01 
-3.6043387e-02 -4.1063763e-02 1.4572947e+01 
1.2038138e+00 -1.1229626e+00 1.4664952e+01 
1.2286695e+00 -1.0320573e+00 1.4653872e+01 
2.1545444e-01 -1.7651444e-02 1.4560075e+01 
-3.1768546e-01 9.7112912e-01 1.4535898e+01 
-1.6539457e-01 9.0142906e-01 1.4535456e+01 
-1.6940961e-02 8.2780564e-01 1.4535012e+01 
1.2707433e-01 7.4734837e-01 1.4534570e+01 
3.8844356e-01 -4.3399417e-01 1.4571132e+01 
1.5945824e+00 -1.3896694e+00 1.4677796e+01 
9.9691617e-01 -6.9439685e-01 1.4567859e+01 
-4.6972883e-01 7.5301695e-01 1.4485299e+01 
-1.5519239e-01 7.3567688e-01 1.4482975e+01 
-3.9850232e-01 5.3113276e-01 1.4482593e+01 
-2.9806051e-01 3.2166931e-01 1.4479886e+01 
2.9553688e-01 6.1178291e-01 1.4472404e+01 
-1.7673285e-01 1.2402824e-01 1.4469906e+01 
5.7225394e-01 1.6544268e-01 1.4473815e+01 
1.4731237e-01 -2.2860985e-01 1.4469117e+01 
1.3939062e+00 -1.2368574e+00 1.4572974e+01 
4.9624138e-02 6.2266767e-01 1.4433819e+01 
1.4109856e+00 -1.2856319e+00 1.4568787e+01 
-1.9457516e-01 5.0121474e-01 1.4422961e+01 
-2.7363679e-01 6.9572109e-01 1.4419430e+01 
-2.6461966e-02 4.0609756e-01 1.4404619e+01 
-2.4231082e-01 9.3358219e-01 1.4377131e+01 
-9.1650277e-02 8.6412978e-01 1.4376687e+01 
5.3628426e-02 7.8618270e-01 1.4376243e+01 
1.9344564e-01 6.9999331e-01 1.4375797e+01 
1.6092673e-01 5.2663225e-01 1.4375019e+01 
1.1961585e+00 -1.0093967e+00 1.4467635e+01 
4.3614125e-01 4.1725031e-01 1.4370037e+01 
1.3121341e-02 1.8610588e-01 1.4361973e+01 
-4.3709764e-01 9.6853340e-01 1.4347760e+01 
-4.0612757e-02 -4.5512907e-02 1.4366517e+01 
-4.4567385e-01 6.4435226e-01 1.4323701e+01 
-3.5358167e-01 4.2699653e-01 1.4321000e+01 
1.2306675e+00 -1.1672308e+00 1.4438764e+01 
3.6455581e-01 -1.1316311e-01 1.4346146e+01 
1.5883549e+00 -1.4094989e+00 1.4471083e+01 
-1.6415939e-01 3.1403971e-01 1.4298738e+01 
-2.5043180e-02 6.0093105e-01 1.4293072e+01 
6.5625012e-01 -6.8975949e-01 1.4351079e+01 
-1.5779547e-01 7.3455268e-01 1.4273807e+01 
-2.4139692e-01 6.0411656e-01 1.4263416e+01 
2.9535192e-01 6.0539967e-01 1.4266148e+01 
9.5310140e-01 -9.4966441e-01 1.4345880e+01 
-1.8033378e-01 1.2031861e-01 1.4263588e+01 
2.9663473e-01 2.4436386e-01 1.4264550e+01 
1.4510182e-01 3.2678485e-02 1.4250430e+01 
1.3879137e+00 -1.2551677e+00 1.4366459e+01 
5.5300647e-01 1.9806671e-01 1.4246957e+01 
1.4051785e+00 -1.3041639e+00 1.4362245e+01 
-1.6693425e-01 8.9889026e-01 1.4218364e+01 
-1.9928630e-02 8.2419062e-01 1.4217916e+01 
1.1084887e-01 -2.0662113e-01 1.4242332e+01 
1.2257471e-01 7.4277765e-01 1.4217470e+01 
1.0678503e-01 4.0912011e-01 1.4215663e+01 
-3.0213550e-01 9.6237862e-01 1.4191322e+01 
-4.7225064e-01 7.6093465e-01 1.4164804e+01 
-4.0574378e-01 5.3707975e-01 1.4162109e+01 
-2.9350907e-01 8.1248856e-01 1.4158940e+01 
-3.0668038e-01 3.2563797e-01 1.4159414e+01 
4.3526417e-01 4.0989655e-01 1.4163958e+01 
-4.5551468e-02 -4.9684260e-02 1.4160369e+01 
1.1940882e+00 -1.1577898e+00 1.4251949e+01 
1.2179626e+00 -1.0664774e+00 1.4241020e+01 
6.9789857e-01 -1.7852588e-01 1.4165186e+01 
-1.1599617e-01 4.7833410e-01 1.4121777e+01 
3.7299520e-01 -4.4722420e-01 1.4158756e+01 
-9.0043165e-02 6.9708967e-01 1.4115031e+01 
4.4661913e-02 6.1912453e-01 1.4116295e+01 
1.5815790e+00 -1.4286537e+00 1.4264660e+01 
-4.1119039e-01 9.0771401e-01 1.4076259e+01 
9.8860264e-01 -7.2541398e-01 1.4155459e+01 
-2.4306080e-01 9.3178326e-01 1.4060042e+01 
-9.3793102e-02 8.6116469e-01 1.4059593e+01 
5.0053976e-02 7.8223574e-01 1.4059144e+01 
-2.4457589e-01 6.0622072e-01 1.4056543e+01 
1.8859485e-01 6.9553393e-01 1.4058696e+01 
2.9532567e-01 5.9914166e-01 1.4060144e+01 
-1.8422757e-01 1.1688034e-01 1.4057549e+01 
4.3693942e-01 -1.8854558e-01 1.4073133e+01 
5.2854471e-02 1.2272475e-01 1.4051459e+01 
5.6838912e-01 1.4857028e-01 1.4061788e+01 
1.3450925e-01 -2.3896101e-01 1.4056903e+01 
1.3815283e+00 -1.2728353e+00 1.4160231e+01 
1.3987877e+00 -1.3221183e+00 1.4155991e+01 
-4.5122647e-01 6.5161300e-01 1.4003212e+01 
-3.6167547e-01 4.3214837e-01 1.4000524e+01 
1.4900394e-01 5.0660926e-01 1.3994637e+01 
-1.8036668e-01 2.8245500e-01 1.3978975e+01 
-3.1570521e-01 8.3237118e-01 1.3967469e+01 
-1.6086245e-01 7.3253751e-01 1.3956541e+01 
-4.3709004e-01 9.6848941e-01 1.3953317e+01 
1.1852890e+00 -1.0424306e+00 1.4055320e+01 
4.3455765e-01 4.0272480e-01 1.3958128e+01 
-5.0873123e-02 -5.3564455e-02 1.3954497e+01 
2.1535650e-01 -5.3474229e-02 1.3948752e+01 
2.8986764e-01 2.3715492e-01 1.3940566e+01 
1.2192626e+00 -1.2013578e+00 1.4026378e+01 
-1.6830060e-01 8.9655960e-01 1.3901272e+01 
-2.2627234e-02 8.2089919e-01 1.3900821e+01 
1.5742505e+00 -1.4470835e+00 1.4058521e+01 
1.1846793e-01 7.3857498e-01 1.3900371e+01 
6.3479400e-01 -7.0241529e-01 1.3951217e+01 
-2.8623492e-01 9.5263374e-01 1.3881188e+01 
-2.4400070e-02 6.5604174e-01 1.3849058e+01 
-4.7448716e-01 7.6906341e-01 1.3844309e+01 
2.9547787e-01 5.9302813e-01 1.3854389e+01 
9.4402218e-01 -9.8053110e-01 1.3933847e+01 
-1.8842509e-01 1.1372551e-01 1.3851783e+01 
-4.1309994e-01 5.4352057e-01 1.3841626e+01 
-2.8921324e-01 6.5582305e-01 1.3838457e+01 
-3.1567520e-01 3.3021355e-01 1.3838943e+01 
4.8299827e-02 1.1805899e-01 1.3845604e+01 
5.6671679e-01 1.4048655e-01 1.3856148e+01 
1.3747540e+00 -1.2898145e+00 1.3954283e+01 
7.0325637e-01 -2.1380340e-01 1.3853919e+01 
1.3918073e+00 -1.3394518e+00 1.3950017e+01 
9.7487658e-02 -2.1597892e-01 1.3830712e+01 
-3.4023082e-01 8.5123283e-01 1.3792977e+01 
-3.4885731e-01 9.7873211e-01 1.3748360e+01 
-7.1693413e-02 4.4889471e-01 1.3750166e+01 
1.5288356e-01 5.0805718e-01 1.3751459e+01 
-2.4368292e-01 9.3012512e-01 1.3742952e+01 
3.2945624e-01 -2.5353596e-01 1.3775401e+01 
-9.5693626e-02 8.5849297e-01 1.3742499e+01 
4.6844389e-02 7.7867770e-01 1.3742046e+01 
3.2079497e-01 1.2056198e-01 1.3758483e+01 
4.3404216e-01 3.9575714e-01 1.3752544e+01 
1.8419121e-01 6.9144338e-01 1.3741594e+01 
-5.6591205e-02 -5.7140216e-02 1.3748898e+01 
1.1818479e+00 -1.1907151e+00 1.3840077e+01 
1.2062373e+00 -1.0984571e+00 1.3829298e+01 
1.9394764e-01 -4.0738549e-02 1.3735637e+01 
-4.7293738e-01 8.3041567e-01 1.3712667e+01 
-2.2584613e-01 7.7609605e-01 1.3709449e+01 
3.5539773e-01 -4.5929372e-01 1.3747485e+01 
1.5663654e+00 -1.4647382e+00 1.3852659e+01 
-1.8162946e-01 3.1994539e-01 1.3692856e+01 
3.8856287e-02 6.1465001e-01 1.3689509e+01 
-4.5662886e-01 6.5925872e-01 1.3682723e+01 
-3.7003702e-01 4.3785790e-01 1.3680046e+01 
9.7996539e-01 -7.5426537e-01 1.3744168e+01 
-3.3620307e-01 8.7811351e-01 1.3646537e+01 
2.9582816e-01 5.8707827e-01 1.3648876e+01 
-1.9293715e-01 1.1086611e-01 1.3646288e+01 
5.6524700e-01 1.3267186e-01 1.3650750e+01 
1.1980188e-01 -2.4809915e-01 1.3645785e+01 
1.3675950e+00 -1.3060601e+00 1.3748609e+01 
1.3842318e+00 -1.3561217e+00 1.3744317e+01 
-2.8325361e-01 7.0361304e-01 1.3585624e+01 
-1.6947676e-01 8.9446896e-01 1.3584180e+01 
-2.5007013e-02 8.1798059e-01 1.3583725e+01 
1.1479914e-01 7.3480707e-01 1.3583271e+01 
-2.9650864e-01 9.5694339e-01 1.3576839e+01 
-2.1301676e-01 5.1179677e-01 1.3572719e+01 
-4.3706247e-01 9.6832836e-01 1.3559174e+01 
1.9575675e-01 5.6571686e-01 1.3564960e+01 
1.1735308e+00 -1.0729192e+00 1.3644110e+01 
2.2550052e-01 1.9372611e-01 1.3550394e+01 
4.3373805e-01 3.8901550e-01 1.3547200e+01 
-3.3569383e-03 1.6824368e-01 1.3538720e+01 
-6.2719092e-02 -6.0398374e-02 1.3543566e+01 
-4.7643170e-01 7.7737534e-01 1.3523813e+01 
-4.2054582e-01 5.5045921e-01 1.3521143e+01 
-3.6610612e-01 8.7909448e-01 1.3515550e+01 
-3.2505214e-01 3.3541742e-01 1.3518473e+01 
1.2053373e+00 -1.2333541e+00 1.3615093e+01 
3.3752173e-01 -1.3927723e-01 1.3521535e+01 
5.1674791e-02 3.7611794e-01 1.3500699e+01 
1.5579196e+00 -1.4815683e+00 1.3647068e+01 
3.6002994e-02 6.1311519e-01 1.3481213e+01 
-2.4840961e-01 7.6436096e-01 1.3465616e+01 
6.1952841e-01 -7.2410029e-01 1.3523703e+01 
2.9639605e-01 5.8131105e-01 1.3443602e+01 
9.3218571e-01 -1.0097708e+00 1.3522897e+01 
-1.9777443e-01 1.0831410e-01 1.3441059e+01 
-2.4416673e-01 9.2862839e-01 1.3425862e+01 
2.9133093e-01 2.1881130e-01 1.3441113e+01 
-9.7329214e-02 8.5615504e-01 1.3425406e+01 
4.4035569e-02 7.7556479e-01 1.3424950e+01 
1.8028568e-01 6.8779403e-01 1.3424493e+01 
-2.5632292e-01 6.1509180e-01 1.3416613e+01 
1.3600551e+00 -1.3215271e+00 1.3543202e+01 
-3.4877825e-01 9.7763157e-01 1.3400508e+01 
5.4747891e-01 1.6691543e-01 1.3424929e+01 
1.3760557e+00 -1.3720852e+00 1.3538884e+01 
8.2200728e-02 -2.2406083e-01 1.3420171e+01 
-9.7375028e-02 6.9189548e-01 1.3372798e+01 
-4.7361836e-01 8.3536696e-01 1.3362772e+01 
-4.6185613e-01 6.6727412e-01 1.3362233e+01 
-3.7865728e-01 4.4414061e-01 1.3359569e+01 
-3.5764825e-01 8.5539407e-01 1.3352150e+01 
-2.7815974e-01 2.3617834e-01 1.3356905e+01 
3.1245306e-01 -2.6478258e-01 1.3363691e+01 
4.3366557e-01 3.8252169e-01 1.3342092e+01 
-6.9270052e-02 -6.3325845e-02 1.3338497e+01 
1.6246404e-01 5.2532053e-01 1.3325521e+01 
1.1670314e+00 -1.2214575e+00 1.3429286e+01 
1.1935800e+00 -1.1276687e+00 1.3418653e+01 
1.8048525e-01 -5.0738450e-02 1.3324997e+01 
6.8571943e-01 -2.1387054e-01 1.3343941e+01 
3.3550492e-01 -4.7007564e-01 1.3337281e+01 
1.5489092e+00 -1.4975241e+00 1.3441742e+01 
-3.1749120e-01 9.6642917e-01 1.3267548e+01 
-1.7044659e-01 8.9264911e-01 1.3267089e+01 
-2.7039459e-02 8.1548274e-01 1.3266630e+01 
1.1161162e-01 7.3153901e-01 1.3266171e+01 
-1.0325227e-01 4.9155158e-01 1.3260937e+01 
9.7115982e-01 -7.8067064e-01 1.3333936e+01 
-1.2122115e-01 2.9518914e-01 1.3258318e+01 
2.8513867e-01 3.5412857e-01 1.3257691e+01 
2.9720086e-01 5.7574528e-01 1.3238560e+01 
-2.0294760e-01 1.0608131e-01 1.3236091e+01 
-3.0838847e-01 8.0074984e-01 1.3216484e+01 
3.2374602e-02 1.0556076e-01 1.3229596e+01 
5.6300199e-01 1.1795118e-01 1.3240664e+01 
-1.6629197e-01 7.2853398e-01 1.3213884e+01 
1.0306221e-01 -2.5590867e-01 1.3235729e+01 
-4.7807762e-01 7.8584188e-01 1.3203317e+01 
1.3521386e+00 -1.3361708e+00 1.3338059e+01 
-4.2805365e-01 5.5789608e-01 1.3200659e+01 
1.3672736e+00 -1.3872999e+00 1.3333715e+01 
-3.1213459e-01 2.9399914e-01 1.3182992e+01 
-4.3701297e-01 9.6803814e-01 1.3165321e+01 
1.4875469e-01 4.9181867e-01 1.3133910e+01 
1.1609793e+00 -1.1005435e+00 1.3233957e+01 
4.3384475e-01 3.7629741e-01 1.3137214e+01 
-7.6257259e-02 -6.5909639e-02 1.3133689e+01 
1.8036675e-01 6.8233544e-01 1.3121918e+01 
-2.4450213e-01 9.2731303e-01 1.3108773e+01 
-9.8678216e-02 8.5419029e-01 1.3108313e+01 
4.1661907e-02 7.7295190e-01 1.3107852e+01 
1.8787935e-01 -7.3521361e-02 1.3125716e+01 
1.1888340e+00 -1.2629303e+00 1.3204866e+01 
1.5393301e+00 -1.5125564e+00 1.3236678e+01 
5.9132129e-01 -7.3241884e-01 1.3122251e+01 
3.7345912e-02 6.0754663e-01 1.3064295e+01 
-2.3542887e-01 7.6330835e-01 1.3055230e+01 
-4.6688396e-01 6.7563993e-01 1.3041743e+01 
-3.8752410e-01 4.5100960e-01 1.3039092e+01 
2.1408127e-01 2.1827048e-01 1.3048691e+01 
2.9826191e-01 5.7039976e-01 1.3033746e+01 
9.1750872e-01 -1.0371718e+00 1.3112987e+01 
-2.0846726e-01 1.0417955e-01 1.3031381e+01 
2.6269993e-02 1.0192827e-01 1.3024763e+01 
5.6226981e-01 1.1109571e-01 1.3035963e+01 
1.3438497e+00 -1.3499470e+00 1.3133175e+01 
-1.6143039e-01 3.7809381e-01 1.2997057e+01 
6.9351059e-01 -2.5046158e-01 1.3033869e+01 
1.3578799e+00 -1.4017233e+00 1.3128805e+01 
6.4864025e-02 -2.3075379e-01 1.3010673e+01 
1.2110727e-01 7.2111273e-01 1.2963262e+01 
-3.0610403e-01 7.0325345e-01 1.2954792e+01 
-1.1181306e-02 3.6337066e-01 1.2958995e+01 
-3.1724870e-01 9.6534890e-01 1.2950460e+01 
-1.7119451e-01 8.9112997e-01 1.2949998e+01 
-2.8697249e-02 8.1345242e-01 1.2949535e+01 
2.9314911e-01 -2.7485207e-01 1.2952881e+01 
3.1621632e-01 9.6461199e-02 1.2936914e+01 
-4.7971094e-01 7.7496821e-01 1.2916047e+01 
2.0178774e-01 5.4437971e-01 1.2924698e+01 
4.3429559e-01 3.7036431e-01 1.2932561e+01 
-8.3693795e-02 -6.8136841e-02 1.2929135e+01 
1.1495793e+00 -1.2497375e+00 1.3019534e+01 
1.1800774e+00 -1.1537906e+00 1.3009047e+01 
-1.6801596e-01 7.2739780e-01 1.2896548e+01 
1.6505323e-01 -5.9582248e-02 1.2915359e+01 
3.1317237e-01 -4.7944501e-01 1.2928112e+01 
-4.3559322e-01 5.6582820e-01 1.2880176e+01 
-3.4496486e-01 3.4778851e-01 1.2877530e+01 
1.5291784e+00 -1.5266163e+00 1.3031871e+01 
2.9474543e-02 6.0024786e-01 1.2850953e+01 
9.6234059e-01 -8.0435586e-01 1.2924724e+01 
2.9959831e-01 5.6529325e-01 1.2829156e+01 
2.7350858e-01 1.8148059e-01 1.2832693e+01 
-2.1434391e-01 1.0262051e-01 1.2826923e+01 
-2.2406542e-01 5.4493350e-01 1.2816326e+01 
5.6182629e-01 1.0461039e-01 1.2831487e+01 
8.4164172e-02 -2.6227573e-01 1.2826702e+01 
1.3351922e+00 -1.3628112e+00 1.2928546e+01 
-2.4467944e-01 9.2619836e-01 1.2791684e+01 
-9.9719860e-02 8.5263681e-01 1.2791220e+01 
3.9756343e-02 7.7089232e-01 1.2790755e+01 
1.7416450e-01 6.8210709e-01 1.2790291e+01 
1.3478695e+00 -1.4153134e+00 1.2924150e+01 
-4.3693942e-01 9.6760678e-01 1.2771749e+01 
-8.9468822e-02 4.0762261e-01 1.2751883e+01 
-2.3651299e-01 7.6253611e-01 1.2737984e+01 
-4.7168851e-01 6.8433326e-01 1.2721253e+01 
1.1477298e+00 -1.1249895e+00 1.2824829e+01 
-3.9662230e-01 4.5847523e-01 1.2718615e+01 
4.3503791e-01 3.6474389e-01 1.2728129e+01 
-3.0088905e-01 2.4794471e-01 1.2715976e+01 
-2.5541324e-02 1.5442102e-01 1.2719591e+01 
-9.1592625e-02 -6.9994636e-02 1.2724833e+01 
2.2459105e-01 9.2472893e-04 1.2723402e+01 
1.3280734e-01 5.1687807e-01 1.2693874e+01 
-3.5550546e-02 6.4087170e-01 1.2686738e+01 
1.1696973e+00 -1.2897996e+00 1.2795663e+01 
1.5184500e+00 -1.5396552e+00 1.2827317e+01 
5.6326634e-01 -7.4162346e-01 1.2722574e+01 
3.6422756e-01 -2.9933158e-01 1.2684456e+01 
5.2794957e-01 -1.4614865e-01 1.2677858e+01 
-1.7170557e-01 8.8994068e-01 1.2632907e+01 
-2.9954195e-02 8.1193519e-01 1.2632441e+01 
1.2019429e-01 7.1794832e-01 1.2630853e+01 
-1.3873330e-01 2.8697845e-01 1.2623130e+01 
3.0122912e-01 5.6044418e-01 1.2624784e+01 
8.9991248e-01 -1.0625246e+00 1.2704083e+01 
-2.2058803e-01 1.0141587e-01 1.2622716e+01 
-3.0274844e-01 9.5726866e-01 1.2609876e+01 
9.3977608e-02 -3.0492004e-03 1.2609188e+01 
1.3261707e+00 -1.3747200e+00 1.2724170e+01 
5.4589671e-01 1.4077094e-01 1.2606617e+01 
1.3372374e+00 -1.4280282e+00 1.2719749e+01 
-1.6924594e-01 7.2657460e-01 1.2579187e+01 
4.5355428e-02 -2.3594640e-01 1.2602185e+01 
-4.8044625e-01 8.0312002e-01 1.2562325e+01 
-4.4313207e-01 5.7424873e-01 1.2559692e+01 
2.1459009e-01 4.2984918e-01 1.2554291e+01 
9.5061753e-03 1.4423701e-01 1.2550362e+01 
-3.1877136e-01 2.7488765e-01 1.2537453e+01 
3.0391548e-02 5.9167397e-01 1.2525753e+01 
4.3609142e-01 3.5945758e-01 1.2523914e+01 
2.3696657e-01 1.8947266e-01 1.2521437e+01 
-9.9966630e-02 -7.1470283e-02 1.2520779e+01 
-1.8924731e-01 5.1114142e-01 1.2501222e+01 
1.1294351e+00 -1.2752782e+00 1.2610795e+01 
-2.9687411e-01 7.1807170e-01 1.2493087e+01 
1.1658158e+00 -1.1765062e+00 1.2600451e+01 
6.7775548e-01 -2.4264959e-01 1.2526371e+01 
2.8825751e-01 -4.8727885e-01 1.2519946e+01 
-1.0043421e-01 8.5153192e-01 1.2474127e+01 
3.8350441e-02 7.6943839e-01 1.2473659e+01 
1.5071411e+00 -1.5516245e+00 1.2623016e+01 
1.8949430e-01 6.6677660e-01 1.2463201e+01 
-2.4379279e-01 9.2479581e-01 1.2451556e+01 
-1.5370519e-01 2.8311092e-01 1.2445738e+01 
9.5366198e-01 -8.2505357e-01 1.2516507e+01 
-1.0323094e-01 6.8846625e-01 1.2420549e+01 
3.0317327e-01 5.5587113e-01 1.2420627e+01 
3.0564237e-01 -1.1153617e-01 1.2435244e+01 
-2.2721000e-01 1.0057718e-01 1.2418756e+01 
-4.7624660e-01 6.9332761e-01 1.2400764e+01 
5.6188977e-01 9.2850454e-02 1.2423185e+01 
-4.0593362e-01 4.6654531e-01 1.2398137e+01 
6.2983625e-02 -2.6708820e-01 1.2418673e+01 
1.5114045e-01 5.2510554e-01 1.2396478e+01 
-3.1300482e-01 2.5499824e-01 1.2395512e+01 
1.3167890e+00 -1.3856297e+00 1.2520045e+01 
-4.3683979e-01 9.6702230e-01 1.2378444e+01 
1.3259783e+00 -1.4398260e+00 1.2515598e+01 
-2.9048800e-01 8.1079572e-01 1.2354348e+01 
2.3298359e-01 3.8009921e-01 1.2353213e+01 
1.0292592e-01 -2.8532211e-04 1.2355098e+01 
2.6653782e-02 3.9038938e-01 1.2329768e+01 
-1.7196532e-01 8.8910937e-01 1.2315816e+01 
-3.0785175e-02 8.1097531e-01 1.2315346e+01 
1.0534246e-01 7.2535944e-01 1.2314875e+01 
1.1338776e+00 -1.1459492e+00 1.2416704e+01 
2.3310561e-01 6.2845463e-01 1.2314404e+01 
4.3747571e-01 3.5452670e-01 1.2319913e+01 
-1.0882861e-01 -7.2551116e-02 1.2316969e+01 
-2.8719920e-01 9.4814467e-01 1.2298170e+01 
1.1183366e+00 -1.2869351e+00 1.2406800e+01 
1.5962276e-01 1.6980423e-01 1.2294380e+01 
1.4952478e+00 -1.5624763e+00 1.2418966e+01 
-3.8143083e-02 6.4830476e-01 1.2261809e+01 
-4.5063528e-01 5.8314735e-01 1.2239208e+01 
-3.6641070e-01 3.6289310e-01 1.2236589e+01 
1.5141486e-01 5.2359390e-01 1.2237947e+01 
-4.8337966e-01 7.8580034e-01 1.2216818e+01 
-2.3417959e-01 7.6330352e-01 1.2211737e+01 
-3.4351301e-01 8.3964950e-01 1.2210297e+01 
-2.4605985e-01 5.2464437e-01 1.2211577e+01 
3.0544963e-01 5.5159241e-01 1.2216681e+01 
-2.3422019e-01 1.0011597e-01 1.2215036e+01 
-2.4640076e-03 9.0328619e-02 1.2207828e+01 
9.6907634e-01 -1.1683317e+00 1.2289083e+01 
1.3070515e+00 -1.3954973e+00 1.2316170e+01 
2.5188133e-01 3.7734193e-01 1.2193021e+01 
5.4700792e-01 1.3006994e-01 1.2198763e+01 
1.3140874e+00 -1.4506651e+00 1.2311698e+01 
2.3554668e-02 -2.3952878e-01 1.2194680e+01 
-3.5749060e-01 9.7537041e-01 1.2163556e+01 
1.8864724e-01 6.6529578e-01 1.2168874e+01 
-2.3889281e-01 9.2179984e-01 1.2158437e+01 
-1.0080211e-01 8.5091168e-01 1.2157035e+01 
3.7474450e-02 7.6864082e-01 1.2156562e+01 
6.5005010e-01 -8.7727535e-01 1.2204405e+01 
5.9440952e-02 3.8930640e-01 1.2120483e+01 
1.1383156e+00 -1.3222715e+00 1.2224454e+01 
3.4995288e-02 5.8213383e-01 1.2108498e+01 
2.4706276e-01 -2.9105735e-01 1.2133837e+01 
4.3921030e-01 3.4997261e-01 1.2116118e+01 
-1.1819126e-01 -7.3224552e-02 1.2113400e+01 
-1.3937920e-01 6.8947822e-01 1.2093695e+01 
-1.1420457e-01 2.3544447e-01 1.2094950e+01 
1.1508821e+00 -1.1955043e+00 1.2192854e+01 
-4.8053563e-01 7.0259321e-01 1.2080274e+01 
4.2310873e-01 -5.3709790e-02 1.2105640e+01 
1.2780108e-01 -7.3433660e-02 1.2098940e+01 
6.7579079e-01 -2.5401142e-01 1.2118873e+01 
-4.1543698e-01 4.7522458e-01 1.2077661e+01 
2.6061955e-01 -4.9345607e-01 1.2112754e+01 
-2.9723626e-01 7.3639852e-01 1.2072129e+01 
2.0847961e-01 5.1911837e-01 1.2079000e+01 
-3.2563713e-01 2.6285845e-01 1.2075047e+01 
1.4827665e+00 -1.5721626e+00 1.2215165e+01 
9.4527739e-01 -8.4250289e-01 1.2109276e+01 
5.3386927e-01 -4.4574347e-01 1.2066180e+01 
3.0807695e-01 5.4762626e-01 1.2012941e+01 
-2.4162887e-01 1.0004370e-01 1.2011558e+01 
-3.1598419e-01 9.6250015e-01 1.1999201e+01 
-1.7195986e-01 8.8866347e-01 1.1998726e+01 
-3.1166084e-02 8.1061608e-01 1.1998251e+01 
1.0447730e-01 7.2470820e-01 1.1997777e+01 
5.6336069e-01 8.2871296e-02 1.2015725e+01 
-4.3671209e-01 9.6627265e-01 1.1985396e+01 
3.9398242e-02 -2.7023548e-01 1.2011613e+01 
1.2969627e+00 -1.4042799e+00 1.2112545e+01 
1.3015599e+00 -1.4605043e+00 1.2108047e+01 
2.2396536e-01 3.2177049e-01 1.1978716e+01 
-2.3767072e-01 4.2255270e-01 1.1946258e+01 
1.9650678e-01 5.2081293e-01 1.1947326e+01 
-3.5400477e-01 8.7519461e-01 1.1930580e+01 
1.0872134e+00 -1.2987055e+00 1.2032671e+01 
-4.5806679e-01 5.9250987e-01 1.1918725e+01 
1.1195179e+00 -1.1631205e+00 1.2009576e+01 
4.4131458e-01 3.4581643e-01 1.1912530e+01 
3.9888721e-02 3.8359243e-01 1.1901953e+01 
-1.2806721e-01 -7.3478088e-02 1.1910068e+01 
-1.0417611e-01 6.8827587e-01 1.1893573e+01 
-1.2576503e-01 2.2776763e-01 1.1899746e+01 
-3.2579249e-01 2.5198552e-01 1.1895901e+01 
-2.3664646e-01 7.6176888e-01 1.1879671e+01 
2.5697866e-01 -1.7789255e-01 1.1885199e+01 
1.4696934e+00 -1.5806360e+00 1.2011615e+01 
-4.8628116e-01 7.6474410e-01 1.1851758e+01 
-2.4417058e-01 9.2424387e-01 1.1840420e+01 
-1.0080514e-01 8.5081130e-01 1.1839943e+01 
3.7157387e-02 7.6854932e-01 1.1839466e+01 
1.8904549e-01 6.6398376e-01 1.1838626e+01 
-2.6011899e-01 5.5408251e-01 1.1832382e+01 
2.4760336e-01 3.6289316e-01 1.1840848e+01 
-4.0978345e-01 4.4712001e-01 1.1830222e+01 
1.2910600e-01 1.4640962e-01 1.1837537e+01 
-3.4300643e-01 9.7173184e-01 1.1819333e+01 
4.8088223e-01 -7.4167645e-01 1.1873964e+01 
3.1107384e-01 5.4399091e-01 1.1809404e+01 
-2.4944626e-01 1.0037174e-01 1.1808314e+01 
-1.1362110e-02 8.7211847e-02 1.1797305e+01 
2.6666021e-02 -2.7115053e-01 1.1808438e+01 
2.4281275e-02 5.9439874e-01 1.1784272e+01 
-3.4518069e-01 8.4201485e-01 1.1777414e+01 
1.2865267e+00 -1.4119351e+00 1.1909170e+01 
-4.7111836e-01 8.7362736e-01 1.1774620e+01 
1.4765087e-01 5.1555949e-01 1.1775694e+01 
1.2883915e+00 -1.4693023e+00 1.1904648e+01 
2.2234289e-01 -4.8115179e-01 1.1802253e+01 
8.0169827e-01 -1.0612096e+00 1.1836953e+01 
-3.8051322e-01 6.7523277e-01 1.1748837e+01 
5.8709532e-01 7.8744702e-03 1.1773083e+01 
4.2735720e-01 -4.9594501e-01 1.1763248e+01 
7.5557739e-01 -4.4417614e-01 1.1766495e+01 
-1.5987548e-01 7.1309555e-01 1.1707045e+01 
4.4380781e-01 3.4207934e-01 1.1709142e+01 
-3.5546345e-01 3.0534959e-01 1.1690276e+01 
2.3094133e-01 6.2866932e-01 1.1691492e+01 
1.0808600e+00 -1.3170407e+00 1.1796314e+01 
-1.7167576e-01 8.8862962e-01 1.1681636e+01 
-2.9517311e-01 9.5181847e-01 1.1679054e+01 
-3.1073779e-02 8.1089956e-01 1.1681157e+01 
-1.3157672e-01 -8.3552107e-02 1.1696334e+01 
1.0428370e-01 7.2485763e-01 1.1680678e+01 
1.0533553e-01 -7.7018283e-02 1.1690933e+01 
9.3530625e-01 -8.4919333e-01 1.1748372e+01 
-4.5276773e-01 5.6220114e-01 1.1670769e+01 
-4.8625788e-01 7.9009718e-01 1.1668732e+01 
1.7373990e-01 3.4767124e-01 1.1678850e+01 
4.5202798e-01 2.9669730e-02 1.1682586e+01 
1.4560250e+00 -1.5878495e+00 1.1808316e+01 
6.2197810e-01 -6.3897121e-01 1.1699494e+01 
7.4191082e-01 -8.3092445e-01 1.1702297e+01 
-2.9335210e-01 8.0094463e-01 1.1628368e+01 
8.5339285e-02 5.6472772e-01 1.1631066e+01 
5.1144165e-01 -3.4988645e-01 1.1663323e+01 
1.1087097e+00 -1.1721921e+00 1.1721666e+01 
2.9239151e-01 1.9682851e-01 1.1612558e+01 
3.1445891e-01 5.4070455e-01 1.1606067e+01 
-2.5768253e-01 1.0111144e-01 1.1605305e+01 
-4.3655425e-01 9.6534604e-01 1.1592594e+01 
1.2793932e+00 -1.4217442e+00 1.1718497e+01 
-9.4978675e-02 6.9104028e-01 1.1583300e+01 
-2.2679642e-02 -2.2957131e-01 1.1603107e+01 
1.1142291e-01 -3.8115060e-01 1.1602936e+01 
1.2745774e+00 -1.4770184e+00 1.1701501e+01 
2.4960141e-01 -5.2794158e-01 1.1602917e+01 
3.8855526e-01 -6.7397922e-01 1.1603158e+01 
5.2879775e-01 -8.1872636e-01 1.1603305e+01 
-8.9820653e-02 8.4533441e-01 1.1533492e+01 
4.4778157e-02 7.6446873e-01 1.1533226e+01 
5.2207053e-01 1.9025841e-01 1.1548570e+01 
-1.6490029e-02 4.0246844e-01 1.1531924e+01 
1.7448543e-01 6.7571193e-01 1.1529938e+01 
-2.3122755e-01 9.1794449e-01 1.1521822e+01 
6.4847350e-01 -1.9286004e-01 1.1548593e+01 
-4.8216498e-01 6.7524225e-01 1.1510400e+01 
-4.1987967e-01 4.5592561e-01 1.1510625e+01 
-3.3455232e-01 2.4528350e-01 1.1510792e+01 
9.6595079e-01 -1.2368741e+00 1.1602767e+01 
1.8059801e-01 -1.8035288e-01 1.1517851e+01 
-1.4335418e-01 2.2198671e-01 1.1500519e+01 
8.0514997e-01 -5.6539875e-01 1.1548544e+01 
5.8987868e-01 9.8167907e-04 1.1516816e+01 
6.7929661e-01 -9.7310281e-01 1.1561641e+01 
3.1224087e-01 -3.2560113e-01 1.1517061e+01 
1.1198046e+00 -1.3680142e+00 1.1602914e+01 
4.4973561e-01 -4.7161481e-01 1.1516027e+01 
-2.2181727e-01 7.5508696e-01 1.1473283e+01 
3.0114284e-02 6.0526192e-01 1.1476965e+01 
1.8480211e-01 4.8424137e-01 1.1479941e+01 
7.3220354e-01 -3.9899239e-01 1.1518724e+01 
-4.0337583e-01 8.3816838e-01 1.1465862e+01 
8.0750936e-01 -1.0968024e+00 1.1552821e+01 
9.7128081e-01 -9.3489981e-01 1.1548319e+01 
-2.1010438e-01 4.2921567e-01 1.1460221e+01 
1.4417579e+00 -1.5937563e+00 1.1605272e+01 
4.0012130e-01 3.9646506e-02 1.1469773e+01 
8.9187497e-01 -7.7079535e-01 1.1518578e+01 
1.1710516e+00 -1.2890713e+00 1.1548061e+01 
6.2084252e-01 -5.4368722e-01 1.1475840e+01 
-1.2995122e-01 -1.0449248e-01 1.1442770e+01 
-3.2092649e-01 6.9324726e-01 1.1417488e+01 
6.8361056e-01 -7.3503149e-01 1.1478131e+01 
7.2471425e-02 2.9899293e-01 1.1425056e+01 
3.0586526e-01 3.3295855e-01 1.1422099e+01 
1.0721644e+00 -1.1272411e+00 1.1506311e+01 
7.8422636e-01 -9.1965944e-01 1.1479808e+01 
3.1825057e-01 5.3778505e-01 1.1402925e+01 
-2.6634777e-01 1.0227405e-01 1.1402525e+01 
4.8581433e-01 -2.4976641e-01 1.1418056e+01 
-2.7615750e-01 9.4155556e-01 1.1376772e+01 
-2.1412345e-02 8.0638421e-01 1.1374812e+01 
-4.8931924e-01 7.7194911e-01 1.1370543e+01 
-1.5124489e-01 8.7894368e-01 1.1369439e+01 
1.0893169e-01 7.2300017e-01 1.1373059e+01 
4.5539945e-01 3.2496437e-01 1.1385746e+01 
2.3587734e-01 6.2575310e-01 1.1370850e+01 
5.8020670e-02 -7.8641005e-02 1.1381005e+01 
2.7779024e-02 -3.0661407e-01 1.1381490e+01 
-4.5929396e-01 5.6639749e-01 1.1349721e+01 
-3.8411272e-01 3.5186926e-01 1.1351031e+01 
1.6286072e-01 -4.5633176e-01 1.1381350e+01 
-2.2457930e-01 2.3802796e-01 1.1346730e+01 
3.0034408e-01 -6.0364234e-01 1.1381462e+01 
5.6107384e-01 9.4851278e-02 1.1356915e+01 
4.3882179e-01 -7.4983627e-01 1.1381558e+01 
6.1942309e-01 -9.8319225e-02 1.1356920e+01 
-2.1001208e-01 5.4964834e-01 1.1321800e+01 
1.8423678e-01 4.6481201e-01 1.1323616e+01 
6.8455762e-01 -2.8925827e-01 1.1356918e+01 
-5.8724344e-02 1.0370934e-01 1.1327207e+01 
5.7951725e-01 -8.9386523e-01 1.1381543e+01 
1.2260549e+00 -1.4639176e+00 1.1441932e+01 
7.6412487e-01 -4.7484753e-01 1.1356920e+01 
7.2318900e-01 -1.0350213e+00 1.1381450e+01 
8.4186858e-01 -6.6131055e-01 1.1356891e+01 
-2.5935906e-01 7.8633833e-01 1.1291203e+01 
8.7002379e-01 -1.1730541e+00 1.1381296e+01 
2.1603467e-01 -2.6838741e-01 1.1310054e+01 
-1.1191912e-02 6.3537806e-01 1.1283735e+01 
9.2225754e-01 -8.4673840e-01 1.1356836e+01 
1.0208225e+00 -1.3070158e+00 1.1381349e+01 
7.0716476e-01 -8.1026244e-01 1.1335721e+01 
1.0122832e+00 -1.0278416e+00 1.1356785e+01 
5.7898617e-01 -4.4478816e-01 1.1305809e+01 
1.2501680e+00 -1.4160120e+00 1.1385424e+01 
1.4268888e+00 -1.5983101e+00 1.1402485e+01 
6.5697342e-01 -6.2930000e-01 1.1305766e+01 
1.1090492e+00 -1.2056072e+00 1.1356726e+01 
-2.4577783e-01 4.0918052e-01 1.1247888e+01 
4.1129485e-01 4.0845595e-02 1.1254486e+01 
8.2415241e-01 -1.0083554e+00 1.1310098e+01 
4.6958864e-01 -1.4350112e-01 1.1250290e+01 
3.0368282e-02 3.2495442e-01 1.1225605e+01 
4.1366157e-01 -4.8953110e-01 1.1248687e+01 
-4.3636206e-01 9.6423221e-01 1.1200000e+01 
-4.8451036e-01 6.6770589e-01 1.1200000e+01 
-1.4692174e-01 8.7742549e-01 1.1200000e+01 
2.8618205e-02 7.7685070e-01 1.1200000e+01 
-4.2310262e-01 4.4550306e-01 1.1200000e+01 
1.8417682e-01 6.7047369e-01 1.1200000e+01 
-3.5333121e-01 2.6582760e-01 1.1200000e+01 
3.2246676e-01 5.3525066e-01 1.1200000e+01 
-2.7545080e-01 1.0387052e-01 1.1200000e+01 
4.3344110e-01 3.6698303e-01 1.1200000e+01 
-1.6940303e-01 -6.7147233e-02 1.1200000e+01 
5.2589774e-01 1.8778682e-01 1.1200000e+01 
-4.9824964e-02 -2.2899498e-01 1.1200000e+01 
5.9312421e-01 -2.2607248e-03 1.1200000e+01 
8.0442458e-02 -3.8241199e-01 1.1200000e+01 
2.3495543e-01 -1.1498348e-01 1.1192297e+01 
2.6148060e-01 3.3265671e-01 1.1175782e+01 
6.5030086e-01 -1.9571994e-01 1.1200000e+01 
2.1591261e-01 -5.3128195e-01 1.1200000e+01 
7.2370267e-01 -3.8357928e-01 1.1200000e+01 
3.5283846e-01 -6.7881674e-01 1.1200000e+01 
8.0229080e-01 -5.6938714e-01 1.1200000e+01 
4.9169636e-01 -8.2453203e-01 1.1200000e+01 
1.4704731e-01 5.0509244e-01 1.1146592e+01 
-1.4712107e-01 2.4955334e-01 1.1142665e+01 
-2.7856222e-01 7.5991374e-01 1.1134570e+01 
8.7853664e-01 -7.5613242e-01 1.1200000e+01 
6.3345391e-01 -9.6742594e-01 1.1200000e+01 
9.6223521e-01 -9.3955451e-01 1.1200000e+01 
7.7839762e-01 -1.1070861e+00 1.1200000e+01 
1.0540668e+00 -1.1189905e+00 1.1200000e+01 
9.2674971e-01 -1.2431173e+00 1.1200000e+01 
6.1769867e-01 -5.3819197e-01 1.1147740e+01 
-2.7062789e-01 5.1017910e-01 1.1098920e+01 
2.6791278e-01 -3.4326643e-01 1.1128112e+01 
-2.3918578e-02 6.5025377e-01 1.1093951e+01 
-3.8384137e-01 8.8212299e-01 1.1086200e+01 
1.1539197e+00 -1.2939740e+00 1.1200000e+01 
1.0802161e+00 -1.3733292e+00 1.1200000e+01 
5.2007568e-01 -3.4024879e-01 1.1120333e+01 
7.7545530e-01 -9.1389084e-01 1.1152423e+01 
1.2701387e+00 -1.4584012e+00 1.1200000e+01 
1.2413952e+00 -1.4938226e+00 1.1200000e+01 
2.5995269e-03 7.9417896e-01 1.1066316e+01 
3.5111442e-01 1.9147351e-01 1.1078129e+01 
6.9128263e-01 -7.4621761e-01 1.1121663e+01 
-2.4444652e-01 9.2544317e-01 1.1057826e+01 
2.4169369e-01 6.2371564e-01 1.1061250e+01 
1.4114177e+00 -1.6014645e+00 1.1200000e+01 
-4.6568948e-01 5.7121307e-01 1.1050279e+01 
-3.9450136e-01 3.5708389e-01 1.1048968e+01 
4.3304962e-01 -4.9232051e-02 1.1051698e+01 
-4.9137628e-01 7.7734828e-01 1.1024070e+01 
4.6536878e-01 -5.6446993e-01 1.1066667e+01 
1.0038754e-01 7.0786268e-02 1.1032998e+01 
5.6485903e-01 9.3420058e-02 1.1043086e+01 
1.1682189e-01 7.2077066e-01 1.1016966e+01 
6.2243176e-01 -9.9792898e-02 1.1043080e+01 
6.8586016e-01 -2.9107517e-01 1.1043082e+01 
4.6165740e-01 3.2170773e-01 1.1014409e+01 
2.1916231e-04 -3.0601922e-01 1.1018511e+01 
7.6322788e-01 -4.7714862e-01 1.1043080e+01 
3.2711875e-01 5.3311509e-01 1.0997360e+01 
-2.8502503e-01 1.0591424e-01 1.0997160e+01 
1.3220108e-01 -4.5751733e-01 1.1018651e+01 
-3.3379444e-01 9.6747702e-01 1.0982215e+01 
8.3855611e-01 -6.6391963e-01 1.1043110e+01 
1.7098816e-01 5.0606179e-01 1.0982840e+01 
2.6740342e-01 -6.0637015e-01 1.1018538e+01 
-1.1668095e-01 8.6301458e-01 1.0973510e+01 
-3.2501411e-01 8.2428533e-01 1.0971477e+01 
-1.0623129e-01 6.9441181e-01 1.0973319e+01 
9.1603440e-01 -8.4956855e-01 1.1043164e+01 
4.0438345e-01 -7.5367963e-01 1.1018442e+01 
1.0026598e+00 -1.0308149e+00 1.1043216e+01 
5.4414511e-01 -8.9838195e-01 1.1018457e+01 
-3.1416079e-01 5.9286666e-01 1.0950896e+01 
5.7894307e-01 -4.5211038e-01 1.0989419e+01 
2.3113728e-01 -1.1613724e-01 1.0966627e+01 
-1.5872599e-01 -1.0282642e-01 1.0958599e+01 
6.8715364e-01 -1.0397835e+00 1.1018551e+01 
1.0956138e+00 -1.2085614e+00 1.1043275e+01 
1.1073479e-01 2.5999242e-01 1.0939162e+01 
8.3352375e-01 -1.1775494e+00 1.1018704e+01 
3.0420625e-01 3.6408070e-01 1.0926989e+01 
9.8397064e-01 -1.3106817e+00 1.1018652e+01 
6.5744203e-01 -6.6087121e-01 1.0965696e+01 
4.0639085e-01 3.7620790e-02 1.0927238e+01 
4.6385258e-01 -1.4606610e-01 1.0923414e+01 
1.2283219e+00 -1.4200344e+00 1.1016655e+01 
-4.3734699e-01 4.6632281e-01 1.0889376e+01 
2.3397449e-01 6.3320041e-01 1.0891924e+01 
-3.5976419e-01 2.5618091e-01 1.0889209e+01 
5.1889340e-03 7.9451245e-01 1.0883780e+01 
-2.1736698e-01 7.5451857e-01 1.0877361e+01 
-2.3649560e-01 9.2215490e-01 1.0875207e+01 
-4.9191296e-01 6.9800007e-01 1.0874238e+01 
5.9728307e-01 -3.1718919e-03 1.0883923e+01 
7.7163374e-01 -9.1968143e-01 1.0927356e+01 
1.3956548e+00 -1.6031698e+00 1.1001639e+01 
3.7131998e-01 -5.0511110e-01 1.0890483e+01 
7.3222315e-01 -4.0329558e-01 1.0881278e+01 
1.1845353e+00 -1.4719287e+00 1.0959865e+01 
5.3102058e-01 1.8711258e-01 1.0851432e+01 
6.5352756e-01 -1.9640110e-01 1.0851412e+01 
8.8174808e-01 -7.7636588e-01 1.0881425e+01 
3.1019118e-01 -6.7115563e-01 1.0854822e+01 
-1.9907147e-01 2.9705381e-01 1.0807960e+01 
-4.3613347e-01 9.6287495e-01 1.0795827e+01 
1.2404966e-01 7.1861523e-01 1.0800656e+01 
1.0542389e+00 -1.1427380e+00 1.0894414e+01 
1.0080122e-02 -2.6564203e-02 1.0811348e+01 
8.0059320e-01 -5.7088667e-01 1.0851459e+01 
1.9549178e-01 -5.4737353e-01 1.0831500e+01 
1.1142238e-01 5.4934198e-01 1.0798107e+01 
-1.0118572e-01 6.9339055e-01 1.0789069e+01 
-3.6879587e-01 8.1610787e-01 1.0785636e+01 
-1.1180417e-01 8.6194938e-01 1.0786056e+01 
3.3221003e-01 5.3136826e-01 1.0794579e+01 
-2.9505697e-01 1.0839803e-01 1.0794165e+01 
-2.6782033e-01 5.6554502e-01 1.0782571e+01 
-7.9773448e-02 -2.2634150e-01 1.0796895e+01 
9.5380402e-01 -9.4137651e-01 1.0851685e+01 
4.6540346e-02 -3.8182136e-01 1.0797067e+01 
5.1820433e-01 -6.4141196e-01 1.0805398e+01 
2.9623204e-01 1.6090760e-01 1.0762791e+01 
7.5481081e-01 -1.1244236e+00 1.0831615e+01 
-3.9236569e-01 3.2744396e-01 1.0743795e+01 
4.5115387e-01 -8.2812846e-01 1.0796699e+01 
1.1620778e+00 -1.3371720e+00 1.0850274e+01 
-4.9061701e-01 8.0143648e-01 1.0731270e+01 
2.7511215e-01 -3.5673809e-01 1.0760911e+01 
-4.7283083e-01 5.7732582e-01 1.0729233e+01 
5.9215897e-01 -9.7148627e-01 1.0796868e+01 
1.2711018e-02 6.2351853e-01 1.0705030e+01 
2.3509566e-01 6.3545698e-01 1.0707465e+01 
8.8444906e-01 -1.2461057e+00 1.0797236e+01 
1.2267344e-02 7.9248637e-01 1.0701393e+01 
2.2317109e-01 3.3160374e-01 1.0708845e+01 
7.0151103e-01 -7.5492811e-01 1.0759052e+01 
-2.2967644e-01 9.1968012e-01 1.0693855e+01 
1.1049080e-01 -1.7698932e-01 1.0716869e+01 
5.1593387e-01 -3.9551121e-01 1.0733808e+01 
-2.0953515e-01 7.5465077e-01 1.0693366e+01 
-4.1055582e-02 4.0290555e-01 1.0698815e+01 
-1.9092365e-01 -7.6953493e-02 1.0703455e+01 
4.4186768e-01 -4.7875177e-02 1.0713080e+01 
1.0376410e+00 -1.3747747e+00 1.0797090e+01 
-1.0216090e-01 1.4183867e-01 1.0689222e+01 
4.6301165e-01 3.2976791e-01 1.0694771e+01 
1.3792856e+00 -1.6035240e+00 1.0803079e+01 
3.4267142e-01 -5.5836129e-01 1.0697283e+01 
1.3274026e-01 7.1550435e-01 1.0617965e+01 
6.4350395e-03 -2.9698223e-02 1.0626988e+01 
1.1922655e-01 5.5171502e-01 1.0615703e+01 
6.0161197e-01 -3.7147668e-03 1.0634670e+01 
-1.0454342e-01 8.5988688e-01 1.0603179e+01 
-3.1476271e-01 8.1809664e-01 1.0600499e+01 
-3.2721007e-01 9.6501279e-01 1.0598086e+01 
-3.7204069e-01 6.2460303e-01 1.0598082e+01 
3.9503321e-01 4.1664593e-02 1.0612473e+01 
7.5642926e-01 -4.5957717e-01 1.0639201e+01 
1.0686855e+00 -1.1867213e+00 1.0683619e+01 
1.1862568e+00 -1.4905188e+00 1.0709551e+01 
-3.0553648e-01 1.1131188e-01 1.0591011e+01 
3.3773056e-01 5.3000122e-01 1.0591652e+01 
9.1586465e-01 -8.6551559e-01 1.0656455e+01 
-4.8187205e-01 8.4797019e-01 1.0579481e+01 
-4.9508992e-01 6.9515264e-01 1.0570003e+01 
-6.1823640e-02 -2.6928377e-01 1.0591877e+01 
-4.4552362e-01 4.6822551e-01 1.0569781e+01 
2.3486464e-01 -6.1628789e-01 1.0608933e+01 
1.2243332e+00 -1.4428573e+00 1.0689137e+01 
1.6758277e-01 -3.6581215e-01 1.0580954e+01 
3.6040124e-01 -1.6607359e-01 1.0574331e+01 
2.4226463e-01 6.3284808e-01 1.0526952e+01 
1.9839229e-02 6.2453073e-01 1.0521901e+01 
2.0728709e-02 7.9000086e-01 1.0518578e+01 
-2.2662936e-01 9.1919118e-01 1.0511303e+01 
7.6969552e-01 -1.1654049e+00 1.0575394e+01 
-1.7368002e-01 3.4109709e-01 1.0491889e+01 
9.9239624e-01 -1.3561928e+00 1.0593191e+01 
4.6830112e-01 3.2848853e-01 1.0491823e+01 
-2.1177161e-01 -6.3996091e-02 1.0489694e+01 
-1.2053259e-01 1.4221530e-01 1.0482462e+01 
3.8567743e-01 -4.1833067e-01 1.0504828e+01 
-3.8444346e-01 8.9100391e-01 1.0465118e+01 
4.8567781e-01 -7.0279181e-01 1.0515463e+01 
2.5181451e-01 3.6753485e-01 1.0471457e+01 
1.3623232e+00 -1.6025563e+00 1.0604321e+01 
5.1750135e-01 -9.2857897e-01 1.0518310e+01 
1.2181108e-01 -1.3327448e-01 1.0459875e+01 
-2.6115412e-01 7.5620574e-01 1.0436647e+01 
1.3339885e-01 7.1837604e-01 1.0435494e+01 
-9.9354088e-02 8.5910571e-01 1.0428390e+01 
1.2071926e-01 5.4966658e-01 1.0433020e+01 
-1.1455078e-01 4.8449451e-01 1.0428391e+01 
-8.7712556e-02 6.9124293e-01 1.0426326e+01 
6.7702793e-02 2.6902604e-01 1.0419617e+01 
-4.8006919e-01 5.8389378e-01 1.0409636e+01 
-4.9606767e-01 7.7580392e-01 1.0404131e+01 
-4.0549436e-01 3.3393034e-01 1.0409104e+01 
3.5747036e-01 1.1616281e-01 1.0417116e+01 
-4.3586791e-01 9.6131504e-01 1.0391360e+01 
1.2065098e+00 -1.4334294e+00 1.0504397e+01 
-3.1645340e-01 1.1464577e-01 1.0387694e+01 
3.4367025e-01 5.2900481e-01 1.0388579e+01 
1.1812178e+00 -1.5002099e+00 1.0499764e+01 
5.8712006e-01 6.1704714e-02 1.0392560e+01 
-2.7845193e-02 -1.8236578e-02 1.0372319e+01 
-1.0368342e-01 -2.3626913e-01 1.0368218e+01 
-3.3761340e-01 6.9865382e-01 1.0344988e+01 
2.4501429e-01 6.3476110e-01 1.0344023e+01 
2.2957299e-02 6.2377673e-01 1.0340053e+01 
2.2428589e-02 7.9195863e-01 1.0337940e+01 
-2.1920621e-01 9.1691071e-01 1.0328904e+01 
1.0617889e+00 -1.1939306e+00 1.0404593e+01 
-2.6188004e-01 4.1290176e-01 1.0303514e+01 
9.7372991e-01 -1.3581219e+00 1.0394266e+01 
4.7401363e-01 3.2765698e-01 1.0288728e+01 
-2.2593053e-01 -6.0945414e-02 1.0286325e+01 
4.5093361e-01 -1.2271600e-01 1.0292478e+01 
-1.9161382e-01 2.3320019e-01 1.0271049e+01 
1.3447807e+00 -1.6002964e+00 1.0405371e+01 
-3.8934600e-01 2.7436128e-01 1.0263282e+01 
6.9008720e-01 -2.7889258e-01 1.0294088e+01 
-4.9909559e-01 6.9851542e-01 1.0249034e+01 
1.4255905e-01 7.1581638e-01 1.0253278e+01 
-4.5633826e-01 4.7808033e-01 1.0248832e+01 
1.2879150e-01 5.5125487e-01 1.0251165e+01 
-9.7309090e-02 8.6030853e-01 1.0245469e+01 
6.4972502e-01 -5.5729586e-01 1.0290428e+01 
-4.8758641e-02 4.4574970e-01 1.0244971e+01 
8.7780178e-02 -1.9663906e-01 1.0260818e+01 
3.5226636e-02 -4.2445111e-01 1.0265753e+01 
9.1820514e-01 -8.8277805e-01 1.0305056e+01 
-4.8263812e-01 8.5032642e-01 1.0225273e+01 
-3.1133589e-01 8.1104511e-01 1.0223562e+01 
-3.2192314e-01 9.6311092e-01 1.0213686e+01 
2.2140940e-01 3.5010073e-01 1.0216121e+01 
2.8587553e-01 -3.6192778e-01 1.0227361e+01 
3.5774806e-01 -7.9511309e-01 1.0243451e+01 
5.7752508e-01 1.0410930e-01 1.0209412e+01 
1.1933064e+00 -1.4308494e+00 1.0305397e+01 
1.1628126e+00 -1.4996005e+00 1.0300731e+01 
-3.2779747e-01 1.1838962e-01 1.0184212e+01 
3.5001910e-01 5.2837002e-01 1.0185357e+01 
3.2667503e-01 1.6977262e-01 1.0189160e+01 
-1.0621210e-01 8.4366120e-02 1.0174430e+01 
-9.6531391e-02 -2.6537928e-01 1.0185219e+01 
2.5302544e-01 6.3246685e-01 1.0163283e+01 
2.9802065e-02 6.2422138e-01 1.0157083e+01 
2.9888602e-02 7.9082131e-01 1.0155161e+01 
-2.0056236e-01 7.4753875e-01 1.0145051e+01 
-2.2937876e-01 9.2272365e-01 1.0130542e+01 
1.0731348e+00 -1.2300494e+00 1.0225514e+01 
-3.1529269e-01 4.8373789e-01 1.0102863e+01 
-1.7511737e-01 5.1329994e-01 1.0103035e+01 
-4.9962458e-01 7.6525456e-01 1.0095923e+01 
-4.8777211e-01 5.9271592e-01 1.0089158e+01 
-3.8996300e-01 8.8486999e-01 1.0082110e+01 
-4.1595793e-01 3.3249581e-01 1.0086564e+01 
4.8013902e-01 3.2726201e-01 1.0085482e+01 
-2.4063028e-01 -5.7467785e-02 1.0082788e+01 
9.8254693e-01 -1.3822473e+00 1.0176178e+01 
1.4471547e-01 7.1852887e-01 1.0070738e+01 
1.3266715e+00 -1.5967741e+00 1.0206228e+01 
-9.0255022e-02 8.5919267e-01 1.0063861e+01 
-7.7522077e-02 6.9108278e-01 1.0061906e+01 
1.9504002e-01 4.9579054e-01 1.0061579e+01 
2.8456971e-01 -1.1639819e-01 1.0076909e+01 
6.0309082e-01 -8.0662584e-01 1.0107045e+01 
7.5143524e-03 -1.0958386e-01 1.0064608e+01 
4.8793611e-04 3.7810972e-01 1.0051792e+01 
-3.4733066e-01 6.9922781e-01 1.0031266e+01 
9.1932289e-02 -3.1859595e-01 1.0055656e+01 
7.1637857e-01 -1.1675659e+00 1.0088538e+01 
-4.3556929e-01 9.5956087e-01 9.9866343e+00 
1.1798089e+00 -1.4271324e+00 1.0106206e+01 
1.1438006e+00 -1.4979373e+00 1.0101506e+01 
2.5711241e-01 6.3426030e-01 9.9803476e+00 
3.2642253e-02 7.9283965e-01 9.9739237e+00 
9.9147707e-02 5.7895595e-01 9.9765520e+00 
-3.3955851e-01 1.2253336e-01 9.9805593e+00 
3.5676697e-01 5.2808774e-01 9.9819841e+00 
5.9783351e-01 6.0953423e-02 9.9862003e+00 
-1.1487116e-01 -2.6277333e-01 9.9816370e+00 
-1.1925467e-01 8.5570574e-02 9.9704533e+00 
-2.2201554e-01 9.2081273e-01 9.9447012e+00 
-5.0330615e-01 7.0807332e-01 9.9295177e+00 
-4.6714619e-01 4.8793954e-01 9.9283333e+00 
-4.0432966e-01 2.8004357e-01 9.9271889e+00 
3.9977336e-01 1.1239022e-01 9.9399481e+00 
1.0449759e+00 -1.1874890e+00 1.0006322e+01 
9.7234601e-01 -1.3866856e+00 1.0012932e+01 
-3.8943318e-01 8.8295066e-01 9.8936281e+00 
3.6710444e-01 -3.8451153e-01 9.9247141e+00 
1.5323992e-01 7.1726364e-01 9.8882980e+00 
1.9024853e-01 3.8667706e-01 9.8924875e+00 
-8.1705995e-02 8.5763168e-01 9.8811712e+00 
-2.1116234e-01 2.3723455e-01 9.8869810e+00 
-6.9839992e-02 6.9203180e-01 9.8801470e+00 
6.3186443e-01 -6.3659799e-01 9.9274387e+00 
-7.9414271e-02 4.7144386e-01 9.8765497e+00 
1.3080087e+00 -1.5920197e+00 1.0006896e+01 
4.8666716e-01 3.2729238e-01 9.8820839e+00 
-2.5585732e-01 -5.3574275e-02 9.8790789e+00 
-3.7163892e-01 7.0597923e-01 9.8588915e+00 
7.5724632e-02 2.2428049e-01 9.8672981e+00 
-2.1860319e-01 7.6238626e-01 9.8505535e+00 
6.1432671e-02 -5.0193131e-01 9.8809357e+00 
2.6227751e-01 3.3753628e-01 9.8533316e+00 
9.1163111e-01 -8.7597466e-01 9.9067287e+00 
4.3257412e-01 -9.1785353e-01 9.8811064e+00 
-3.0625397e-01 5.3152603e-01 9.8204803e+00 
-3.1120792e-01 9.5971721e-01 9.8004637e+00 
2.6755175e-01 6.3064474e-01 9.8035707e+00 
4.1111298e-02 7.9178208e-01 9.7926254e+00 
4.2314183e-02 6.2319642e-01 9.7926207e+00 
-2.0590486e-01 9.1530037e-01 9.7882347e+00 
1.1660254e+00 -1.4223056e+00 9.9068251e+00 
1.1241957e+00 -1.4952450e+00 9.9020910e+00 
-1.5371650e-01 -2.2838117e-01 9.7981606e+00 
-4.9310270e-01 8.1910491e-01 9.7698908e+00 
-4.9544904e-01 6.0201055e-01 9.7686749e+00 
-3.5172629e-01 1.2706688e-01 9.7767334e+00 
3.6390379e-01 5.2814871e-01 9.7784557e+00 
-4.4423056e-01 3.8787362e-01 9.7675362e+00 
-7.0575230e-02 -1.4322303e-02 9.7740898e+00 
6.0381216e-01 6.1344560e-02 9.7827911e+00 
-3.0909643e-01 8.4651053e-01 9.7552347e+00 
7.1095914e-01 -3.0720064e-01 9.7910671e+00 
1.0547327e+00 -1.2216612e+00 9.8268852e+00 
1.9523767e-01 4.9647117e-01 9.7299299e+00 
8.3552974e-01 -1.0961335e+00 9.7950821e+00 
1.6149303e-01 7.1659070e-01 9.7059860e+00 
3.3977628e-01 1.0498784e-01 9.7172899e+00 
-7.8326926e-02 8.5895818e-01 9.6985054e+00 
9.1375482e-01 -1.3588009e+00 9.7963514e+00 
-3.5669661e-01 6.8625152e-01 9.6878510e+00 
-2.8872752e-01 9.5155662e-01 9.6802311e+00 
-1.8764427e-01 7.5535369e-01 9.6751900e+00 
1.2888056e+00 -1.5860633e+00 9.8073750e+00 
4.9358779e-01 3.2773688e-01 9.6785297e+00 
4.7806475e-01 -1.6844085e-01 9.6907911e+00 
-2.7159813e-01 -4.9275968e-02 9.6751947e+00 
-1.6839768e-01 1.4761788e-01 9.6668530e+00 
-2.8886971e-01 4.3645665e-01 9.6573009e+00 
1.3316214e-01 -3.0871877e-01 9.6663055e+00 
-2.0358454e-01 9.1579419e-01 9.6295462e+00 
2.7577370e-01 6.2970030e-01 9.6206732e+00 
5.8223993e-02 3.5124958e-01 9.6188507e+00 
-3.0589515e-01 8.3474052e-01 9.6086330e+00 
-5.0724411e-01 7.1643281e-01 9.6090279e+00 
4.7433410e-02 7.9239047e-01 9.6097736e+00 
6.7382109e-01 -1.1703351e+00 9.6895866e+00 
-4.7808549e-01 4.9832988e-01 9.6078215e+00 
2.8833082e-01 3.3467498e-01 9.6145144e+00 
-4.2106077e-01 2.9159716e-01 9.6066151e+00 
1.1519648e+00 -1.4163964e+00 9.7072554e+00 
4.8853526e-01 -5.1050329e-01 9.6293898e+00 
-4.3523934e-01 9.5762259e-01 9.5816355e+00 
1.1040115e+00 -1.4915482e+00 9.7024879e+00 
1.2242819e-01 7.8613400e-02 9.5866346e+00 
-3.6429054e-01 1.3198005e-01 9.5727301e+00 
3.7141934e-01 5.2854395e-01 9.5747700e+00 
6.1019135e-01 6.2228519e-02 9.5792255e+00 
-1.5343809e-01 -2.5631306e-01 9.5739517e+00 
2.0438533e-01 4.9837440e-01 9.5395212e+00 
1.6867700e-01 7.1708059e-01 9.5230341e+00 
-2.9202509e-01 9.5331979e-01 9.5168467e+00 
9.2511404e-01 -1.3796278e+00 9.6175823e+00 
1.0280319e+00 -1.1771344e+00 9.6072960e+00 
5.6664431e-03 6.4434445e-01 9.5141373e+00 
-3.1739196e-01 5.3735059e-01 9.4998951e+00 
-3.4470978e-01 7.0640200e-01 9.4977283e+00 
-1.9525555e-01 3.1971532e-01 9.4958315e+00 
1.2690756e+00 -1.5789356e+00 9.6076632e+00 
-1.5181711e-01 8.9641434e-01 9.4639111e+00 
-2.0312090e-04 4.1795084e-01 9.4678640e+00 
5.0089073e-01 3.2858419e-01 9.4748163e+00 
-2.8783917e-01 -4.4583965e-02 9.4711313e+00 
-1.8146756e-01 1.4966904e-01 9.4624834e+00 
-5.0305974e-01 6.1178410e-01 9.4481735e+00 
-5.1131751e-02 -7.9926066e-02 9.4626741e+00 
-4.5830816e-01 3.9929533e-01 9.4469748e+00 
7.0891446e-01 -2.7641883e-01 9.4807901e+00 
1.5889041e-02 -4.9832118e-01 9.4731874e+00 
8.0878830e-01 -1.1613063e+00 9.5255232e+00 
9.0583259e-01 -8.6575383e-01 9.5076551e+00 
2.8275773e-01 6.3043761e-01 9.4362946e+00 
1.2108737e-01 5.7653487e-01 9.4291153e+00 
3.8856944e-01 -9.2180163e-01 9.4821129e+00 
-5.0099987e-01 7.9424745e-01 9.4214497e+00 
-3.3339813e-01 8.4138000e-01 9.4206190e+00 
4.1514911e-02 8.0068719e-01 9.4185171e+00 
-3.5534957e-01 9.6743155e-01 9.4028473e+00 
2.4950154e-01 -1.4693122e-01 9.4181061e+00 
2.1310220e-02 -3.1051165e-01 9.4189501e+00 
1.1376356e+00 -1.4094326e+00 9.5074949e+00 
1.0832623e+00 -1.4868720e+00 9.5026932e+00 
-2.9872185e-01 6.5074015e-01 9.3757734e+00 
-1.8989149e-01 8.1563574e-01 9.3744106e+00 
4.6822342e-01 -1.0231771e-01 9.3996258e+00 
3.0752361e-01 -4.1241476e-01 9.4063892e+00 
6.0251784e-01 1.0627774e-01 9.3954773e+00 
-1.9235186e-01 -2.2080119e-01 9.3901405e+00 
-6.1487589e-02 6.9394284e-01 9.3692560e+00 
-3.7724099e-01 1.3726273e-01 9.3685446e+00 
3.7930351e-01 5.2926409e-01 9.3709240e+00 
3.5325590e-01 1.7339794e-01 9.3729877e+00 
-2.6682684e-01 9.4399101e-01 9.3365564e+00 
1.7599763e-01 7.1787453e-01 9.3400421e+00 
-3.0310109e-01 4.4351977e-01 9.3366146e+00 
1.0360785e+00 -1.2093811e+00 9.4274998e+00 
2.0572293e-01 3.8594738e-01 9.3263674e+00 
2.7574629e-02 1.5289590e-01 9.3225298e+00 
-5.3668018e-02 8.5421252e-01 9.3041096e+00 
8.7060601e-01 -1.3551847e+00 9.3967962e+00 
-5.1157153e-01 7.0366132e-01 9.2920542e+00 
-3.9893001e-01 8.8984489e-01 9.2891188e+00 
-4.8911831e-01 5.0926197e-01 9.2873268e+00 
-4.3824062e-01 3.0391473e-01 9.2861357e+00 
1.2488320e+00 -1.5706671e+00 9.4077616e+00 
6.0721833e-01 -6.1312443e-01 9.3259974e+00 
-2.4407434e-01 2.4814242e-01 9.2641277e+00 
5.0856566e-01 3.2982308e-01 9.2709427e+00 
-3.0456698e-01 -3.9509393e-02 9.2668839e+00 
-1.6642424e-01 9.0525120e-01 9.2467680e+00 
2.9035851e-01 6.3104147e-01 9.2532978e+00 
-3.0932456e-01 8.0797344e-01 9.2439775e+00 
6.1331909e-02 7.9389453e-01 9.2437973e+00 
1.2837571e-01 5.7730883e-01 9.2458639e+00 
-1.6793790e-01 5.4358310e-01 9.2375193e+00 
-1.4237964e-01 7.6093125e-01 9.2303257e+00 
6.2851948e-01 -1.1706127e+00 9.2898855e+00 
1.1230466e+00 -1.4014423e+00 9.3075447e+00 
9.5499409e-03 4.2303374e-01 9.1922064e+00 
1.0619618e+00 -1.4812416e+00 9.3027086e+00 
-3.2874873e-01 5.4329765e-01 9.1793394e+00 
-4.3487978e-01 9.5551020e-01 9.1763525e+00 
3.8754612e-01 5.3030002e-01 9.1669159e+00 
-3.9056733e-01 1.4290473e-01 9.1641731e+00 
1.8352576e-01 7.1891308e-01 9.1570482e+00 
-2.7422687e-01 9.4787741e-01 9.1507215e+00 
2.2180220e-01 5.0202161e-01 9.1586208e+00 
2.8071573e-02 6.4907455e-01 9.1501513e+00 
-5.8524936e-02 8.5982502e-01 9.1475554e+00 
6.2410861e-01 6.5419778e-02 9.1716118e+00 
-1.9440968e-01 -2.4826702e-01 9.1655407e+00 
-1.7616339e-01 9.3204089e-02 9.1526709e+00 
-5.1053363e-01 6.2180567e-01 9.1276722e+00 
-4.7260988e-01 4.1126287e-01 9.1264877e+00 
8.8112694e-01 -1.3737885e+00 9.2176781e+00 
1.0109884e+00 -1.1630590e+00 9.2075109e+00 
3.0866987e-01 3.4185511e-01 9.0982971e+00 
1.2280880e+00 -1.5612888e+00 9.2076683e+00 
3.6071143e-01 -6.9245124e-01 9.1132517e+00 
2.9819906e-01 6.3189584e-01 9.0703001e+00 
6.8560794e-02 7.9498273e-01 9.0608053e+00 
-3.0246088e-01 8.1100607e-01 9.0527925e+00 
-1.8279491e-01 9.1398185e-01 9.0513163e+00 
-1.5253863e-01 7.4769872e-01 9.0519161e+00 
5.1660234e-01 3.3144221e-01 9.0669031e+00 
-3.2176808e-01 -3.4063395e-02 9.0624495e+00 
6.1407131e-01 -8.6519802e-01 9.1099386e+00 
7.9365003e-01 -1.1360478e+00 9.1266775e+00 
9.0080059e-01 -8.5227442e-01 9.1078291e+00 
-1.4901049e-03 -1.3460487e-01 9.0552454e+00 
-3.2369968e-02 -4.9315014e-01 9.0647078e+00 
2.8379166e-01 -3.4146005e-01 9.0631008e+00 
3.4140301e-01 -9.2349875e-01 9.0830431e+00 
5.0477087e-01 -1.6239075e-01 9.0433989e+00 
-3.1761503e-01 4.5080245e-01 9.0159521e+00 
1.1082069e+00 -1.3924532e+00 9.1074009e+00 
1.0401239e+00 -1.4746825e+00 9.1025305e+00 
-9.0329774e-02 5.0357252e-01 8.9896231e+00 
3.8527039e-01 1.0981102e-01 9.0038519e+00 
-5.1332217e-01 7.4373984e-01 8.9697609e+00 
1.9126175e-01 7.2018665e-01 8.9740534e+00 
-5.0017416e-01 5.2058440e-01 8.9668331e+00 
-5.1732678e-02 8.6056393e-01 8.9645643e+00 
-2.3327383e-01 -2.1167973e-01 8.9813786e+00 
-4.5578733e-01 3.1685075e-01 8.9656563e+00 
2.2974575e-01 5.0297964e-01 8.9682932e+00 
-3.0775252e-01 9.5954990e-01 8.9550762e+00 
3.9613691e-01 5.3164244e-01 8.9627399e+00 
-4.0425926e-01 1.4889583e-01 8.9596119e+00 
6.3162535e-01 6.7699514e-02 8.9675579e+00 
7.3108339e-01 -2.9444906e-01 8.9804668e+00 
-1.9152252e-01 9.5763564e-02 8.9477367e+00 
1.0172100e+00 -1.1934075e+00 9.0273495e+00 
1.4374880e-01 2.7429667e-01 8.9301500e+00 
8.2506323e-01 -1.3484939e+00 8.9964743e+00 
6.6260821e-03 -3.2494897e-01 8.9179926e+00 
-3.6113420e-01 8.4555876e-01 8.8910789e+00 
3.7296346e-01 3.5244656e-01 8.8963909e+00 
1.2068570e+00 -1.5508314e+00 9.0073814e+00 
3.0627564e-01 6.3299161e-01 8.8873024e+00 
-2.5601900e-01 2.5953805e-01 8.8833294e+00 
7.5964980e-02 7.9629332e-01 8.8778124e+00 
7.9408072e-02 6.2538964e-01 8.8766842e+00 
-1.7648716e-01 9.1398489e-01 8.8683262e+00 
-1.4495924e-01 7.4779135e-01 8.8687696e+00 
-3.4027195e-01 5.4928327e-01 8.8587809e+00 
5.2499044e-01 3.3343029e-01 8.8626966e+00 
-3.3942905e-01 -2.8257135e-02 8.8578215e+00 
2.3306072e-02 4.0171012e-01 8.8363037e+00 
5.3510493e-01 -4.9596864e-01 8.8604813e+00 
5.8060110e-01 -1.1685092e+00 8.8894224e+00 
-5.1783812e-01 6.3202989e-01 8.8071699e+00 
-4.8708701e-01 4.2372301e-01 8.8060017e+00 
1.0931253e+00 -1.3824937e+00 8.9070616e+00 
-1.4604914e-01 5.1284158e-01 8.7964458e+00 
1.0177628e+00 -1.4672201e+00 8.9021568e+00 
1.9920477e-01 7.2168642e-01 8.7910585e+00 
-4.4800092e-02 8.6150730e-01 8.7815742e+00 
5.0283592e-02 -3.9245933e-02 8.7950315e+00 
1.8000926e-01 -5.8456689e-01 8.8131990e+00 
-3.0191949e-01 9.5828408e-01 8.7720900e+00 
-4.3449232e-01 9.5323396e-01 8.7707748e+00 
4.0506563e-01 5.3328210e-01 8.7583952e+00 
-4.1830644e-01 1.5522583e-01 8.7548552e+00 
6.3950002e-01 7.0416920e-02 8.7633343e+00 
-2.3765244e-01 -2.3873021e-01 8.7563696e+00 
6.8879139e-01 -7.8606635e-01 8.7952213e+00 
-2.0731416e-01 9.8562643e-02 8.7425985e+00 
8.3483338e-01 -1.3648506e+00 8.8169994e+00 
9.9387944e-01 -1.1454583e+00 8.8069515e+00 
3.0624667e-01 -2.4424127e-01 8.7430220e+00 
-3.5017908e-01 8.1868225e-01 8.7084265e+00 
-6.9626637e-02 7.2453260e-01 8.7031679e+00 
-3.6302355e-01 6.3496351e-01 8.7016630e+00 
3.1458578e-01 6.3431841e-01 8.7043066e+00 
-3.3240548e-01 4.5824066e-01 8.6952906e+00 
8.3546802e-02 7.9781854e-01 8.6948166e+00 
1.5164243e-01 5.8091843e-01 8.6961393e+00 
1.1851523e+00 -1.5393260e+00 8.8068962e+00 
2.6583660e-01 4.6392646e-01 8.6661396e+00 
-1.8941474e-01 9.2120075e-01 8.6562033e+00 
7.7776569e-01 -1.1098442e+00 8.7275591e+00 
-5.2005702e-01 7.1878397e-01 8.6460629e+00 
-5.1121104e-01 5.3225219e-01 8.6463385e+00 
5.3371966e-01 3.3577594e-01 8.6583185e+00 
-4.7364885e-01 3.3035713e-01 8.6451778e+00 
-3.5753644e-01 -2.2101808e-02 8.6529961e+00 
8.9653027e-01 -8.3569825e-01 8.7072306e+00 
-6.5564036e-02 8.7408429e-01 8.6383123e+00 
2.9118046e-01 -9.2301112e-01 8.6837101e+00 
-2.8309664e-03 -1.8036267e-01 8.6462498e+00 
-8.3189793e-02 -4.8651788e-01 8.6554613e+00 
2.0734628e-01 7.2340870e-01 8.6080647e+00 
-3.3026361e-01 9.6393287e-01 8.5987177e+00 
1.0778112e+00 -1.3715923e+00 8.7065229e+00 
9.9489194e-01 -1.4588805e+00 8.7015848e+00 
-1.7763489e-01 7.6972413e-01 8.5859642e+00 
4.0428832e-01 3.2950452e-01 8.5699701e+00 
-3.7768000e-01 7.0612788e-01 8.5552187e+00 
3.4785035e-01 5.9861682e-02 8.5730715e+00 
-2.7635276e-01 -2.0111120e-01 8.5718403e+00 
1.7861828e-01 2.7890727e-01 8.5572300e+00 
4.1432202e-01 5.3520966e-01 8.5538759e+00 
-4.3269852e-01 1.6188444e-01 8.5498991e+00 
-3.5193464e-01 5.5526114e-01 8.5382195e+00 
9.9816823e-01 -1.1739416e+00 8.6264153e+00 
6.4772171e-01 7.3558182e-02 8.5589390e+00 
-2.2352853e-01 1.0159117e-01 8.5372524e+00 
-1.2766010e-01 5.2128655e-01 8.5265713e+00 
7.4469733e-01 -2.8780863e-01 8.5608749e+00 
-5.0359881e-01 8.1207722e-01 8.5193644e+00 
3.2312101e-01 6.3587135e-01 8.5213099e+00 
8.0565685e-01 -9.5358247e-01 8.5738258e+00 
7.7724487e-01 -1.3388882e+00 8.5953665e+00 
5.5222560e-02 8.1973994e-01 8.4986620e+00 
6.2341851e-01 -6.9418663e-01 8.5395470e+00 
-5.2494282e-01 6.4241433e-01 8.4866686e+00 
1.1629871e+00 -1.5268037e+00 8.6062117e+00 
3.9774472e-01 -5.2091712e-01 8.5239391e+00 
-5.0169188e-01 4.3663064e-01 8.4855156e+00 
-1.2855855e-01 9.0262729e-01 8.4736166e+00 
-3.6354020e-01 2.8300986e-01 8.4761467e+00 
4.9242109e-02 6.6980040e-01 8.4667015e+00 
-2.7805492e-01 9.5241714e-01 8.4607859e+00 
2.8242680e-01 4.5770514e-01 8.4562330e+00 
5.4277956e-01 3.3846790e-01 8.4537659e+00 
-3.7607685e-01 -1.5608632e-02 8.4479694e+00 
-8.5443117e-02 3.0558482e-01 8.4352217e+00 
2.1568222e-01 7.2534657e-01 8.4250698e+00 
-2.4701044e-01 8.0065900e-01 8.4164219e+00 
5.3019315e-01 -1.1641393e+00 8.4881725e+00 
2.9573355e-02 1.6932728e-02 8.4150953e+00 
1.0622737e+00 -1.3597772e+00 8.5057831e+00 
9.7152555e-01 -1.4496896e+00 8.5008097e+00 
6.8486646e-02 -3.3411762e-01 8.4038773e+00 
-3.4743816e-01 4.6578303e-01 8.3746300e+00 
-4.3407872e-01 9.5080388e-01 8.3648911e+00 
-3.1446744e-02 4.9117175e-01 8.3566179e+00 
3.2547733e-01 2.3449703e-01 8.3518867e+00 
4.2389575e-01 5.3741580e-01 8.3491812e+00 
-4.4742504e-01 1.6886139e-01 8.3447390e+00 
3.0955276e-01 6.5758765e-01 8.3385906e+00 
6.5627974e-01 7.7109471e-02 8.3543663e+00 
-2.8303352e-01 -2.2779800e-01 8.3464012e+00 
-5.2046865e-01 7.5015026e-01 8.3269911e+00 
9.9212930e-02 8.0150330e-01 8.3288317e+00 
1.7070726e-01 6.0013539e-01 8.3303471e+00 
-5.2218813e-01 5.4422134e-01 8.3258448e+00 
-2.4015608e-01 1.0483918e-01 8.3316936e+00 
-2.0701861e-01 9.3090791e-01 8.3205023e+00 
7.8635049e-01 -1.3529823e+00 8.4155226e+00 
-4.2592481e-02 8.7165231e-01 8.3219204e+00 
-4.9177432e-01 3.4438723e-01 8.3246994e+00 
9.7674274e-01 -1.1245308e+00 8.4055929e+00 
1.1403748e+00 -1.5132959e+00 8.4053221e+00 
-2.8451448e-02 7.1158934e-01 8.2678823e+00 
5.3331232e-01 -4.9414465e-01 8.3062248e+00 
-1.6949129e-01 7.5954622e-01 8.2615147e+00 
-3.3883581e-01 6.0436404e-01 8.2600346e+00 
-3.7286332e-01 8.2188308e-01 8.2524843e+00 
-5.5500690e-02 -8.3038777e-02 8.2671833e+00 
7.6074678e-01 -1.0827152e+00 8.3279943e+00 
-2.6607880e-01 2.9292595e-01 8.2506170e+00 
8.9302063e-01 -8.1619030e-01 8.3058329e+00 
1.8128736e-01 -6.3308883e-01 8.2762175e+00 
2.2420792e-01 7.2749352e-01 8.2420750e+00 
5.5215979e-01 3.4149468e-01 8.2490339e+00 
-3.9503685e-01 -8.7888502e-03 8.2427359e+00 
2.3937313e-01 -9.2234659e-01 8.2795401e+00 
4.1958097e-01 8.1644222e-02 8.2404757e+00 
-1.3641636e-01 -4.7852457e-01 8.2454100e+00 
5.7796592e-01 -1.6546379e-01 8.2433186e+00 
1.0465223e+00 -1.3470773e+00 8.3048363e+00 
9.4767743e-01 -1.4396738e+00 8.2998276e+00 
4.2707004e-02 8.3665001e-01 8.1702051e+00 
-5.3181893e-01 6.5291780e-01 8.1661673e+00 
-5.0483716e-01 8.1678563e-01 8.1646433e+00 
-5.1637816e-01 4.4994143e-01 8.1650295e+00 
-1.0607412e-01 9.0040988e-01 8.1573324e+00 
7.5136192e-02 3.3081844e-01 8.1620035e+00 
3.4084108e-01 6.3962805e-01 8.1553164e+00 
-2.5730038e-01 9.4798064e-01 8.1444645e+00 
-3.2145956e-01 -1.8919051e-01 8.1614876e+00 
9.7899759e-01 -1.1511873e+00 8.2246666e+00 
4.3377650e-01 5.3989118e-01 8.1443052e+00 
-4.6247560e-01 1.7614631e-01 8.1393690e+00 
1.8317431e-01 5.7495755e-01 8.1353216e+00 
5.5237353e-01 -8.5917521e-01 8.1848278e+00 
6.6516328e-01 8.1056938e-02 8.1496153e+00 
-2.5718746e-01 1.0829697e-01 8.1259193e+00 
7.5816935e-01 -2.7595612e-01 8.1521769e+00 
-3.7726399e-01 7.1917737e-01 8.1046820e+00 
7.2726893e-01 -1.3265312e+00 8.1934404e+00 
-2.2649552e-01 7.8986907e-01 8.0943489e+00 
1.1173285e+00 -1.4988337e+00 8.2042236e+00 
-1.6612059e-01 5.5075854e-01 8.0850039e+00 
2.5710660e-01 4.9620619e-01 8.0726423e+00 
-1.3248532e-02 7.0658755e-01 8.0626564e+00 
1.5223376e-01 -3.2572201e-01 8.0801983e+00 
5.6184983e-01 3.4484494e-01 8.0441208e+00 
-4.1440299e-01 -1.6537415e-03 8.0372906e+00 
2.6540574e-01 7.0816523e-01 8.0313578e+00 
1.2693985e-01 7.9749584e-01 8.0184870e+00 
4.7742262e-01 -1.1576222e+00 8.0861025e+00 
6.4954442e-01 -1.1440033e+00 8.0848522e+00 
8.7501931e-01 -1.2059972e+00 8.0951204e+00 
-5.2305496e-01 7.5850397e-01 8.0064812e+00 
-1.9289477e-02 8.7002373e-01 8.0056162e+00 
-5.3306615e-01 5.5644876e-01 8.0053511e+00 
1.0305662e+00 -1.3335210e+00 8.1036768e+00 
-5.1011389e-01 3.5889521e-01 8.0042219e+00 
-1.8781438e-01 -9.8415047e-02 8.0138769e+00 
9.2336130e-01 -1.4288591e+00 8.0986338e+00 
-1.9181820e-02 1.2399293e-01 8.0027180e+00 
-1.8837550e-01 9.2944294e-01 7.9892144e+00 
7.2347975e-01 -6.0174912e-01 8.0137520e+00 
-4.3364069e-01 9.4823033e-01 7.9586878e+00 
2.8831074e-01 1.6231489e-01 7.9615054e+00 
4.7520432e-01 -3.4098154e-01 7.9767046e+00 
-3.6217222e-01 4.6138844e-01 7.9410830e+00 
1.8800634e-01 5.8777744e-01 7.9447923e+00 
3.5424259e-01 6.3976729e-01 7.9408617e+00 
4.4395390e-01 5.4262638e-01 7.9392462e+00 
-4.7783977e-01 1.8372887e-01 7.9337840e+00 
7.3579496e-01 -1.3383552e+00 8.0132103e+00 
9.5961952e-01 -1.1004772e+00 8.0033989e+00 
6.7436153e-01 8.5386686e-02 7.9446802e+00 
-3.3042061e-01 -2.1556629e-01 7.9355969e+00 
-2.7461344e-01 1.1195511e-01 7.9199243e+00 
6.3753001e-02 6.7082280e-01 7.9101958e+00 
-6.7503035e-02 7.3661643e-01 7.8986545e+00 
1.0938617e+00 -1.4834484e+00 8.0029106e+00 
4.2213280e-02 -4.6405512e-01 7.9139886e+00 
-2.3957153e-01 7.8738844e-01 7.8802156e+00 
2.3361990e-02 4.5984808e-01 7.8824024e+00 
-3.7111181e-01 8.8629949e-01 7.8727298e+00 
3.9800987e-01 -6.1201751e-01 7.9137273e+00 
2.0977221e-01 7.5401098e-01 7.8667660e+00 
2.9936537e-01 4.6699399e-01 7.8637590e+00 
6.6780299e-02 8.3536190e-01 7.8538971e+00 
-5.3843933e-01 6.6350019e-01 7.8456655e+00 
-8.3072662e-02 8.9892560e-01 7.8410282e+00 
8.9027494e-01 -7.9391843e-01 7.9035978e+00 
-5.2556729e-01 4.1263947e-01 7.8408003e+00 
-3.9968675e-01 7.1544099e-01 7.8301563e+00 
1.0353845e-01 -1.0025046e-01 7.8485503e+00 
-2.3605663e-01 9.4442123e-01 7.8281598e+00 
1.8427204e-01 -9.1846883e-01 7.8803320e+00 
5.7183933e-01 3.4850723e-01 7.8390226e+00 
-4.3416193e-01 5.7853842e-03 7.8316283e+00 
-5.0592351e-01 8.2142627e-01 7.8097935e+00 
-1.9189593e-01 -4.6927086e-01 7.8345156e+00 
-2.0900995e-01 -5.8814760e-02 7.8194346e+00 
1.0144155e+00 -1.3191375e+00 7.9023008e+00 
8.9859110e-01 -1.4172723e+00 7.8972220e+00 
5.8167350e-01 -9.7556031e-01 7.8551769e+00 
-1.7180134e-01 -2.9414871e-01 7.7775064e+00 
-3.4963611e-01 9.6264744e-01 7.7506442e+00 
1.0970267e-02 7.0502669e-01 7.7460861e+00 
-3.1050879e-01 8.4254873e-01 7.7425609e+00 
1.4869119e-01 5.9698713e-01 7.7484069e+00 
9.5974553e-01 -1.1253511e+00 7.8220644e+00 
-3.5322571e-01 3.5486957e-01 7.7405543e+00 
-1.1215981e-01 5.2578032e-01 7.7380619e+00 
-3.6846560e-01 -1.7601302e-01 7.7502809e+00 
-1.2256702e-01 2.4339516e-01 7.7380118e+00 
4.5441753e-01 5.4561198e-01 7.7339988e+00 
-4.9350703e-01 1.9159867e-01 7.7279801e+00 
6.8386352e-01 9.0084806e-02 7.7395577e+00 
2.6414481e-01 3.8931704e-01 7.7218089e+00 
7.1710199e-01 -7.0457369e-01 7.7669730e+00 
4.0847543e-01 1.7975529e-01 7.7255974e+00 
2.9054761e-01 7.0569062e-01 7.7150435e+00 
7.7261949e-01 -2.6169920e-01 7.7443657e+00 
6.7525315e-01 -1.3115906e+00 7.7906575e+00 
1.5172465e-01 7.9627270e-01 7.7021761e+00 
-1.6332580e-01 7.3573172e-01 7.6972003e+00 
1.0699875e+00 -1.4671717e+00 7.8013773e+00 
4.5877653e-03 8.6907440e-01 7.6893091e+00 
-5.3166842e-01 7.4000180e-01 7.6835279e+00 
-5.4380721e-01 5.6889194e-01 7.6848578e+00 
-5.2861863e-01 3.7383583e-01 7.6837440e+00 
-1.4824876e-01 9.2284775e-01 7.6764426e+00 
-3.0138132e-01 9.6009880e-01 7.6635766e+00 
-3.4898430e-01 6.6948819e-01 7.6515026e+00 
5.2028185e-01 -1.1027553e-01 7.6571784e+00 
-3.8313788e-01 4.8566160e-01 7.6219974e+00 
5.8211768e-01 3.5247004e-01 7.6337342e+00 
-4.5430019e-01 1.3517181e-02 7.6257439e+00 
4.5646202e-02 4.5758557e-01 7.6145492e+00 
-3.1702393e-01 1.7861538e-01 7.6138806e+00 
9.9807966e-01 -1.3039554e+00 7.7007008e+00 
2.0992911e-01 5.8848643e-01 7.6065006e+00 
-4.1996703e-02 6.7327470e-01 7.6012568e+00 
1.4746410e-01 -5.8276874e-01 7.6345925e+00 
8.7338060e-01 -1.4049402e+00 7.6955867e+00 
8.8288322e-02 6.6948205e-01 7.5936189e+00 
4.0422496e-01 -8.2065749e-01 7.6311684e+00 
-2.6241571e-01 8.3131862e-01 7.5782847e+00 
-1.2830456e-01 -1.8943220e-01 7.5899863e+00 
2.2589765e-01 -1.6948617e-01 7.5907059e+00 
8.3885616e-01 -1.1948242e+00 7.6517596e+00 
6.8361282e-01 -9.9006647e-01 7.6276774e+00 
4.3685564e-01 -1.1644471e+00 7.6273546e+00 
3.6736971e-01 6.5096241e-01 7.5633187e+00 
-4.3317997e-01 9.4552338e-01 7.5521541e+00 
-1.6686283e-01 5.1094848e-01 7.5510235e+00 
4.9464563e-01 -4.7760025e-01 7.5870061e+00 
2.3516299e-01 7.5256979e-01 7.5504532e+00 
-2.6531583e-02 1.0742438e-01 7.5545120e+00 
9.1456585e-02 8.3468258e-01 7.5375881e+00 
-5.4477859e-01 6.7412263e-01 7.5251637e+00 
-5.9513923e-02 8.9815533e-01 7.5247235e+00 
-5.4581553e-01 4.7759828e-01 7.5240583e+00 
9.4255441e-01 -1.0735013e+00 7.6003265e+00 
4.6515691e-01 5.4883844e-01 7.5285597e+00 
-5.0946683e-01 1.9974524e-01 7.5219512e+00 
-2.1420784e-01 9.4200683e-01 7.5118589e+00 
6.9365829e-01 9.5137358e-02 7.5342445e+00 
-3.7968180e-01 -2.0213155e-01 7.5239158e+00 
6.4851695e-01 -1.3032050e+00 7.5889287e+00 
1.0457190e+00 -1.4500350e+00 7.5996165e+00 
2.8834325e-01 5.2756113e-01 7.4951429e+00 
8.8830048e-01 -7.6905316e-01 7.5004778e+00 
4.3122062e-01 3.6843368e-01 7.4470840e+00 
1.2577552e-01 -9.1196603e-01 7.4804401e+00 
3.5696931e-02 7.0407039e-01 7.4295268e+00 
-3.8697287e-01 6.5506679e-01 7.4216118e+00 
-9.8509364e-02 7.6125056e-01 7.4182172e+00 
-3.9370659e-01 4.8854840e-01 7.4126668e+00 
5.9267437e-01 3.5672188e-01 7.4282527e+00 
-4.7480437e-01 2.1530265e-02 7.4196320e+00 
9.8156869e-01 -1.2880043e+00 7.4988708e+00 
1.3780501e-01 2.9553548e-01 7.4084044e+00 
8.4774357e-01 -1.3918895e+00 7.4937210e+00 
3.8944405e-01 4.9140032e-02 7.4159608e+00 
3.4608945e-01 6.7938817e-01 7.4046087e+00 
-2.4947488e-01 -4.5885798e-01 7.4227362e+00 
-2.5320444e-01 -5.1196262e-02 7.4064136e+00 
-3.5236993e-01 2.8988388e-01 7.3875017e+00 
1.7711948e-01 7.9557747e-01 7.3858647e+00 
7.6356953e-01 -1.1992530e+00 7.4539819e+00 
2.9047944e-02 8.6877346e-01 7.3730021e+00 
-1.0471870e-01 5.5051899e-01 7.3705440e+00 
-5.2725863e-01 7.7489483e-01 7.3654618e+00 
-5.5437469e-01 5.8150917e-01 7.3643641e+00 
-1.2509784e-01 9.2210913e-01 7.3601394e+00 
-5.4724085e-01 3.8916472e-01 7.3632669e+00 
-2.7686954e-01 9.5700055e-01 7.3529978e+00 
5.1670350e-02 -3.7442976e-01 7.3769207e+00 
1.6695686e-01 6.1225665e-01 7.3527021e+00 
-2.2576325e-01 -2.8730559e-01 7.3652420e+00 
1.2916534e-02 -1.3127236e-01 7.3410311e+00 
-4.1724837e-01 -1.6166523e-01 7.3381605e+00 
9.3405849e-01 -1.0589819e+00 7.3984437e+00 
7.8214610e-01 -2.2566129e-01 7.3557992e+00 
4.7616163e-01 5.5229628e-01 7.3229251e+00 
-5.2570868e-01 2.0815809e-01 7.3156915e+00 
5.6260115e-01 -9.7259635e-01 7.3712120e+00 
6.2131464e-01 -1.2942382e+00 7.3869667e+00 
7.0373499e-01 1.0053033e-01 7.3287363e+00 
-2.2939539e-01 8.0235189e-01 7.3000855e+00 
2.9826039e-01 5.2542478e-01 7.3090582e+00 
3.6197355e-01 -6.4493942e-01 7.3428226e+00 
1.0210696e+00 -1.4320699e+00 7.3976226e+00 
-2.1697810e-02 7.2075593e-01 7.2412524e+00 
-2.1696869e-02 -5.5295813e-01 7.2696867e+00 
2.6114610e-01 7.5156230e-01 7.2341394e+00 
3.9166680e-01 6.5021324e-01 7.2323103e+00 
1.1673138e-01 8.3457214e-01 7.2212787e+00 
3.2416451e-01 -2.1727754e-01 7.2434850e+00 
-3.5378188e-02 8.9807469e-01 7.2084179e+00 
-5.5081284e-01 6.8474746e-01 7.2046618e+00 
6.0349882e-01 3.6125124e-01 7.2225733e+00 
9.6489251e-01 -1.2713131e+00 7.2968030e+00 
-5.5868435e-01 4.3964908e-01 7.2062631e+00 
-4.9566102e-01 2.9813210e-02 7.2132869e+00 
7.5765841e-02 4.5895913e-01 7.2068629e+00 
-2.8117993e-01 4.5505354e-01 7.2009783e+00 
8.2169372e-01 -1.3781472e+00 7.2916174e+00 
-1.9172034e-01 9.4072533e-01 7.1955571e+00 
-3.5115758e-01 1.8719746e-01 7.2006216e+00 
1.0648000e-01 1.5267101e-01 7.1983328e+00 
8.6672193e-01 -6.0950774e-01 7.2356057e+00 
8.0736476e-01 -1.1624947e+00 7.2481847e+00 
2.5177285e-01 5.8433026e-01 7.1735668e+00 
1.2235989e-01 6.6851401e-01 7.1667809e+00 
5.3746915e-01 -1.2097848e-01 7.1752772e+00 
-4.3269831e-01 9.4269341e-01 7.1452785e+00 
-4.0671262e-01 6.8257916e-01 7.1429076e+00 
9.1698515e-01 -9.7022659e-01 7.2016644e+00 
-2.6518017e-01 7.9579246e-01 7.1142721e+00 
3.0696407e-01 3.5665318e-01 7.1238017e+00 
-6.9393612e-02 5.1791501e-01 7.1153393e+00 
3.7125152e-01 -1.1504780e+00 7.1780758e+00 
4.8742113e-01 5.5597603e-01 7.1170902e+00 
5.9369123e-01 -1.2847294e+00 7.1846766e+00 
-5.4222184e-01 2.1682672e-01 7.1091962e+00 
7.1407509e-01 1.0628767e-01 7.1229692e+00 
-4.3071526e-01 -1.8754323e-01 7.1112261e+00 
9.9605256e-01 -1.4133080e+00 7.1953869e+00 
4.4125196e-01 1.9495155e-01 7.1079173e+00 
-2.9457435e-01 2.3715625e-02 7.0939188e+00 
-1.8028872e-01 2.8375635e-01 7.0812335e+00 
3.6256149e-01 6.8560863e-01 7.0827885e+00 
2.0310976e-01 7.9536486e-01 7.0695529e+00 
5.4092109e-02 8.6908513e-01 7.0566940e+00 
-5.2885008e-01 7.8287387e-01 7.0449514e+00 
-1.0141916e-01 9.2209953e-01 7.0438352e+00 
-5.6473315e-01 5.9425932e-01 7.0438704e+00 
-5.6593370e-01 4.0483817e-01 7.0427899e+00 
-2.3887113e-01 9.5197988e-01 7.0336061e+00 
2.7893128e-02 -2.9771075e-01 7.0460138e+00 
-3.8758555e-01 8.8580656e-01 7.0179276e+00 
9.4807863e-01 -1.2539983e+00 7.0945406e+00 
6.1454326e-01 3.6611205e-01 7.0167255e+00 
7.9534286e-01 -1.3637711e+00 7.0893211e+00 
-5.1687372e-01 3.8442861e-02 7.0067544e+00 
-6.5101378e-02 7.6079714e-01 6.9911566e+00 
7.9768580e-01 -2.1964495e-01 7.0241971e+00 
-3.0929998e-01 -4.4708446e-01 7.0091190e+00 
-4.1442782e-01 5.0089300e-01 6.9805264e+00 
4.5607451e-01 -6.4919025e-01 7.0152783e+00 
3.2251871e-01 5.2700758e-01 6.9788160e+00 
1.3882168e-01 6.6838521e-01 6.9605193e+00 
-1.8198679e-01 -1.8807648e-01 6.9681282e+00 
-4.0663037e-01 7.2612590e-01 6.9492588e+00 
-2.5588223e-01 8.2797271e-01 6.9396343e+00 
5.0935620e-01 -4.1066104e-01 6.9729900e+00 
1.2169003e-01 3.2144868e-01 6.9428411e+00 
2.2071767e-01 -9.0561265e-01 6.9778991e+00 
9.1722620e-01 -1.0288054e+00 6.9935536e+00 
-2.1791451e-01 5.8882356e-01 6.9171886e+00 
2.8769279e-01 7.5093371e-01 6.9178252e+00 
-5.0718993e-01 8.3419335e-01 6.9098306e+00 
-3.0371287e-01 9.6119791e-01 6.9041028e+00 
7.2176558e-01 -1.1588893e+00 6.9821544e+00 
1.6778271e-01 -2.2440530e-02 6.9191408e+00 
5.6626588e-01 -1.2749881e+00 6.9819388e+00 
1.4259514e-01 8.3498734e-01 6.9049678e+00 
4.9892101e-01 5.5986667e-01 6.9111199e+00 
-5.5898744e-01 2.2573608e-01 6.9025617e+00 
9.7069365e-01 -1.3937912e+00 6.9930029e+00 
-1.0662489e-02 8.9865214e-01 6.8921108e+00 
7.2461623e-01 1.1256416e-01 6.9169874e+00 
-4.5703933e-01 -1.7940594e-01 6.9044161e+00 
1.6214681e-01 -5.8664757e-01 6.9233522e+00 
4.5278749e-01 2.0073467e-01 6.9017320e+00 
-5.5651957e-01 6.9533831e-01 6.8841596e+00 
-5.7505333e-01 5.0635171e-01 6.8830872e+00 
5.0830865e-01 -9.8465776e-01 6.9415569e+00 
-1.6862904e-01 9.4044775e-01 6.8792543e+00 
7.3473591e-01 -8.9649779e-01 6.9399872e+00 
-4.7651854e-01 3.3333978e-01 6.8655291e+00 
-2.4281961e-01 3.8081053e-01 6.8614988e+00 
8.8708812e-01 -7.2975218e-01 6.8922315e+00 
-1.2163231e-01 7.8230184e-01 6.8272839e+00 
3.7069514e-02 -9.0516734e-01 6.8583651e+00 
4.1561797e-02 4.7883102e-01 6.8117514e+00 
5.6378073e-01 -8.5230730e-02 6.8318071e+00 
9.3118334e-01 -1.2364091e+00 6.8923588e+00 
3.7355590e-01 4.8217201e-01 6.8099222e+00 
7.6907766e-01 -1.3488923e+00 6.8871174e+00 
8.6608700e-02 7.0384192e-01 6.7964411e+00 
6.2574577e-01 3.7137434e-01 6.8108163e+00 
-5.3843862e-01 4.7564842e-02 6.8002224e+00 
-4.0415055e-01 6.6119397e-01 6.7803020e+00 
-4.2531940e-01 5.0340438e-01 6.7713985e+00 
-3.0972928e-01 -3.2431148e-02 6.7701015e+00 
3.6930090e-01 7.0034057e-01 6.7660952e+00 
-4.3221286e-01 9.3984091e-01 6.7503271e+00 
2.2967677e-01 7.9558742e-01 6.7532396e+00 
7.9716161e-02 8.6996931e-01 6.7403846e+00 
-8.1324121e-03 6.0837817e-01 6.7316723e+00 
-7.7193275e-02 9.2279255e-01 6.7275300e+00 
-5.3008693e-01 7.9067326e-01 6.7244406e+00 
-5.7484686e-01 6.0710138e-01 6.7233768e+00 
-5.8465147e-01 4.2081317e-01 6.7223129e+00 
9.0890956e-01 -1.0136085e+00 6.7915893e+00 
-2.3592445e-01 9.5413572e-01 6.7146759e+00 
-3.0020165e-01 -2.8899840e-01 6.7278171e+00 
4.2863470e-01 -4.3106019e-01 6.7409420e+00 
7.0422518e-01 -1.1458768e+00 6.7798195e+00 
5.3891563e-01 -1.2649139e+00 6.7799263e+00 
2.0508294e-01 2.3688012e-01 6.7108731e+00 
9.4506621e-01 -1.3735999e+00 6.7909303e+00 
5.1064146e-01 5.6395531e-01 6.7051654e+00 
2.2342601e-01 6.2855023e-01 6.6970768e+00 
-5.7597047e-01 2.3486231e-01 6.6960707e+00 
7.3530120e-01 1.1942862e-01 6.7111511e+00 
-3.0499808e-02 -1.4018482e-01 6.6947126e+00 
-3.8753343e-01 1.3790539e-01 6.6797867e+00 
-1.7993423e-01 7.9961717e-01 6.6641021e+00 
3.1078774e-01 -1.1393920e+00 6.7291522e+00 
-8.5222706e-02 1.3530862e-01 6.6734715e+00 
-4.9903098e-01 -1.3535489e-01 6.6772041e+00 
7.1893239e-01 -1.0041255e+00 6.7181597e+00 
3.8129398e-01 -7.9781556e-01 6.6961188e+00 
-1.6787618e-01 4.0586990e-01 6.6493936e+00 
-2.9434386e-01 5.5377823e-01 6.6432400e+00 
-8.4344722e-02 -5.3702152e-01 6.6633630e+00 
-4.0690476e-01 7.2655666e-01 6.6195588e+00 
9.1415763e-01 -1.2182131e+00 6.6904845e+00 
4.4598043e-01 6.4276898e-01 6.6143632e+00 
-4.3721303e-01 3.3468115e-01 6.6072788e+00 
7.4252623e-01 -1.3334258e+00 6.6852212e+00 
8.0664366e-01 -1.6635856e-01 6.6324201e+00 
3.1477311e-01 7.5063092e-01 6.6015096e+00 
1.7839314e-01 4.1916388e-01 6.5991817e+00 
3.9164108e-01 4.9946716e-01 6.5984626e+00 
6.3716996e-01 3.7687367e-01 6.6049228e+00 
1.6903380e-01 8.3588207e-01 6.5886564e+00 
-5.6025672e-01 5.6907400e-02 6.5938325e+00 
2.8453311e-01 -9.8889142e-02 6.5990438e+00 
5.1725227e-01 1.4359125e-01 6.5967002e+00 
1.4626040e-02 8.9985079e-01 6.5758038e+00 
-3.7186557e-01 -4.3237361e-01 6.5958376e+00 
-5.0756407e-01 8.3838552e-01 6.5635872e+00 
-5.6187803e-01 7.0586008e-01 6.5636573e+00 
-1.4496414e-01 9.4105250e-01 6.5629511e+00 
-3.0374980e-01 9.6140856e-01 6.5500989e+00 
-5.9114373e-01 5.0603217e-01 6.5506296e+00 
2.9408267e-01 5.8464867e-01 6.5441108e+00 
4.1799892e-02 7.3537004e-01 6.5216684e+00 
5.1125640e-01 -1.2543392e+00 6.5782180e+00 
7.3274177e-01 1.6662510e-01 6.5253825e+00 
-2.7327803e-01 -5.9261385e-02 6.5079432e+00 
9.1918617e-01 -1.3527716e+00 6.5891619e+00 
9.0023488e-01 -1.0309954e+00 6.5697279e+00 
5.2257091e-01 5.6823152e-01 6.4992270e+00 
-1.6927263e-01 2.9968369e-01 6.4894686e+00 
-5.9315878e-01 2.4419346e-01 6.4897194e+00 
5.2099878e-01 -9.1641229e-01 6.5399151e+00 
-5.1075804e-01 -1.6191162e-01 6.4917173e+00 
7.7825552e-01 -8.5878873e-01 6.5314789e+00 
-4.0774384e-01 1.4290032e-01 6.4730535e+00 
-4.1276476e-01 6.6390556e-01 6.4596276e+00 
-1.6283554e-01 7.9895222e-01 6.4573407e+00 
5.8676499e-01 -6.7315930e-01 6.5041289e+00 
-4.4371465e-01 5.0456852e-01 6.4438767e+00 
3.9655998e-01 6.9911641e-01 6.4497771e+00 
2.5679773e-01 7.9619592e-01 6.4369259e+00 
8.8723236e-01 -7.0347255e-01 6.4890890e+00 
-2.6185554e-01 -3.5115132e-01 6.4511108e+00 
1.0591111e-01 8.7138170e-01 6.4240751e+00 
7.2788250e-01 -1.0709789e+00 6.4897356e+00 
2.4887905e-01 -5.8184028e-01 6.4490371e+00 
-2.0615458e-02 -9.0051949e-01 6.4592628e+00 
-5.2403901e-02 9.2415851e-01 6.4112244e+00 
-5.3096122e-01 7.9826862e-01 6.4039292e+00 
8.9701176e-01 -1.1994447e+00 6.4889102e+00 
-5.8468258e-01 6.1999542e-01 6.4028826e+00 
-2.1321289e-01 9.5385456e-01 6.3983736e+00 
7.1570534e-01 -1.3174032e+00 6.4836254e+00 
-6.0401750e-01 4.3341011e-01 6.3937707e+00 
-2.2225553e-01 5.9377468e-01 6.3899117e+00 
4.0868601e-01 5.0048470e-01 6.3953495e+00 
6.4880413e-01 3.8259736e-01 6.3990450e+00 
-5.8231235e-01 6.6457644e-02 6.3875809e+00 
-6.0385443e-02 -3.4185642e-01 6.4004116e+00 
-4.3173739e-01 9.3704724e-01 6.3755827e+00 
2.4950698e-01 6.2863570e-01 6.3802285e+00 
3.1980965e-01 1.7466214e-01 6.3870926e+00 
5.5193830e-01 -3.3063829e-02 6.3952613e+00 
-4.3005863e-01 3.1302762e-01 6.3745770e+00 
5.1070470e-01 -3.3545488e-01 6.3926954e+00 
-1.3793889e-02 7.6193672e-01 6.3576703e+00 
-3.8263503e-01 -7.1390107e-02 6.3620214e+00 
9.8303422e-02 -1.7641672e-01 6.3630939e+00 
8.9226967e-01 -9.8161960e-01 6.3885660e+00 
8.9306909e-01 -1.3313437e+00 6.3876905e+00 
-4.0826520e-01 7.2639525e-01 6.2926030e+00 
5.1363617e-01 -1.2549785e+00 6.3576250e+00 
5.3469789e-01 5.7268506e-01 6.2933040e+00 
3.4235668e-01 7.5060296e-01 6.2851934e+00 
-6.1054033e-01 2.5371763e-01 6.2835059e+00 
7.5734818e-01 1.3392034e-01 6.2995267e+00 
-4.5483179e-02 5.6281817e-01 6.2731109e+00 
1.9602902e-01 8.3720785e-01 6.2723441e+00 
1.6204341e-01 4.5465967e-01 6.2683835e+00 
-4.2822701e-01 1.4804190e-01 6.2664628e+00 
4.0476132e-02 9.0162933e-01 6.2594953e+00 
6.7350990e-01 -9.1068411e-01 6.3180594e+00 
-5.5190337e-01 -1.1712494e-01 6.2647977e+00 
-1.2074898e-01 9.4243199e-01 6.2466464e+00 
-5.6686854e-01 7.1627915e-01 6.2431545e+00 
-6.0376585e-01 5.3587002e-01 6.2421165e+00 
-1.5063767e-01 6.5944090e-02 6.2507324e+00 
-2.4451649e-01 4.9501052e-01 6.2391000e+00 
-2.0254631e-01 2.7769142e-01 6.2415886e+00 
-2.8133938e-01 9.6129566e-01 6.2337985e+00 
4.3803459e-01 -1.0333431e+00 6.2889614e+00 
-5.0771159e-01 8.4240919e-01 6.2251039e+00 
3.6923447e-01 5.5352533e-01 6.2305498e+00 
-7.9549581e-02 7.6609248e-01 6.2207661e+00 
2.0077407e-01 6.6935951e-01 6.2163920e+00 
2.2153640e-01 -1.1097591e+00 6.2682691e+00 
8.7975580e-01 -1.1801375e+00 6.2876296e+00 
-3.8183130e-02 -6.5459913e-01 6.2400541e+00 
6.8186648e-02 7.3656589e-01 6.2049308e+00 
6.8863159e-01 -1.3008558e+00 6.2823229e+00 
-2.1840727e-01 8.0810761e-01 6.1811938e+00 
6.6063678e-01 3.8853264e-01 6.1931825e+00 
-6.0459000e-01 7.6202758e-02 6.1814651e+00 
5.4145902e-01 1.5769862e-01 6.1846409e+00 
-3.9397880e-01 -2.5592750e-01 6.1819143e+00 
8.3454758e-01 -1.8483829e-01 6.2007961e+00 
-4.3570390e-01 -4.1667917e-01 6.1836634e+00 
2.7906975e-01 -8.0196768e-01 6.2051916e+00 
1.7154665e-01 -2.1914367e-01 6.1709027e+00 
-4.0087470e-01 -2.2233278e-02 6.1569104e+00 
-4.2139140e-01 6.6639131e-01 6.1389437e+00 
5.7577693e-01 -6.4302242e-01 6.1778288e+00 
2.1914348e-01 1.3328323e-01 6.1438875e+00 
-1.4618547e-01 -1.3323255e-01 6.1443191e+00 
-4.4780681e-01 3.3292478e-01 6.1315298e+00 
4.2427051e-01 6.9811696e-01 6.1334586e+00 
6.9007546e-01 -5.5755083e-02 6.1450758e+00 
2.8444603e-01 7.9713929e-01 6.1206112e+00 
3.8268402e-01 -1.0498404e-01 6.1363163e+00 
1.3266329e-01 8.7327498e-01 6.1077642e+00 
4.5508286e-01 -1.2317897e+00 6.1756840e+00 
-1.3635738e-01 -3.4339815e-01 6.1242762e+00 
6.6508955e-01 -1.0886319e+00 6.1700993e+00 
8.6673051e-01 -1.3093526e+00 6.1865091e+00 
8.8107163e-01 -9.9709660e-01 6.1673303e+00 
-2.7040116e-02 9.2616051e-01 6.0949173e+00 
7.5532562e-01 1.8109637e-01 6.1137605e+00 
-5.3146595e-01 8.0563682e-01 6.0834174e+00 
-3.2702821e-01 6.5078121e-01 6.0841370e+00 
-5.9420872e-01 6.3290268e-01 6.0823884e+00 
-6.2198412e-01 4.5349920e-01 6.0813594e+00 
-1.0911620e-01 5.8137161e-01 6.0773273e+00 
-2.0282398e-01 9.5613378e-01 6.0737720e+00 
5.4701084e-01 5.7730550e-01 6.0873952e+00 
-6.2810302e-01 2.6342300e-01 6.0774260e+00 
-5.6555116e-01 -1.4358301e-01 6.0795670e+00 
4.6701327e-01 3.5039303e-01 6.0769033e+00 
2.7598426e-01 6.2904775e-01 6.0634170e+00 
2.4621588e-01 -4.8124292e-01 6.0868239e+00 
2.8697443e-01 4.0693960e-01 6.0560131e+00 
1.2509492e-02 7.6339358e-01 6.0409408e+00 
8.8778335e-01 -6.7534286e-01 6.0871205e+00 
-1.3271599e-01 7.9660207e-01 6.0268598e+00 
-2.9217711e-01 7.9571503e-01 6.0238986e+00 
-4.3127349e-01 9.3432134e-01 6.0194321e+00 
-4.6052215e-01 5.1758730e-01 6.0160885e+00 
6.8445748e-01 -8.7250650e-01 6.0697560e+00 
-8.2708567e-02 -8.9275414e-01 6.0539594e+00 
8.6239988e-01 -1.1603252e+00 6.0866342e+00 
6.6132122e-01 -1.2838148e+00 6.0813060e+00 
4.4383934e-01 5.7351023e-01 5.9886570e+00 
4.4764420e-01 -1.0197836e+00 6.0288577e+00 
6.7265618e-01 3.9466682e-01 5.9873343e+00 
-6.2707418e-01 8.6129993e-02 5.9754815e+00 
3.7041169e-01 7.5080109e-01 5.9688759e+00 
2.2355850e-01 8.3891416e-01 5.9560308e+00 
6.6881135e-02 9.0394223e-01 5.9431858e+00 
-5.6730396e-01 7.3610729e-01 5.9386101e+00 
-2.9818928e-01 3.5951319e-01 5.9388652e+00 
-3.5068056e-01 -1.5803418e-01 5.9479961e+00 
-9.5989086e-02 9.4451582e-01 5.9303412e+00 
-5.3861982e-01 3.5278061e-01 5.9293771e+00 
7.0136344e-01 -1.1812097e+00 6.0003691e+00 
-2.5869590e-01 9.6163481e-01 5.9174972e+00 
8.7565255e-01 -9.4770348e-01 5.9867001e+00 
-6.2060761e-01 5.3665853e-01 5.9161010e+00 
5.8780324e-01 -4.6599868e-01 5.9516888e+00 
-5.3876426e-02 2.3496923e-01 5.9152331e+00 
8.4018552e-01 -1.2868351e+00 5.9856095e+00 
-3.9046118e-01 8.7633586e-01 5.8927627e+00 
3.8044417e-01 -1.8292616e-01 5.9096866e+00 
4.5719662e-01 -1.2299552e+00 5.9557076e+00 
4.6737632e-01 2.7555278e-01 5.8918738e+00 
-3.7077945e-01 6.8847638e-01 5.8698072e+00 
5.5949831e-01 5.8208251e-01 5.8815007e+00 
-6.4583486e-01 2.7329776e-01 5.8714767e+00 
1.4289854e-01 4.6793562e-01 5.8690901e+00 
7.8019053e-01 1.4941901e-01 5.8879619e+00 
6.9445133e-01 -9.0117574e-01 5.9122624e+00 
1.6631001e-01 7.0712465e-01 5.8469043e+00 
-1.0175284e-02 -1.8184565e-01 5.8591819e+00 
-6.0574615e-01 -9.8123319e-02 5.8529258e+00 
-4.5399240e-01 5.9842646e-02 5.8484545e+00 
-2.4690655e-01 8.3685023e-01 5.8284011e+00 
-1.1158875e-01 8.0068779e-01 5.8247418e+00 
4.7068396e-01 -1.0057337e+00 5.8807702e+00 
8.4495419e-01 -1.1400408e+00 5.8859167e+00 
1.6238298e-01 -1.0958290e+00 5.8667016e+00 
-4.7489163e-01 5.1800424e-01 5.8084874e+00 
6.3379043e-01 -1.2663110e+00 5.8805666e+00 
-3.0380839e-01 9.6148634e-01 5.7968640e+00 
3.1259027e-01 7.9836386e-01 5.8042955e+00 
1.8945779e-01 -8.9640105e-01 5.8467622e+00 
1.5995482e-01 8.7559903e-01 5.7914524e+00 
4.4942895e-01 7.0139599e-01 5.7965703e+00 
-1.0983691e-03 9.2875433e-01 5.7786098e+00 
-3.5650637e-02 5.5213428e-01 5.7703414e+00 
-1.6585895e-01 9.5643938e-01 5.7657671e+00 
4.1046020e-01 5.0891197e-01 5.7746611e+00 
-5.3159523e-01 8.1275600e-01 5.7629046e+00 
6.8485081e-01 4.0098718e-01 5.7814999e+00 
-6.0339552e-01 6.4578539e-01 5.7618937e+00 
-6.4134991e-01 4.6338320e-01 5.7632542e+00 
-6.4974964e-01 9.6226677e-02 5.7696271e+00 
8.5395974e-01 -1.6556227e-01 5.7894306e+00 
-5.0064105e-01 -4.0022528e-01 5.7720194e+00 
-4.8199204e-01 2.2225943e-01 5.7542734e+00 
5.7006162e-01 -3.8973934e-03 5.7709694e+00 
-2.4965607e-01 5.3820032e-01 5.7382069e+00 
3.0596036e-01 6.3684791e-01 5.7403412e+00 
6.8288738e-01 -1.1497709e+00 5.8007426e+00 
3.9225824e-02 7.6539296e-01 5.7242241e+00 
2.3445888e-01 2.9923600e-01 5.7200480e+00 
-3.4001148e-01 -1.7235476e-01 5.7221336e+00 
-2.3273201e-01 1.3192426e-01 5.7147412e+00 
3.9788684e-01 -1.2075424e+00 5.7742758e+00 
5.1959461e-01 -7.8617203e-01 5.7543244e+00 
-1.6691124e-01 -4.8738423e-01 5.7301650e+00 
8.1344920e-01 -1.2638267e+00 5.7849836e+00 
-4.3153670e-01 6.7216325e-01 5.6991482e+00 
8.6189616e-01 -9.6138179e-01 5.7660556e+00 
-2.3989388e-01 8.0390638e-01 5.6895795e+00 
-4.3082213e-01 9.3166924e-01 5.6804276e+00 
6.3606066e-01 -2.0399262e-01 5.7100816e+00 
7.7561784e-01 -7.7372301e-01 5.7284608e+00 
5.7214868e-01 5.8700591e-01 5.6756196e+00 
-6.6372401e-01 2.8333020e-01 5.6656547e+00 
7.9188174e-01 1.5750004e-01 5.6822000e+00 
-6.2126726e-01 -1.2452762e-01 5.6679392e+00 
4.9332485e-01 3.6213157e-01 5.6648574e+00 
3.9890447e-01 7.5117821e-01 5.6525578e+00 
2.5159612e-01 8.4094882e-01 5.6397166e+00 
2.2607923e-01 -2.9569179e-02 5.6517177e+00 
-5.1142788e-01 3.7098178e-01 5.6370745e+00 
8.8873619e-01 -6.4556623e-01 5.6862640e+00 
1.8445347e-01 -4.2105103e-01 5.6592793e+00 
6.8794382e-01 -9.6778864e-01 5.6898170e+00 
9.3828030e-02 9.0674078e-01 5.6268759e+00 
-7.0680775e-02 9.4725329e-01 5.6140351e+00 
-1.4305152e-01 -8.8602400e-01 5.6548572e+00 
8.2742882e-01 -1.1193171e+00 5.6854687e+00 
6.0605508e-01 -1.2483754e+00 5.6800966e+00 
-5.7567513e-01 7.3668098e-01 5.6021471e+00 
-2.3564889e-01 9.6271199e-01 5.6011949e+00 
-6.3164663e-01 5.6583160e-01 5.6011453e+00 
6.4773262e-01 -5.4201871e-01 5.6426125e+00 
4.1352493e-01 -3.5307828e-01 5.6296186e+00 
-4.7223088e-01 2.8577175e-02 5.6058369e+00 
-3.7288108e-01 8.7224579e-01 5.5810294e+00 
-1.1195003e-01 6.5932310e-01 5.5819712e+00 
-2.4830648e-01 4.0177420e-01 5.5715570e+00 
5.6579720e-02 2.1590598e-01 5.5744123e+00 
-3.3636159e-01 6.7609656e-01 5.5625024e+00 
-1.8038906e-02 7.8732383e-01 5.5603704e+00 
6.9720894e-01 4.0748104e-01 5.5756788e+00 
-6.7260122e-01 1.0648023e-01 5.5638981e+00 
5.6756610e-01 1.6287969e-01 5.5635257e+00 
-4.6381477e-01 6.0701495e-01 5.5384712e+00 
3.1988245e-01 6.3063878e-01 5.5426292e+00 
4.4545734e-01 -9.5686853e-01 5.5913229e+00 
6.6476703e-01 -1.1178024e+00 5.6013832e+00 
1.9365819e-01 7.0901155e-01 5.5304222e+00 
2.6577184e-01 -6.6577071e-01 5.5608091e+00 
8.5909784e-01 -9.1209602e-01 5.5859284e+00 
-2.2490026e-01 8.3327967e-01 5.5098114e+00 
7.8653634e-01 -1.2403631e+00 5.5846233e+00 
4.8092702e-01 6.9665575e-01 5.5008183e+00 
3.9982662e-01 -1.2033169e+00 5.5548806e+00 
3.4119380e-01 7.9981279e-01 5.4879789e+00 
-2.8963602e-01 9.6249694e-01 5.4746490e+00 
-7.7108920e-02 -2.2406383e-01 5.4936461e+00 
-5.0131834e-01 3.4866118e-01 5.4762812e+00 
-7.5922161e-02 -7.8714806e-01 5.5114079e+00 
1.8776371e-01 8.7830180e-01 5.4751396e+00 
1.5567592e-01 4.9782541e-01 5.4764533e+00 
-2.4219333e-01 8.4596120e-02 5.4786172e+00 
7.0634967e-01 -9.2181528e-01 5.5254269e+00 
2.5405727e-02 9.3189234e-01 5.4623008e+00 
5.8495063e-01 5.9206527e-01 5.4697514e+00 
-6.8175852e-01 2.9350868e-01 5.4599566e+00 
8.0373323e-01 1.6579463e-01 5.4764509e+00 
-1.4127116e-01 9.5908338e-01 5.4494624e+00 
-5.3134394e-01 8.1960529e-01 5.4423914e+00 
-6.1221480e-01 6.5860671e-01 5.4413986e+00 
-6.5889418e-01 4.8689219e-01 5.4404058e+00 
-6.6041321e-01 -7.8456163e-02 5.4415617e+00 
-5.0178999e-01 7.1919411e-02 5.4362559e+00 
8.7048739e-01 -1.5455431e-01 5.4637413e+00 
4.0328252e-01 5.6888491e-01 5.4325647e+00 
8.2426643e-01 -7.0062846e-01 5.4753275e+00 
-4.0371627e-01 -1.4371695e-01 5.4313483e+00 
8.0983388e-01 -1.0981866e+00 5.4852819e+00 
1.0217857e-01 -1.0805584e+00 5.4662118e+00 
5.7813072e-01 -1.2300382e+00 5.4798875e+00 
3.5824519e-01 3.7234956e-01 5.3988180e+00 
7.4035829e-01 -4.2901608e-01 5.4254098e+00 
-4.9460787e-01 5.3633362e-01 5.3768387e+00 
1.8041046e-01 -1.9835910e-01 5.3950276e+00 
1.3982593e-01 7.4191052e-01 5.3665147e+00 
-4.3038395e-01 9.2909461e-01 5.3572683e+00 
-6.5511419e-04 7.8884250e-01 5.3554969e+00 
-1.4615805e-01 8.1647450e-01 5.3515396e+00 
7.0971906e-01 4.1413569e-01 5.3698702e+00 
-6.9561392e-01 1.1687809e-01 5.3582911e+00 
2.6843953e-01 6.5999377e-01 5.3493576e+00 
5.3751594e-01 -1.3425426e-01 5.3660116e+00 
-5.6650341e-01 -3.8312182e-01 5.3608785e+00 
5.8059603e-01 1.7094344e-01 5.3576088e+00 
6.4701480e-01 -1.0854372e+00 5.4022660e+00 
4.5935699e-01 7.2685343e-01 5.3431435e+00 
-3.3485574e-01 7.8555351e-01 5.3291669e+00 
2.8011239e-01 8.4325880e-01 5.3234015e+00 
3.3980578e-01 -1.1817988e+00 5.3739276e+00 
1.2129936e-01 9.0997338e-01 5.3105645e+00 
7.5946158e-01 -1.2164795e+00 5.3845205e+00 
-2.1815664e-01 9.6460032e-01 5.3054314e+00 
-1.0968246e-01 6.0514331e-01 5.3039722e+00 
8.4275520e-01 -9.2408925e-01 5.3658390e+00 
4.6023902e-02 -5.0630128e-01 5.3270135e+00 
-4.4818994e-02 9.5059973e-01 5.2977276e+00 
-5.7945907e-01 7.4660349e-01 5.2816429e+00 
-5.8874053e-01 3.9195675e-01 5.2829103e+00 
-6.4518464e-01 5.8088106e-01 5.2806592e+00 
7.7538723e-01 -7.2976828e-01 5.3288260e+00 
1.0076614e-01 6.0965210e-01 5.2757611e+00 
4.3354705e-01 -9.7292608e-01 5.3251424e+00 
-3.4462410e-01 4.1556767e-01 5.2669992e+00 
-2.7784544e-01 -4.3382496e-01 5.2748709e+00 
5.9789252e-01 5.9725034e-01 5.2638950e+00 
-6.9992667e-01 3.0382159e-01 5.2543793e+00 
4.0629989e-01 -4.6153635e-01 5.2815351e+00 
-5.1692605e-01 3.5528529e-02 5.2569022e+00 
8.1574410e-01 1.7424782e-01 5.2707148e+00 
-6.7775756e-01 -1.0485171e-01 5.2568078e+00 
4.1531241e-01 5.6807524e-01 5.2466393e+00 
8.9008993e-01 -6.1434346e-01 5.2864528e+00 
6.6902959e-01 -9.1320771e-01 5.2916131e+00 
3.6905844e-02 3.3707026e-01 5.2250729e+00 
-4.7608390e-01 6.1119848e-01 5.2179112e+00 
7.9217941e-01 -1.0766816e+00 5.2853475e+00 
-2.0374995e-01 -8.7890857e-01 5.2565985e+00 
5.5003291e-01 -1.2113297e+00 5.2799311e+00 
5.0513023e-01 -7.1489632e-01 5.2491970e+00 
1.6338110e-01 -8.0816638e-01 5.2457108e+00 
3.6553410e-01 1.5190378e-01 5.2054391e+00 
5.1078743e-01 3.9839500e-01 5.1909370e+00 
-3.1827885e-01 7.5745958e-01 5.1705074e+00 
-7.1047798e-02 7.9024923e-01 5.1675739e+00 
3.7021875e-01 8.0143094e-01 5.1716614e+00 
-1.9944514e-01 -9.6786559e-02 5.1754727e+00 
5.0853622e-01 6.9831145e-01 5.1716452e+00 
2.1606424e-01 8.8132960e-01 5.1588259e+00 
7.2236955e-01 4.2093849e-01 5.1640725e+00 
5.2447163e-02 9.3552363e-01 5.1459913e+00 
-7.1877271e-01 1.2740782e-01 5.1528034e+00 
2.7269387e-01 4.1969699e-01 5.1517296e+00 
6.2961924e-01 -1.0528094e+00 5.2033691e+00 
-1.1611659e-01 9.6247542e-01 5.1331563e+00 
-5.4171687e-01 2.3928492e-01 5.1363802e+00 
-2.8339943e-01 5.2336550e-01 5.1249566e+00 
8.4264737e-01 -8.7502962e-01 5.1861835e+00 
-5.3070790e-01 8.2616514e-01 5.1218777e+00 
-2.8288063e-01 9.6339452e-01 5.1203222e+00 
-6.2064004e-01 6.7133105e-01 5.1209030e+00 
-6.7708772e-01 5.0375336e-01 5.1199288e+00 
7.3223931e-01 -1.1922107e+00 5.1846657e+00 
7.7593759e-02 -4.2380252e-01 5.1269937e+00 
2.3149151e-01 7.1198744e-01 5.1021299e+00 
3.4165993e-01 -1.1752712e+00 5.1550770e+00 
6.0027736e-01 2.7267255e-02 5.1136899e+00 
3.1700712e-02 2.7716809e-04 5.1022587e+00 
9.3809165e-02 7.7082247e-01 5.0908289e+00 
-2.0027287e-01 8.2779264e-01 5.0748820e+00 
4.3041450e-01 5.7556015e-01 5.0786085e+00 
6.9688237e-01 -8.6421442e-01 5.1251884e+00 
-4.5493788e-01 6.5477556e-01 5.0565977e+00 
6.7436582e-01 -3.1022361e-01 5.0889292e+00 
-4.2995936e-01 9.2659962e-01 5.0487809e+00 
-7.1821672e-01 3.1425735e-01 5.0489192e+00 
6.1096305e-01 6.0255080e-01 5.0580497e+00 
3.3730721e-01 -1.7433561e-01 5.0664535e+00 
8.2788795e-01 1.8289436e-01 5.0649891e+00 
4.0352866e-01 -9.9662948e-01 5.0827065e+00 
-4.7487670e-01 -6.1620241e-01 5.0494518e+00 
8.9025384e-01 -1.3157901e-01 5.0546799e+00 
-7.1576124e-01 -5.8228441e-02 5.0306792e+00 
1.1401462e-01 5.4914415e-01 5.0218735e+00 
7.7447546e-01 -1.0548341e+00 5.0856566e+00 
-5.5039775e-01 8.4461108e-02 5.0245748e+00 
4.1071501e-02 -1.0641036e+00 5.0667315e+00 
4.7838116e-01 7.3559886e-01 5.0214753e+00 
5.2177691e-01 -1.1922798e+00 5.0802183e+00 
-5.3843307e-01 4.6647906e-01 5.0054688e+00 
3.0907455e-01 8.4578991e-01 5.0070853e+00 
1.4927354e-01 9.1358614e-01 4.9942522e+00 
-3.3153197e-01 2.3557876e-01 4.9917941e+00 
-2.0055692e-01 9.6743584e-01 4.9840918e+00 
-1.8403100e-02 9.5450658e-01 4.9814196e+00 
-8.1081428e-03 -6.4469409e-01 5.0000553e+00 
-4.2344433e-01 8.2032979e-01 4.9625998e+00 
-5.8281106e-01 7.5630248e-01 4.9611378e+00 
-5.2582890e-01 -1.8271853e-01 4.9758906e+00 
-6.5840852e-01 5.9592563e-01 4.9601727e+00 
-7.0853007e-01 4.2633784e-01 4.9592075e+00 
6.1254621e-01 -1.0200448e+00 5.0046716e+00 
-2.7672163e-01 6.7269331e-01 4.9405646e+00 
-7.4206281e-01 1.3805701e-01 4.9474311e+00 
7.3514879e-01 4.2787668e-01 4.9582858e+00 
4.2641902e-01 3.5165983e-01 4.9467835e+00 
-5.8446509e-01 3.3259469e-01 4.9371638e+00 
-6.3312006e-01 -3.6547750e-01 4.9502139e+00 
6.0711896e-01 1.8753344e-01 4.9458623e+00 
3.6104117e-02 7.9326123e-01 4.9269657e+00 
2.8097343e-01 -1.1547595e+00 4.9745712e+00 
7.0488387e-01 -1.1675909e+00 4.9850507e+00 
1.4724068e-01 2.2885759e-01 4.9197202e+00 
8.2369727e-01 -8.8545382e-01 4.9666109e+00 
-3.1145343e-01 -4.1714627e-01 4.9259667e+00 
-1.4733937e-01 3.7653214e-01 4.9037113e+00 
-5.5554938e-02 7.2754294e-02 4.9090123e+00 
2.4933362e-01 7.1369135e-01 4.8975158e+00 
-3.6244008e-01 -3.6968954e-02 4.8875008e+00 
-4.7231123e-01 6.7945182e-01 4.8684669e+00 
5.9413922e-01 -7.7200162e-01 4.9184132e+00 
3.9962664e-01 8.0316544e-01 4.8553429e+00 
-5.4183316e-01 8.1754100e-01 4.8409705e+00 
-7.3661697e-01 3.2480448e-01 4.8435726e+00 
2.4482718e-01 8.8462746e-01 4.8425117e+00 
6.2415057e-01 6.0795641e-01 4.8522143e+00 
8.9184672e-01 -5.8187306e-01 4.8876166e+00 
-7.3487598e-01 -8.4660381e-02 4.8461447e+00 
8.4016579e-01 1.9167295e-01 4.8592739e+00 
7.9997547e-02 9.3959475e-01 4.8296804e+00 
7.5673205e-01 -1.0326757e+00 4.8862009e+00 
-9.0416647e-02 9.6652073e-01 4.8168497e+00 
-2.6970735e-01 -8.6727989e-01 4.8577423e+00 
4.9337783e-01 -1.1729186e+00 4.8807402e+00 
3.2433280e-01 -5.4175526e-01 4.8434372e+00 
-2.5942746e-01 9.6614468e-01 4.8040195e+00 
-6.2864625e-01 6.8392366e-01 4.8004069e+00 
3.4833494e-01 5.8480501e-02 4.8112040e+00 
1.6711536e-01 -9.5196223e-01 4.8439846e+00 
-5.7132810e-01 1.3196892e-01 4.7979088e+00 
-7.0548421e-01 4.8968360e-01 4.7897711e+00 
-1.4213834e-02 -3.6696815e-01 4.7929401e+00 
7.3767650e-01 -3.7990704e-01 4.8050208e+00 
-2.2969831e-02 8.1006414e-01 4.7632275e+00 
6.6670418e-01 -4.5567527e-02 4.7865806e+00 
5.5786008e-01 4.7340083e-01 4.7708020e+00 
-4.2954844e-01 9.2418510e-01 4.7539043e+00 
-1.7029159e-01 8.2277256e-01 4.7530837e+00 
5.9574270e-01 -9.8725444e-01 4.8061557e+00 
1.3235407e-01 5.2980590e-01 4.7507701e+00 
-7.6546949e-01 1.4881332e-01 4.7421708e+00 
3.2596552e-01 6.6076291e-01 4.7408738e+00 
7.4804521e-01 4.3493766e-01 4.7525091e+00 
4.2703551e-01 -9.8141199e-01 4.7882566e+00 
-5.1891947e-01 5.3640401e-01 4.7301545e+00 
8.2634473e-01 -8.3673316e-01 4.7873955e+00 
-5.8997244e-01 3.2245207e-01 4.7227435e+00 
-2.8855234e-01 5.5111462e-01 4.7173972e+00 
6.7740935e-01 -1.1426543e+00 4.7856660e+00 
2.8282684e-01 -1.1460238e+00 4.7562256e+00 
5.9817594e-01 2.3702475e-01 4.7126522e+00 
-2.9163259e-01 7.7842659e-01 4.6861777e+00 
-8.4774457e-02 5.9678710e-01 4.6877537e+00 
3.3844674e-01 8.4848744e-01 4.6907682e+00 
-2.8405192e-01 1.7249130e-01 4.6887846e+00 
5.0713074e-01 7.3778862e-01 4.6892648e+00 
-5.0768143e-01 -2.5125271e-01 4.6944909e+00 
1.7772512e-01 9.1752332e-01 4.6779394e+00 
6.6718554e-01 -7.4010277e-01 4.7203283e+00 
3.6720175e-01 -2.6344371e-01 4.6932564e+00 
8.5630212e-03 9.5892018e-01 4.6651106e+00 
-6.5238059e-02 -7.5660431e-01 4.6921844e+00 
-1.6305555e-01 9.7143233e-01 4.6522818e+00 
-5.8571845e-01 7.6575154e-01 4.6406322e+00 
-6.7128545e-01 6.1092830e-01 4.6396861e+00 
-3.0370095e-01 9.6057665e-01 4.6339192e+00 
-7.5511569e-01 3.3545151e-01 4.6383362e+00 
6.3744378e-01 6.1345685e-01 4.6463885e+00 
8.5255623e-01 2.0060068e-01 4.6535683e+00 
7.3895925e-01 -1.0102378e+00 4.6869712e+00 
-5.3985602e-01 -6.0778940e-01 4.6509848e+00 
2.0585355e-01 7.4885297e-01 4.6214266e+00 
-2.0793777e-02 -1.0466212e+00 4.6681890e+00 
4.0375519e-01 3.7047100e-01 4.6280775e+00 
4.6485057e-01 -1.1532754e+00 4.6814876e+00 
-4.3029311e-01 8.3828837e-01 4.6143870e+00 
-3.7577495e-02 2.8816143e-01 4.6148582e+00 
-7.7164918e-01 -3.7543990e-02 4.6202497e+00 
4.0015545e-01 -8.3166349e-01 4.6549730e+00 
4.7746798e-01 5.8853769e-01 4.6163530e+00 
9.1096449e-01 -1.0746606e-01 4.6356001e+00 
-2.2346880e-01 8.3485860e-01 4.5881071e+00 
-5.0068027e-01 6.1900669e-01 4.5768709e+00 
5.5372979e-02 5.8422589e-01 4.5624723e+00 
-4.2879656e-01 3.5698545e-01 4.5615039e+00 
-5.4045138e-03 8.1231689e-01 4.5589566e+00 
-6.5375879e-02 -5.9506498e-02 4.5674605e+00 
6.1407232e-01 4.4661060e-01 4.5650764e+00 
-2.2460815e-01 -4.2262357e-01 4.5655236e+00 
5.6849831e-01 6.9528061e-01 4.5518508e+00 
4.2937878e-01 8.0496538e-01 4.5390234e+00 
-7.8897804e-01 1.5966448e-01 4.5370193e+00 
5.2813363e-01 -5.7754016e-01 4.5680242e+00 
7.6104724e-01 4.4210869e-01 4.5467415e+00 
2.7401999e-01 8.8813949e-01 4.5261960e+00 
-7.0032299e-01 -3.4739974e-01 4.5399976e+00 
6.4982980e-01 -1.1174347e+00 4.5865026e+00 
2.2152029e-01 -1.1266240e+00 4.5761347e+00 
1.0803778e-01 9.4404978e-01 4.5133686e+00 
8.0477196e-01 -8.4570664e-01 4.5683002e+00 
-6.4180814e-02 9.7115040e-01 4.5005422e+00 
-6.0788584e-01 2.6039260e-02 4.5101595e+00 
6.4998317e-01 -4.1176686e-01 4.5331111e+00 
-2.3554654e-01 9.6958578e-01 4.4877157e+00 
-4.6559516e-01 7.5658506e-01 4.4839940e+00 
7.7585006e-01 -6.4068937e-01 4.5330410e+00 
1.4348000e-01 7.6347971e-01 4.4867959e+00 
-6.3621026e-01 6.9635123e-01 4.4799104e+00 
-7.1275526e-01 5.3760970e-01 4.4789743e+00 
-4.2915115e-01 9.2185074e-01 4.4716763e+00 
4.1368181e-01 6.3424671e-01 4.4799986e+00 
2.0187625e-01 -5.7093024e-01 4.5014811e+00 
-2.7630758e-01 6.1147559e-01 4.4618683e+00 
5.4293811e-01 -9.7757661e-01 4.5155034e+00 
6.3353741e-01 -8.0049312e-01 4.4981079e+00 
8.9401138e-01 -5.4835117e-01 4.4896836e+00 
-7.7370143e-01 3.4618706e-01 4.4332066e+00 
6.5083110e-01 6.1904186e-01 4.4405708e+00 
7.2116691e-01 -9.8755157e-01 4.4879575e+00 
-7.9247862e-01 -6.4057656e-02 4.4359231e+00 
8.6505032e-01 2.0965114e-01 4.4478717e+00 
5.2956355e-01 2.1240008e-01 4.4369264e+00 
-3.3431301e-01 -8.5674757e-01 4.4598026e+00 
4.3620992e-01 -1.1333797e+00 4.4824519e+00 
1.0791140e-01 -2.2021562e-01 4.4245605e+00 
9.8076634e-02 -9.2750925e-01 4.4473209e+00 
3.0900845e-01 -2.5297033e-02 4.4096560e+00 
-6.0171169e-01 4.0701258e-01 4.3929281e+00 
-2.1298246e-01 8.2264066e-01 4.3852396e+00 
5.1649994e-01 7.5363845e-01 4.3872757e+00 
-5.1047128e-01 6.1850673e-01 4.3712316e+00 
3.6819026e-01 8.5129625e-01 4.3744502e+00 
2.0662504e-01 9.2172790e-01 4.3616252e+00 
-4.0398133e-01 -2.5744918e-01 4.3719583e+00 
3.6068309e-02 9.6378219e-01 4.3488002e+00 
3.6028218e-01 -9.4391477e-01 4.3920145e+00 
9.3479820e-02 5.8341283e-01 4.3419552e+00 
-1.3764864e-01 9.7604483e-01 4.3359756e+00 
-6.1004937e-01 2.0981242e-01 4.3422961e+00 
8.1023467e-01 -7.9743242e-01 4.3894916e+00 
6.6458011e-01 1.0343103e-03 4.3533921e+00 
-3.0833271e-01 9.5914769e-01 4.3231511e+00 
-8.1257397e-01 1.7059827e-01 4.3319721e+00 
6.2215894e-01 -1.0919657e+00 4.3875518e+00 
-5.8816981e-01 7.7492571e-01 4.3201256e+00 
7.7414328e-01 4.4937709e-01 4.3409815e+00 
-6.8378383e-01 6.2585282e-01 4.3191986e+00 
-7.5340354e-01 4.6329746e-01 4.3182721e+00 
5.4423410e-01 4.6127188e-01 4.3259754e+00 
3.7103808e-01 6.7559773e-01 4.3160925e+00 
-3.8860387e-01 8.0519423e-02 4.3103809e+00 
4.3544009e-01 -3.4909222e-01 4.3303266e+00 
2.3433676e-01 7.5222993e-01 4.3047729e+00 
2.2345465e-01 -1.1157793e+00 4.3582535e+00 
9.1629557e-02 8.0101138e-01 4.2936287e+00 
6.5042502e-01 -6.3541919e-01 4.3311534e+00 
-5.6209169e-02 8.2503754e-01 4.2828946e+00 
4.3496089e-03 7.9273514e-02 4.2842555e+00 
4.8008183e-01 -6.9670790e-01 4.3140211e+00 
5.2319133e-01 -9.4420928e-01 4.3173113e+00 
-2.7609065e-01 7.9623276e-01 4.2425857e+00 
-8.6096950e-02 -6.9386899e-01 4.2672448e+00 
7.0336509e-01 -9.6464789e-01 4.2891512e+00 
2.3358528e-01 5.2536786e-01 4.2330170e+00 
-7.9236251e-01 3.5699970e-01 4.2281799e+00 
-6.0595173e-01 -5.9856886e-01 4.2521605e+00 
4.0747052e-01 -1.1132610e+00 4.2836227e+00 
-8.3276182e-02 -1.0282687e+00 4.2705102e+00 
6.6430122e-01 6.2470114e-01 4.2347608e+00 
-6.3583386e-01 4.0200397e-01 4.2214303e+00 
8.7763411e-01 2.1881482e-01 4.2421823e+00 
1.9539027e-02 3.2021451e-01 4.2202320e+00 
4.7285452e-01 7.9779816e-01 4.2225752e+00 
3.0360702e-01 8.9180923e-01 4.2098794e+00 
-4.2876738e-01 9.1959566e-01 4.2012229e+00 
-8.2793796e-01 -1.6505605e-02 4.2102461e+00 
-6.4955121e-01 1.1071102e-01 4.2026877e+00 
1.3654307e-01 9.4883090e-01 4.1970563e+00 
-3.7416212e-02 9.7630382e-01 4.1842332e+00 
-1.6435428e-01 -4.7314513e-01 4.1983805e+00 
-2.1114321e-01 9.7382528e-01 4.1714110e+00 
4.0158477e-01 2.4243937e-01 4.1739573e+00 
-6.4331055e-01 7.0858139e-01 4.1594133e+00 
9.2969906e-01 -4.2048343e-02 4.1916213e+00 
-7.5259292e-01 5.0563383e-01 4.1453695e+00 
-6.5014076e-01 -1.5882449e-01 4.1564250e+00 
1.7816435e-01 7.8174645e-01 4.1408415e+00 
-4.0443528e-01 3.3950013e-01 4.1294937e+00 
5.9441060e-01 -1.0662802e+00 4.1888032e+00 
1.6157386e-01 -1.0975904e+00 4.1785436e+00 
-8.3624274e-01 1.8160249e-01 4.1270266e+00 
-1.9595602e-01 5.9901398e-01 4.1189728e+00 
2.2613514e-02 4.7804534e-02 4.1282287e+00 
-3.3764082e-01 8.2377291e-01 4.1137300e+00 
7.8732181e-01 4.5673022e-01 4.1352286e+00 
7.8602988e-01 -8.0507565e-01 4.1708326e+00 
-7.6794642e-01 -3.2899496e-01 4.1302013e+00 
3.8971227e-01 6.7837685e-01 4.1124015e+00 
6.6459364e-01 -3.5613260e-01 4.1394749e+00 
-6.4471859e-01 2.6987085e-01 4.1090417e+00 
7.7599406e-01 -5.9594578e-01 4.1368046e+00 
-2.7102029e-01 -1.7166229e-01 4.1033950e+00 
5.0891215e-01 5.4584128e-01 4.1001697e+00 
2.1914166e-01 -1.5314473e-01 4.1007152e+00 
4.1327201e-02 6.0406816e-01 4.0833330e+00 
-3.8699001e-02 8.2764363e-01 4.0789552e+00 
-5.5351228e-01 8.1986177e-01 4.0698671e+00 
1.3817558e-01 -9.1951120e-01 4.1143689e+00 
5.0345021e-01 -9.1102296e-01 4.1192508e+00 
-4.2703199e-01 1.3213429e-01 4.0679021e+00 
5.4659349e-01 7.5431645e-01 4.0709529e+00 
6.1682165e-01 -7.4328399e-01 4.1025634e+00 
3.9826310e-01 8.5416019e-01 4.0581312e+00 
3.4618318e-01 -7.1268326e-01 4.0884562e+00 
8.9659053e-01 -5.1397163e-01 4.0925789e+00 
2.3594092e-01 9.2614180e-01 4.0453100e+00 
6.8556356e-01 -9.4155735e-01 4.0905428e+00 
6.4080700e-02 9.6903372e-01 4.0324888e+00 
8.7762243e-01 2.6470691e-01 4.0564160e+00 
-6.2709552e-01 4.1607779e-01 4.0312467e+00 
7.5569677e-01 5.0750043e-02 4.0547590e+00 
3.7864685e-01 -1.0929481e+00 4.0849915e+00 
-3.9959583e-01 -8.4546429e-01 4.0631366e+00 
-1.1168686e-01 9.8132890e-01 4.0196681e+00 
2.3793820e-01 9.5722660e-02 4.0332837e+00 
-8.1108755e-01 3.6787811e-01 4.0232534e+00 
6.7784262e-01 6.3042450e-01 4.0289569e+00 
-8.5042387e-01 -4.3146513e-02 4.0261140e+00 
6.5089220e-01 3.2043406e-01 4.0266690e+00 
-2.8455764e-01 9.6367997e-01 4.0068479e+00 
1.1535934e-01 7.9061157e-01 4.0076308e+00 
-4.4552144e-01 -3.6249250e-01 4.0096903e+00 
-4.1745153e-01 6.9459814e-01 3.9719276e+00 
2.9816911e-01 4.7010800e-01 3.9740596e+00 
-1.8373746e-01 8.3585626e-01 3.9612262e+00 
-6.7799610e-01 8.1117295e-02 3.9672849e+00 
-7.5691062e-01 5.3238249e-01 3.9576941e+00 
-4.2839685e-01 9.1741848e-01 3.9417481e+00 
1.9858006e-01 -4.0369579e-01 3.9684551e+00 
7.9436290e-01 -7.5734979e-01 3.9923968e+00 
-8.5512899e-02 -1.9485539e-01 3.9489286e+00 
5.6659824e-01 -1.0404114e+00 3.9902477e+00 
-8.5997003e-01 1.9266506e-01 3.9221787e+00 
1.7127158e-01 -1.0855899e+00 3.9652913e+00 
8.0057126e-01 4.6415529e-01 3.9294817e+00 
-3.1825414e-01 3.4628078e-01 3.9044108e+00 
2.8373674e-01 7.8592211e-01 3.9059582e+00 
-5.8992487e-01 5.3568310e-01 3.9002748e+00 
6.0114436e-02 -7.2053719e-01 3.9356079e+00 
6.4909291e-01 -5.7896280e-01 3.9330745e+00 
3.3354986e-01 8.9557981e-01 3.8935616e+00 
-6.1354637e-01 7.6199007e-01 3.8854759e+00 
5.0227803e-01 8.0114394e-01 3.8903744e+00 
9.9246139e-03 -9.6787226e-01 3.9258347e+00 
1.6548461e-01 9.5387870e-01 3.8807425e+00 
5.0887579e-01 6.3098639e-01 3.8883364e+00 
4.3108454e-01 -2.9680467e-01 3.9031167e+00 
-1.9840014e-01 9.7743022e-01 3.8716822e+00 
4.8366231e-01 -8.7803584e-01 3.9213188e+00 
-1.0131576e-02 9.8192221e-01 3.8679235e+00 
7.8151119e-01 -2.5306171e-01 3.8980186e+00 
7.9541668e-02 6.0521007e-01 3.8628421e+00 
2.1470085e-01 -9.1591424e-01 3.8991194e+00 
-2.0922558e-01 6.0699463e-01 3.8493457e+00 
6.6777235e-01 -9.1831046e-01 3.8921223e+00 
3.4975329e-01 -1.0724699e+00 3.8865480e+00 
-1.4649986e-01 -1.0090935e+00 3.8739009e+00 
-6.7179966e-01 -5.9022492e-01 3.8533781e+00 
3.7124899e-01 1.0572039e-01 3.8391206e+00 
2.0682815e-01 7.8591901e-01 3.8242128e+00 
-8.2986498e-01 3.7881103e-01 3.8184223e+00 
5.9766706e-02 8.2307750e-01 3.8132191e+00 
6.0940653e-01 3.2524875e-01 3.8263426e+00 
6.9144392e-01 6.3620162e-01 3.8231590e+00 
9.0303314e-01 2.3738296e-01 3.8308227e+00 
2.3005055e-01 5.8302182e-01 3.8041742e+00 
-8.8441217e-01 4.2414409e-03 3.8010569e+00 
-6.9957173e-01 1.2416614e-01 3.7925560e+00 
-3.3098361e-01 8.0706316e-01 3.7830465e+00 
-6.4175862e-01 -1.0722084e-01 3.7961500e+00 
4.2236510e-01 6.8730468e-01 3.7913492e+00 
-7.0538723e-01 6.4829427e-01 3.7811751e+00 
1.2382372e-01 3.3200219e-01 3.7747836e+00 
-6.0649091e-01 4.0815264e-01 3.7688839e+00 
-1.0494956e-01 6.7483358e-02 3.7631030e+00 
1.3954988e-01 -1.0721444e+00 3.8024690e+00 
2.1766581e-01 -9.2747137e-02 3.7621286e+00 
5.7688457e-01 7.5494874e-01 3.7546289e+00 
7.8653085e-01 -7.3708403e-01 3.7941294e+00 
4.2862108e-01 8.5702366e-01 3.7418113e+00 
5.3873539e-01 -1.0143918e+00 3.7918758e+00 
8.8106328e-01 -5.3827363e-01 3.7779918e+00 
2.6563728e-01 9.3070632e-01 3.7289939e+00 
-3.7147516e-01 -1.6599134e-01 3.7291989e+00 
9.2559680e-02 9.7461438e-01 3.7161767e+00 
6.8368137e-01 1.9765995e-01 3.7328217e+00 
-8.8374150e-01 2.0377387e-01 3.7174251e+00 
5.4190683e-01 5.5954552e-01 3.7206876e+00 
-8.5197128e-02 9.8718566e-01 3.7033598e+00 
8.1387997e-01 4.7163963e-01 3.7237401e+00 
-8.3459914e-01 -3.1299725e-01 3.7228835e+00 
-6.0688388e-01 7.7647376e-01 3.7010703e+00 
9.5741069e-01 -8.5059792e-02 3.7378118e+00 
-7.7852082e-01 5.3485006e-01 3.6966195e+00 
-4.2803928e-01 9.1531730e-01 3.6925256e+00 
-6.8678963e-01 2.8277901e-01 3.6989160e+00 
-2.6041794e-01 9.6871907e-01 3.6905434e+00 
-3.0496466e-01 -4.5745167e-01 3.7074528e+00 
-5.5663276e-01 6.0339147e-01 3.6840727e+00 
7.1981445e-02 -8.6817551e-01 3.7248847e+00 
4.6378690e-01 -8.4525424e-01 3.7235124e+00 
5.9429002e-01 -6.6924495e-01 3.7120183e+00 
2.9198435e-01 7.5949013e-01 3.6715190e+00 
3.1168976e-01 -6.3285369e-01 3.6964378e+00 
1.4834228e-01 8.1013846e-01 3.6603644e+00 
-4.6472928e-01 1.9818273e-01 3.6561654e+00 
-1.5283811e-01 8.3286500e-01 3.6391587e+00 
6.5000117e-01 -8.9493752e-01 3.6938808e+00 
3.2080409e-01 -1.0518554e+00 3.6882834e+00 
-4.1831079e-01 4.3093789e-01 3.6185501e+00 
-8.4868348e-01 3.8978720e-01 3.6136839e+00 
8.4554052e-01 1.2745044e-02 3.6368232e+00 
-9.0857184e-01 -2.2029025e-02 3.6166890e+00 
7.0509368e-01 6.4202225e-01 3.6173651e+00 
9.1582066e-01 2.4676834e-01 3.6251504e+00 
-7.0353538e-01 6.6837531e-01 3.5974081e+00 
7.2637922e-01 -4.6173263e-01 3.6362753e+00 
1.5237638e-01 5.7651484e-01 3.5987623e+00 
7.3447049e-01 -2.6446998e-01 3.6249013e+00 
6.3336992e-01 4.2761323e-01 3.6062665e+00 
-6.3122809e-01 5.0024217e-01 3.5896673e+00 
5.2030069e-01 8.1028211e-01 3.5900586e+00 
3.6380741e-01 8.9939415e-01 3.5772431e+00 
3.7042883e-01 3.9061201e-01 3.5812247e+00 
1.9483016e-01 9.5913285e-01 3.5644276e+00 
5.6875223e-01 -2.0768754e-02 3.5794904e+00 
2.0976683e-01 -8.4382695e-01 3.5969536e+00 
1.7659681e-02 9.8794359e-01 3.5516129e+00 
3.0168144e-02 -6.0844737e-01 3.5798712e+00 
7.7877575e-01 -7.1670496e-01 3.5960357e+00 
-7.2349645e-02 3.4033287e-01 3.5455256e+00 
-1.6059831e-01 9.8471743e-01 3.5387981e+00 
-4.1863937e-02 -2.4728876e-01 3.5573881e+00 
5.1083541e-01 -9.8825389e-01 3.5936782e+00 
-3.1408933e-01 8.6463308e-01 3.5352898e+00 
7.1002357e-02 -1.0527873e+00 3.5835774e+00 
4.2544237e-01 -3.6326551e-01 3.5606191e+00 
-2.0109843e-01 6.4834291e-01 3.5306096e+00 
-6.3976902e-01 -1.1860408e-01 3.5346053e+00 
-6.0442197e-01 7.8524250e-01 3.5185177e+00 
-6.1647147e-01 -3.6674479e-01 3.5370793e+00 
1.7264034e-01 9.1568239e-02 3.5282176e+00 
-5.9542739e-01 3.3609547e-02 3.5221291e+00 
-2.0590095e-01 -7.4969512e-01 3.5479085e+00 
-7.9359680e-01 5.3833771e-01 3.5104108e+00 
-9.0754288e-01 2.1491691e-01 3.5127621e+00 
2.3570998e-01 7.9026669e-01 3.5076034e+00 
8.2723647e-01 4.7917050e-01 3.5180023e+00 
-7.0794851e-01 2.8935748e-01 3.4940155e+00 
-6.3880697e-02 8.3971858e-01 3.4859674e+00 
4.4379550e-01 -8.1267703e-01 3.5258293e+00 
5.8701760e-01 -6.4023119e-01 3.5146267e+00 
4.4273871e-01 6.8553340e-01 3.4795797e+00 
5.6209821e-01 5.6546253e-01 3.4781256e+00 
7.5377321e-01 1.7159478e-01 3.4854069e+00 
-4.2769426e-01 9.1329002e-01 3.4528911e+00 
-2.6498699e-01 1.4007778e-02 3.4590266e+00 
1.7293502e-02 -9.0440637e-01 3.4918158e+00 
6.3225991e-01 -8.7146854e-01 3.4958084e+00 
9.1777134e-01 -4.1169620e-01 3.4816039e+00 
-4.6712321e-01 -6.3522011e-01 3.4634614e+00 
6.0733169e-01 7.5549889e-01 3.4383039e+00 
-5.2879608e-01 6.4802462e-01 3.4214687e+00 
-7.1042687e-01 6.7470354e-01 3.4214842e+00 
4.5921955e-01 8.5983306e-01 3.4254901e+00 
9.7022164e-01 -1.2146979e-01 3.4496369e+00 
2.9567569e-01 9.3536246e-01 3.4126766e+00 
-4.6336374e-01 -8.5592127e-01 3.4450555e+00 
2.6478696e-01 -1.0317706e+00 3.4592705e+00 
9.6136022e-01 9.2394844e-02 3.4363346e+00 
-8.6753154e-01 4.0079537e-01 3.4090343e+00 
-7.4983060e-01 -5.6965834e-01 3.4324584e+00 
-6.8328476e-01 4.3155935e-01 3.4027050e+00 
-1.6534977e-02 6.1144274e-01 3.4013450e+00 
9.1608196e-01 2.9576012e-01 3.4248085e+00 
1.2146182e-01 9.8046249e-01 3.3998635e+00 
7.1878046e-01 6.4787608e-01 3.4115746e+00 
-9.2274630e-01 -1.5969001e-01 3.4037244e+00 
-5.8200140e-02 9.9353206e-01 3.3870506e+00 
1.1848908e-01 2.8308865e-01 3.3832760e+00 
-8.6223561e-01 -3.7143129e-01 3.3955276e+00 
-2.1071875e-01 -9.8956215e-01 3.4186299e+00 
-2.4781334e-01 9.7197711e-01 3.3608224e+00 
-4.8330474e-01 2.7196968e-01 3.3617101e+00 
2.8161874e-01 5.9747636e-01 3.3546462e+00 
7.7110344e-01 -6.9623959e-01 3.3981061e+00 
-2.2257078e-01 -4.8934847e-01 3.3709109e+00 
4.4824001e-01 3.3578870e-01 3.3553321e+00 
4.8291162e-01 -9.6203005e-01 3.3956451e+00 
1.7706254e-01 8.1506360e-01 3.3437591e+00 
-6.0214198e-01 7.9315031e-01 3.3335400e+00 
-3.8892627e-01 7.8063256e-01 3.3293698e+00 
-8.0301040e-01 5.5210334e-01 3.3241313e+00 
7.6780236e-01 -1.9886144e-02 3.3470688e+00 
-6.1899209e-01 5.5043578e-01 3.3198922e+00 
-3.9110011e-01 4.6731675e-01 3.3196993e+00 
7.0615590e-01 -4.0422148e-01 3.3496785e+00 
-1.3405399e-01 8.2568407e-01 3.3109682e+00 
-6.4720315e-01 6.5870903e-05 3.3097863e+00 
6.9120127e-01 4.5227385e-01 3.3035836e+00 
-9.4857579e-01 1.2629829e-01 3.2965190e+00 
-6.6956955e-01 -4.9312043e-01 3.3061662e+00 
-1.5245906e-01 5.0925618e-01 3.2725697e+00 
3.3656207e-01 -7.8048497e-01 3.3058856e+00 
-1.1461756e-01 -8.1188446e-01 3.3000021e+00 
-7.3962790e-01 2.5784013e-01 3.2580905e+00 
5.6010830e-01 8.0664527e-01 3.2568920e+00 
2.2454429e-01 9.6453214e-01 3.2481120e+00 
4.0832871e-01 8.9752471e-01 3.2448637e+00 
5.4770517e-01 5.6319880e-01 3.2498329e+00 
-5.3213286e-01 6.5204781e-01 3.2366478e+00 
-7.1353394e-01 6.8613762e-01 3.2364399e+00 
8.6556065e-01 4.5029488e-01 3.2507598e+00 
-4.2736146e-01 9.1133434e-01 3.2222354e+00 
-1.2434566e-02 -1.0267135e+00 3.2690005e+00 
-7.2631401e-01 -2.7953005e-01 3.2297368e+00 
5.6570362e-02 9.9428493e-01 3.2063608e+00 
-1.5295631e-01 9.8923433e-01 3.2031376e+00 
-8.8639790e-01 4.1182441e-01 3.2044697e+00 
-4.7921816e-01 -3.5338044e-01 3.2143831e+00 
6.4931750e-01 -8.0640119e-01 3.2407722e+00 
7.3249280e-01 6.5375298e-01 3.2057867e+00 
4.1482860e-01 7.3488945e-01 3.1918232e+00 
-9.6366775e-01 -8.4581330e-02 3.1960657e+00 
2.0097841e-01 -1.0774975e-01 3.1981943e+00 
-9.2397767e-01 -2.8392631e-01 3.1946573e+00 
2.4344420e-01 -1.0052729e+00 3.2254345e+00 
-8.4587973e-01 -4.7205406e-01 3.1945176e+00 
9.6720064e-01 -2.1761303e-01 3.2076283e+00 
9.8332888e-01 -2.4020576e-03 3.2009587e+00 
9.5804304e-01 2.0599492e-01 3.1951535e+00 
-4.1750419e-01 -9.0205002e-01 3.2048376e+00 
-5.8572924e-01 -7.8549361e-01 3.1990921e+00 
-2.2728707e-01 2.7038059e-01 3.1674025e+00 
-2.3135683e-01 -9.8297679e-01 3.2056718e+00 
9.0800327e-01 -4.2465645e-01 3.2040195e+00 
8.1130660e-01 -6.0897744e-01 3.1980777e+00 
-7.1590668e-01 5.0664979e-01 3.1524293e+00 
-5.9939408e-01 8.0076474e-01 3.1485629e+00 
7.3929447e-01 2.5632417e-01 3.1680987e+00 
-8.4960936e-03 -5.4364687e-01 3.1748669e+00 
4.5497712e-01 -9.3575221e-01 3.1977668e+00 
-5.2169859e-01 -6.1364567e-01 3.1706846e+00 
-7.4960840e-01 -6.2401611e-01 3.1652126e+00 
4.2012060e-01 1.7613779e-01 3.1491086e+00 
7.8180313e-01 -7.5555474e-02 3.1601136e+00 
5.6784332e-01 -6.3973159e-01 3.1693547e+00 
-8.0459106e-01 7.8345142e-02 3.1355748e+00 
1.1420073e-01 -8.6189103e-01 3.1585786e+00 
6.2843233e-01 7.6434869e-01 3.1177380e+00 
4.9001351e-01 8.6253738e-01 3.1091678e+00 
-4.8943022e-01 4.5290893e-01 3.0958831e+00 
3.0844876e-01 8.5371894e-01 3.0984421e+00 
-7.8343952e-01 -1.4653738e-01 3.1000493e+00 
3.6929333e-01 -4.5227063e-01 3.1085052e+00 
-7.1702912e-02 8.2896107e-01 3.0763018e+00 
-6.7485309e-01 -4.5976633e-01 3.0958307e+00 
-6.3186032e-01 6.2252033e-01 3.0673437e+00 
2.8910303e-01 6.2343997e-01 3.0726063e+00 
3.9798424e-01 -7.2955233e-01 3.0998011e+00 
4.9818474e-01 7.0643550e-01 3.0645728e+00 
-7.4072772e-01 2.9419333e-01 3.0482717e+00 
7.3598111e-01 -3.3738795e-01 3.0779090e+00 
-5.3550965e-01 -1.4894019e-01 3.0553663e+00 
-4.1802856e-01 7.1414417e-01 3.0396299e+00 
-2.0296125e-01 -7.9544759e-01 3.0746129e+00 
-1.0778367e-01 -3.0151668e-01 3.0357938e+00 
-3.4956101e-02 1.9911203e-01 3.0158467e+00 
5.2169925e-01 -1.4208025e-01 3.0322189e+00 
-4.2704040e-01 9.0944791e-01 3.0000000e+00 
-2.2192116e-01 9.7876269e-01 3.0000000e+00 
-6.2507993e-01 7.8463686e-01 3.0000000e+00 
-6.6434853e-03 1.0020063e+00 3.0000000e+00 
-7.8847063e-01 6.1692572e-01 3.0000000e+00 
2.0859428e-01 9.7840536e-01 3.0000000e+00 
-9.0526992e-01 4.2286241e-01 3.0000000e+00 
4.1189301e-01 9.0991849e-01 3.0000000e+00 
-9.7033209e-01 2.3000683e-01 3.0000000e+00 
5.9338385e-01 8.0161518e-01 3.0000000e+00 
-9.9605566e-01 2.8128883e-02 3.0000000e+00 
7.4621940e-01 6.5964258e-01 3.0000000e+00 
2.7030048e-01 3.6168593e-01 2.9919405e+00 
-9.7993863e-01 -1.7473321e-01 3.0000000e+00 
8.6000210e-01 4.9999392e-01 3.0000000e+00 
-9.2348158e-01 -3.7026554e-01 3.0000000e+00 
9.4179493e-01 3.1783259e-01 3.0000000e+00 
-8.2871383e-01 -5.5034220e-01 3.0000000e+00 
9.8666227e-01 1.1780463e-01 3.0000000e+00 
-6.9900227e-01 -7.0718569e-01 3.0000000e+00 
9.8997146e-01 -9.3174301e-02 3.0000000e+00 
-5.4266512e-01 -8.3760321e-01 3.0000000e+00 
9.4744331e-01 -3.0674538e-01 3.0000000e+00 
-3.6465734e-01 -9.3623197e-01 3.0000000e+00 
8.6216110e-01 -5.0264138e-01 3.0000000e+00 
-1.6968012e-01 -9.9423677e-01 3.0000000e+00 
2.8666478e-02 5.3769827e-01 2.9565563e+00 
7.4191004e-01 -6.7109871e-01 3.0000000e+00 
3.3367958e-02 -1.0066855e+00 3.0000000e+00 
5.9434688e-01 -8.0766261e-01 3.0000000e+00 
2.3454949e-01 -9.7589308e-01 3.0000000e+00 
4.2704040e-01 -9.0944791e-01 3.0000000e+00 
4.8327559e-01 5.2254468e-01 2.9570448e+00 
1.5612794e-01 -1.9397137e-01 2.9482636e+00 
-6.4335710e-01 4.2444268e-01 2.9265335e+00 
8.0588780e-02 8.0499846e-01 2.9252956e+00 
-7.8376132e-01 -2.2401042e-01 2.9304831e+00 
-4.6916687e-01 1.7610852e-01 2.9184113e+00 
7.9186356e-01 1.7915447e-01 2.9295189e+00 
-6.2919134e-01 -5.1744652e-01 2.9306464e+00 
7.2163099e-01 3.4653005e-01 2.9230795e+00 
8.0708534e-01 9.3650622e-03 2.9276767e+00 
7.8512734e-01 -1.6325563e-01 2.9250035e+00 
6.5737325e-01 -4.8357499e-01 2.9291234e+00 
1.0756332e-01 -8.1790632e-01 2.9301445e+00 
5.2697301e-01 -6.1299616e-01 2.9240563e+00 
4.6605548e-01 7.4717313e-01 2.8830838e+00 
-8.1559569e-01 2.3817590e-02 2.8747201e+00 
2.6114222e-01 -7.1662974e-01 2.8914235e+00 
2.5036821e-01 3.2309961e-02 2.8646388e+00 
-4.4042593e-01 -6.8944162e-01 2.8744566e+00 
-2.9438236e-01 -7.7038181e-01 2.8752158e+00 
5.5395269e-01 7.5340666e-02 2.8584445e+00 
-1.3836229e-01 -8.1682903e-01 2.8754508e+00 
4.2768809e-01 -3.4684443e-01 2.8484316e+00 
-3.8244596e-01 -4.1610509e-01 2.8398921e+00 
2.8841496e-01 5.7019138e-01 2.8150315e+00 
-9.8826641e-01 1.3010933e-01 2.8051231e+00 
1.0138281e-01 9.9606985e-01 2.7918236e+00 
-9.9319255e-01 -7.3931508e-02 2.8045506e+00 
3.1249696e-01 9.4948173e-01 2.7941566e+00 
-3.4931910e-01 4.8692048e-01 2.7896068e+00 
-1.4702958e-01 -5.6109744e-01 2.8157482e+00 
-9.5659935e-01 -2.7392226e-01 2.8052979e+00 
-8.8081545e-01 -4.6272853e-01 2.8035402e+00 
-7.6763427e-01 -6.3204795e-01 2.8055542e+00 
-9.0526992e-01 4.2286241e-01 2.7791932e+00 
-4.2704040e-01 9.0944791e-01 2.7727046e+00 
9.6930504e-01 2.1895221e-01 2.8026626e+00 
-6.2392080e-01 -7.7568316e-01 2.8052592e+00 
-4.5596856e-01 -8.9158559e-01 2.8050134e+00 
9.9381036e-01 1.2078834e-02 2.7979519e+00 
7.4621940e-01 6.5964258e-01 2.7800701e+00 
-2.6870206e-01 -9.7080761e-01 2.8055689e+00 
5.6188858e-01 8.2431453e-01 2.7692106e+00 
-6.8878196e-02 -1.0061610e+00 2.8049796e+00 
8.8401747e-01 4.5566425e-01 2.7789242e+00 
8.0643111e-01 -5.8991843e-01 2.8019133e+00 
1.3514073e-01 -9.9622512e-01 2.8041520e+00 
-1.7778973e-01 9.8740411e-01 2.7542868e+00 
9.7457039e-01 -2.0068304e-01 2.7910087e+00 
9.0989500e-01 -4.0719521e-01 2.7945862e+00 
6.3151795e-01 -7.7824157e-01 2.7817035e+00 
4.3796721e-01 3.2628858e-01 2.7437890e+00 
4.2704037e-01 -9.0944785e-01 2.7791932e+00 
1.7450607e-01 7.7655244e-01 2.7113156e+00 
-5.6486285e-01 -5.8257365e-01 2.7344866e+00 
1.0721841e-01 3.2176062e-01 2.7121494e+00 
-7.1472317e-01 7.0254642e-01 2.7039785e+00 
8.0162454e-01 1.0360894e-01 2.7292027e+00 
1.9377874e-01 -4.8890176e-01 2.7189109e+00 
-2.7084315e-01 7.0166576e-01 2.6770434e+00 
7.3464161e-01 -2.8236231e-02 2.7006123e+00 
7.4372339e-01 -2.4337366e-01 2.7043302e+00 
-5.9682930e-01 6.0473911e-02 2.6792634e+00 
-2.5866783e-01 2.1066029e-02 2.6757624e+00 
5.0096154e-01 6.3250184e-01 2.6593516e+00 
-8.0313712e-01 2.8190002e-01 2.6511517e+00 
-6.9437355e-02 -2.4319099e-01 2.6616092e+00 
-8.5986876e-01 2.5425108e-02 2.6464069e+00 
6.4062887e-01 -4.8905757e-01 2.6687438e+00 
5.1180422e-02 -8.1601018e-01 2.6693230e+00 
-7.0175654e-01 -3.6857930e-01 2.6503325e+00 
6.6917586e-01 4.1079050e-01 2.6401551e+00 
-2.1180753e-01 -7.7976608e-01 2.6503870e+00 
-9.8612839e-01 -1.3690558e-01 2.5973060e+00 
-4.3925714e-01 3.2242721e-01 2.5791636e+00 
-6.8434989e-01 -7.2153831e-01 2.6045208e+00 
9.8322666e-01 1.4362827e-01 2.6004972e+00 
2.3903736e-01 9.7117311e-01 2.5618660e+00 
8.5000056e-01 -5.2345735e-01 2.5960824e+00 
9.4000936e-01 3.2312965e-01 2.5725667e+00 
7.1794480e-01 -6.9728726e-01 2.5931067e+00 
-9.2406881e-01 -3.6879879e-01 2.5666056e+00 
-8.2770401e-01 -5.5184752e-01 2.5670497e+00 
-1.3083582e-01 -1.0002153e+00 2.5784729e+00 
-5.4285008e-01 -8.3747512e-01 2.5672669e+00 
-9.8993427e-01 1.1636066e-01 2.5336149e+00 
2.1743339e-01 4.9876797e-01 2.5223351e+00 
4.9339437e-01 8.6768711e-01 2.5227904e+00 
9.9049473e-01 -8.7064698e-02 2.5478141e+00 
-9.0526992e-01 4.2286241e-01 2.5160077e+00 
5.5991238e-01 1.7088860e-01 2.5269341e+00 
-4.2704037e-01 9.0944791e-01 2.5041385e+00 
7.4621940e-01 6.5964258e-01 2.5182464e+00 
9.4646960e-01 -3.0982503e-01 2.5419257e+00 
-8.9819111e-02 6.5893394e-01 2.5016279e+00 
4.5995519e-01 -6.4214158e-01 2.5396025e+00 
1.1811421e-01 -9.9871671e-01 2.5275860e+00 
4.5102426e-01 -3.4328127e-01 2.4960494e+00 
4.2704037e-01 -9.0944785e-01 2.5160077e+00 
-6.0031008e-02 1.0006230e+00 2.4570541e+00 
2.7601022e-01 1.5860087e-01 2.4635048e+00 
-6.2678196e-02 -5.5267471e-01 2.4763114e+00 
-4.6546626e-01 -2.7501810e-01 2.4552829e+00 
-4.3496427e-01 6.3986266e-01 2.4380786e+00 
-3.5355061e-01 -9.4086170e-01 2.4772398e+00 
-5.4530764e-01 -5.9366775e-01 2.4590573e+00 
7.9240477e-01 1.3406824e-01 2.4531510e+00 
-5.0750982e-02 3.1086352e-01 2.4058044e+00 
-8.1888330e-01 -4.1976709e-02 2.4115000e+00 
2.2201501e-01 7.4827522e-01 2.4031198e+00 
-1.1235032e-01 -1.3683446e-01 2.4087577e+00 
6.7659879e-01 -5.2132887e-01 2.4245853e+00 
-7.4174470e-01 -3.9017084e-01 2.3925016e+00 
6.0557652e-01 -1.3531554e-01 2.3899577e+00 
-7.3852575e-01 6.7702180e-01 2.3558054e+00 
-4.4599506e-01 3.5959981e-02 2.3637664e+00 
-6.1835015e-01 3.5580999e-01 2.3558054e+00 
7.1430057e-01 4.1969904e-01 2.3679357e+00 
4.6250728e-01 5.8197576e-01 2.3357091e+00 
2.1863358e-01 -7.5875944e-01 2.3452213e+00 
-2.7869514e-01 3.5395613e-01 2.2718232e+00 
-9.9315214e-01 -7.4433602e-02 2.2764611e+00 
9.6404046e-01 2.4125440e-01 2.2814906e+00 
-8.8047755e-01 -4.6337113e-01 2.2767189e+00 
-2.8102416e-01 -7.0678020e-01 2.2763836e+00 
-8.5154623e-01 2.1003886e-01 2.2503104e+00 
-6.2479991e-01 -7.7494872e-01 2.2774742e+00 
3.2451549e-01 9.4534183e-01 2.2435050e+00 
-7.1544148e-02 -1.0059943e+00 2.2769899e+00 
7.9362082e-01 -6.0746425e-01 2.2740157e+00 
9.7632986e-01 -1.9161052e-01 2.2435186e+00 
4.1606498e-01 -5.4290766e-01 2.2309556e+00 
-9.0526992e-01 4.2286241e-01 2.1956031e+00 
7.4621940e-01 6.5964258e-01 2.1999011e+00 
-1.7979085e-01 6.9405681e-01 2.1827714e+00 
-4.2704037e-01 9.0944791e-01 2.1801553e+00 
1.5768395e-01 4.9902222e-01 2.1833110e+00 
1.5195131e-01 -4.2153761e-01 2.2016757e+00 
2.3347636e-01 9.5148712e-02 2.1887076e+00 
5.8949518e-01 1.3658291e-01 2.1885827e+00 
6.8757963e-01 -2.8617615e-01 2.2005033e+00 
-2.0795351e-01 -3.9524677e-01 2.1719232e+00 
4.2704037e-01 -9.0944785e-01 2.1956031e+00 
-5.0998014e-01 -4.4159859e-01 2.1494329e+00 
-3.4027082e-01 -9.7015455e-02 2.1355274e+00 
2.4202831e-02 -1.4264430e-01 2.1387162e+00 
-9.2540197e-02 9.9837965e-01 2.1038148e+00 
-1.4165501e-01 1.0246970e-01 2.1062012e+00 
-5.7378355e-02 -7.1281582e-01 2.1260333e+00 
-7.0560551e-01 -7.8706920e-02 2.1039741e+00 
3.2358617e-01 -2.6015398e-01 2.1131775e+00 
-5.0901788e-01 5.6876945e-01 2.0896678e+00 
1.5593356e-01 8.2359952e-01 2.0856767e+00 
5.6911242e-01 3.9427352e-01 2.0597696e+00 
-6.7711896e-01 7.3945504e-01 2.0104799e+00 
-2.7976716e-01 -9.6743333e-01 2.0405827e+00 
-9.9269176e-01 8.8877343e-02 1.9972950e+00 
1.8958232e-01 -7.1803582e-01 2.0092213e+00 
-5.8983982e-01 2.0695645e-01 1.9725147e+00 
9.6058071e-02 -1.0015054e+00 1.9972950e+00 
-9.5246089e-01 -2.8788394e-01 1.9621359e+00 
6.0446441e-02 2.2249195e-01 1.9292510e+00 
-2.1152170e-01 4.3907946e-01 1.9233457e+00 
-8.5488433e-01 -1.7791331e-02 1.9235232e+00 
6.1391968e-01 -1.7449507e-01 1.9300632e+00 
-2.8345567e-01 1.5938663e-01 1.9013543e+00 
-1.5550394e-01 -3.0940589e-01 1.8686497e+00 
4.6782002e-01 8.8196945e-01 1.8539243e+00 
3.4384310e-01 2.0296397e-03 1.8604198e+00 
-3.9389554e-01 -5.7598168e-01 1.8600682e+00 
9.8095375e-01 1.5842420e-01 1.8352388e+00 
-1.1473498e-01 -6.5086043e-01 1.8286289e+00 
-4.2704037e-01 9.0944791e-01 1.7958100e+00 
-5.4928464e-01 -1.1903145e-01 1.8088343e+00 
-9.0526992e-01 4.2286241e-01 1.7989869e+00 
7.4621940e-01 6.5964258e-01 1.8081511e+00 
9.6263185e-02 5.5054885e-01 1.7766591e+00 
8.2428634e-01 -5.6405270e-01 1.8052266e+00 
1.2382065e-01 9.9335861e-01 1.7606890e+00 
4.2704037e-01 -9.0944785e-01 1.7989869e+00 
3.6617118e-01 -3.7900871e-01 1.7598525e+00 
-6.7782271e-01 5.5195105e-01 1.7115505e+00 
-9.9315220e-01 -7.4433550e-02 1.7235389e+00 
-7.6634878e-01 -6.3359451e-01 1.7226332e+00 
-4.5518446e-01 -8.9202064e-01 1.7225529e+00 
-7.1544163e-02 -1.0059943e+00 1.7230102e+00 
8.0604976e-01 -3.1300604e-02 1.6993071e+00 
-2.1895479e-01 7.0822662e-01 1.6612903e+00 
1.2937866e-01 -4.3373373e-01 1.6785930e+00 
-7.1899593e-01 2.0073397e-01 1.6593006e+00 
3.6602709e-02 -3.0649830e-02 1.6655091e+00 
6.3828731e-01 3.3365929e-01 1.6681859e+00 
-4.4700858e-01 3.4386039e-01 1.6529484e+00 
4.2721003e-01 6.4469254e-01 1.6555831e+00 
-6.7454290e-01 7.4184424e-01 1.6397083e+00 
-4.3265450e-01 -2.2959834e-01 1.6481678e+00 
2.5174427e-01 2.6071176e-01 1.6197015e+00 
-1.1285763e-01 2.9966441e-01 1.6109132e+00 
4.6636611e-01 -5.7129625e-02 1.6161476e+00 
-7.3627317e-01 -1.4757371e-01 1.6032782e+00 
6.9098181e-01 -3.4351882e-01 1.6185144e+00 
-3.7982118e-01 -7.5499111e-01 1.6060522e+00 
1.7463718e-01 7.7066356e-01 1.5728306e+00 
3.8555196e-01 -6.7493439e-01 1.6071728e+00 
-3.7219822e-01 4.1032374e-02 1.5737573e+00 
-5.8420980e-01 -5.5459887e-01 1.5408134e+00 
-1.4981705e-01 -7.9198146e-01 1.5456780e+00 
-2.0707688e-01 -4.6628326e-01 1.5263329e+00 
-9.2756766e-01 -3.5991186e-01 1.5236167e+00 
1.0548676e-01 -6.7484313e-01 1.5291504e+00 
-4.2704037e-01 9.0944791e-01 1.4836066e+00 
9.2976534e-01 3.5180092e-01 1.5074213e+00 
-9.9675372e-02 9.9774474e-01 1.4779216e+00 
-9.0526992e-01 4.2286241e-01 1.4812527e+00 
7.4621940e-01 6.5964258e-01 1.4904124e+00 
9.6927100e-01 -2.2569178e-01 1.5071782e+00 
-9.9033815e-01 1.1277043e-01 1.4711668e+00 
4.0480188e-01 9.1315669e-01 1.4554248e+00 
7.0527589e-01 -7.1040654e-01 1.4946187e+00 
4.2704037e-01 -9.0944785e-01 1.4812527e+00 
9.9154907e-01 6.5942802e-02 1.4620820e+00 
-1.4498775e-01 -1.4432818e-01 1.4382532e+00 
1.6832697e-01 9.8644674e-01 1.4210222e+00 
1.2148536e-01 -9.9824673e-01 1.4649631e+00 
-6.3129848e-01 3.8465574e-01 1.4185234e+00 
1.0066377e-01 5.2103877e-01 1.4128243e+00 
8.7194443e-01 -4.8501539e-01 1.4508061e+00 
-8.2770401e-01 -5.5184746e-01 1.4329504e+00 
-9.8629767e-01 -1.3572690e-01 1.4216948e+00 
-5.4285008e-01 -8.3747512e-01 1.4327332e+00 
4.4766918e-01 -3.4428495e-01 1.4206219e+00 
-3.6419401e-01 -9.3642861e-01 1.4321992e+00 
-8.6720890e-01 2.5328949e-01 1.3945253e+00 
-7.1268636e-01 -6.9329590e-01 1.3955007e+00 
7.4212366e-01 -6.9999918e-02 1.3908355e+00 
-3.6739242e-01 3.6846936e-01 1.3618146e+00 
-1.3243835e-01 -1.0000033e+00 1.4019248e+00 
-3.5618630e-01 -3.9283386e-01 1.3755184e+00 
4.1433513e-01 9.5905446e-02 1.3428706e+00 
7.7153599e-01 2.7058721e-01 1.3454498e+00 
-7.6636517e-01 -3.0802044e-01 1.3422509e+00 
-6.1198026e-01 3.7799287e-01 1.3230658e+00 
-3.5840046e-01 -7.1526271e-01 1.3489379e+00 
-2.7464926e-01 7.0756358e-01 1.3130673e+00 
-5.9142208e-01 3.0233976e-01 1.3116571e+00 
5.1549494e-01 5.3133047e-01 1.3154182e+00 
-7.0560241e-01 7.1186322e-01 1.2926241e+00 
1.4943233e-01 7.9046053e-01 1.2820115e+00 
3.6749139e-01 -6.6018009e-01 1.3124294e+00 
6.9676363e-01 -3.6541814e-01 1.3043016e+00 
-1.8152617e-02 -2.2816159e-02 1.2758656e+00 
1.1722709e-01 -4.0826455e-01 1.2790658e+00 
-3.4676126e-01 3.2940082e-02 1.2534747e+00 
-5.7432866e-01 -5.7317972e-01 1.2655683e+00 
-1.8656135e-01 9.8584998e-01 1.2318450e+00 
-1.2467162e-01 -8.1137288e-01 1.2682375e+00 
5.4922432e-01 -1.8173082e-01 1.2553084e+00 
-7.4819547e-01 7.4707240e-02 1.2385230e+00 
-4.2704037e-01 9.0944791e-01 1.2237502e+00 
5.4504162e-01 8.3571392e-01 1.2295662e+00 
8.9501530e-01 4.3341693e-01 1.2419620e+00 
-9.0526992e-01 4.2286241e-01 1.2200507e+00 
7.4621940e-01 6.5964258e-01 1.2262764e+00 
9.5122613e-02 9.9673462e-01 1.2057918e+00 
3.0505261e-01 9.5196074e-01 1.2052835e+00 
9.8385787e-01 1.3924082e-01 1.2276615e+00 
9.8925173e-01 -1.0094744e-01 1.2329106e+00 
6.4436561e-01 -7.6738167e-01 1.2359850e+00 
9.3806189e-01 -3.3511046e-01 1.2270193e+00 
-9.8826641e-01 1.3010934e-01 1.1948769e+00 
1.9134669e-01 -7.0194429e-01 1.2174336e+00 
-9.9319255e-01 -7.3931478e-02 1.1954495e+00 
8.3715570e-01 -5.4427272e-01 1.2199883e+00 
-9.5659941e-01 -2.7392220e-01 1.1947021e+00 
4.2704037e-01 -9.0944785e-01 1.2200507e+00 
-8.8081551e-01 -4.6272847e-01 1.1964597e+00 
-5.1207834e-01 -1.8193138e-01 1.1843824e+00 
-7.6763427e-01 -6.3204795e-01 1.1944458e+00 
-6.2392086e-01 -7.7568316e-01 1.1947409e+00 
-4.5596859e-01 -8.9158559e-01 1.1949867e+00 
6.9632143e-02 2.9877502e-01 1.1596820e+00 
-2.6870209e-01 -9.7080761e-01 1.1944312e+00 
-6.8878211e-02 -1.0061610e+00 1.1950203e+00 
1.3514073e-01 -9.9622512e-01 1.1958479e+00 
-8.1749487e-01 2.8121087e-01 1.1403723e+00 
2.4468169e-01 -1.9369796e-01 1.1514436e+00 
7.8039551e-01 1.4736210e-02 1.1470752e+00 
-8.0285972e-01 -1.4239258e-01 1.1254286e+00 
3.8295773e-01 -5.0670356e-01 1.1412408e+00 
-4.2704040e-01 9.0944791e-01 1.0000000e+00 
-2.2439384e-01 9.7821748e-01 1.0000000e+00 
-6.2512773e-01 7.8459823e-01 1.0000000e+00 
-9.5289886e-02 7.8653902e-01 1.0000000e+00 
-1.1707660e-02 1.0019978e+00 1.0000000e+00 
-3.4790182e-01 5.2261239e-01 1.0000000e+00 
-7.8843534e-01 6.1697257e-01 1.0000000e+00 
-6.6040945e-01 4.3324265e-01 1.0000000e+00 
2.0117100e-01 9.8001724e-01 1.0000000e+00 
4.6145484e-02 5.2040505e-01 1.0000000e+00 
2.3897250e-01 7.5202763e-01 1.0000000e+00 
-9.0526992e-01 4.2286241e-01 1.0000000e+00 
-4.8170662e-01 1.5276419e-01 1.0000000e+00 
4.0451273e-01 9.1328734e-01 1.0000000e+00 
-1.9122994e-01 9.6440777e-02 1.0000000e+00 
-9.7033232e-01 2.3000689e-01 1.0000000e+00 
-8.1401545e-01 9.9646054e-02 1.0000000e+00 
5.8902699e-01 8.0486763e-01 1.0000000e+00 
5.2862376e-01 5.8180130e-01 1.0000000e+00 
3.8711795e-01 2.9074484e-01 1.0000000e+00 
-9.9605566e-01 2.8128905e-02 1.0000000e+00 
-3.6734724e-01 -1.5038472e-01 1.0000000e+00 
1.6738012e-01 -1.1426354e-02 1.0000000e+00 
7.4621940e-01 6.5964258e-01 1.0000000e+00 
-9.7993863e-01 -1.7473318e-01 1.0000000e+00 
-1.1924902e-02 -2.3232388e-01 1.0000000e+00 
7.1063876e-01 2.8225577e-01 1.0000000e+00 
-7.0374107e-01 -3.6959827e-01 1.0000000e+00 
5.4099095e-01 -1.4090877e-02 1.0000000e+00 
8.7557495e-01 4.7186005e-01 1.0000000e+00 
-9.2348188e-01 -3.7026563e-01 1.0000000e+00 
-2.3942623e-01 -4.9196234e-01 1.0000000e+00 
3.8923314e-01 -2.7295443e-01 1.0000000e+00 
-8.2871377e-01 -5.5034202e-01 1.0000000e+00 
9.6048021e-01 2.5518250e-01 1.0000000e+00 
-4.9600703e-01 -6.2275928e-01 1.0000000e+00 
1.2863716e-01 -5.4761946e-01 1.0000000e+00 
7.1744889e-01 -2.5814715e-01 1.0000000e+00 
-6.9900227e-01 -7.0718569e-01 1.0000000e+00 
9.9364799e-01 2.0386362e-02 1.0000000e+00 
-2.1165068e-01 -7.7861553e-01 1.0000000e+00 
5.3950202e-01 -5.3058106e-01 1.0000000e+00 
-5.4266512e-01 -8.3760321e-01 1.0000000e+00 
9.7042090e-01 -2.2052187e-01 1.0000000e+00 
1.0448650e-01 -7.9873216e-01 1.0000000e+00 
3.4091640e-01 -7.5948125e-01 1.0000000e+00 
-3.6465743e-01 -9.3623203e-01 1.0000000e+00 
8.9283442e-01 -4.4429353e-01 1.0000000e+00 
-1.6968013e-01 -9.9423677e-01 1.0000000e+00 
7.6987964e-01 -6.3800728e-01 1.0000000e+00 
3.3367950e-02 -1.0066855e+00 1.0000000e+00 
6.1128289e-01 -7.9461396e-01 1.0000000e+00 
2.3454952e-01 -9.7589320e-01 1.0000000e+00 
4.2704040e-01 -9.0944791e-01 1.0000000e+00 

CELLS 22633 113165
4 0 2 3 1
4 67 50 57 58
4 50 57 58 45
4 57 67 58 70
4 63 43 62 55
4 62 63 55 80
4 4258 4254 4279 4269
4 4258 4254 4269 4227
4 20 24 29 21
4 20 24 21 14
4 29 20 21 31
4 155 143 151 150
4 660 649 645 658
4 21 20 14 12
4 21 20 12 23
4 143 151 150 139
4 660 649 658 668
4 658 660 668 674
4 24 38 29 30
4 38 29 30 45
4 29 24 30 21
4 30 29 21 34
4 29 30 45 48
4 50 38 45 44
4 45 50 44 58
4 38 45 44 29
4 44 45 58 61
4 45 44 29 46
4 582 568 575 577
4 404 401 393 408
4 18 13 25 19
4 69 78 81 70
4 69 78 70 67
4 70 69 67 58
4 81 69 70 76
4 70 69 58 76
4 617 609 603 602
4 4 6 11 5
4 4 6 5 1
4 5 4 1 2
4 11 4 5 13
4 134 123 129 128
4 123 129 128 119
4 129 134 128 139
4 128 129 139 141
4 129 128 119 127
4 207 196 200 199
4 196 200 199 190
4 200 207 199 210
4 3247 3228 3227 3234
4 3228 3227 3234 3206
4 637 623 631 634
4 645 637 631 644
4 88 78 82 81
4 82 88 81 95
4 78 82 81 70
4 81 82 95 91
4 82 81 70 76
4 57 58 45 66
4 58 57 70 66
4 6 14 11 12
4 14 11 12 20
4 11 12 20 22
4 11 6 12 5
4 12 11 5 16
4 644 658 653 654
4 591 582 575 590
4 681 668 674 673
4 649 637 645 644
4 412 401 404 408
4 568 555 562 564
4 4254 4279 4269 4300
4 649 658 644 645
4 609 596 603 602
4 603 596 591 590
4 143 134 139 140
4 134 139 140 128
4 139 143 140 150
4 9 13 18 10
4 623 609 617 618
4 631 623 617 618
4 43 28 42 39
4 596 582 591 590
4 575 568 562 564
4 151 155 150 159
4 150 151 159 152
4 155 166 161 159
4 161 155 159 150
4 4279 4309 4288 4291
4 4288 4279 4291 4269
4 244 236 240 239
4 151 150 139 141
4 236 240 239 230
4 51 47 60 49
4 472 464 458 471
4 31 46 47 34
4 549 542 537 535
4 542 537 535 530
4 537 535 530 523
4 42 43 39 55
4 27 35 41 40
4 35 41 40 53
4 515 502 509 511
4 728 717 715 719
4 717 715 719 704
4 715 728 719 718
4 215 225 222 221
4 225 222 221 230
4 222 215 221 211
4 425 412 420 418
4 16 10 19 13
4 555 542 549 548
4 446 440 435 445
4 33 31 47 37
4 28 17 26 19
4 509 502 498 511
4 103 114 107 108
4 114 107 108 118
4 107 103 108 96
4 108 107 96 100
4 107 108 118 113
4 478 464 472 471
4 4681 4644 4655 4657
4 4655 4681 4657 4703
4 4644 4655 4657 4633
4 81 88 96 95
4 88 96 95 103
4 96 81 95 86
4 96 95 103 108
4 96 95 108 104
4 440 425 435 434
4 34 23 37 31
4 458 452 446 445
4 658 644 645 654
4 25 22 33 27
4 161 166 170 169
4 199 200 210 202
4 404 412 408 420
4 13 22 25 16
4 118 123 128 119
4 118 123 119 114
4 128 118 119 125
4 119 118 114 108
4 119 118 108 117
4 562 555 549 548
4 23 27 37 33
4 530 515 523 521
4 515 523 521 509
4 523 530 521 535
4 402 387 395 394
4 402 387 394 393
4 387 395 394 383
4 395 402 394 407
4 395 402 407 413
4 47 59 60 49
4 63 62 79 80
4 3247 3228 3234 3253
4 4279 4288 4258 4269
4 452 440 446 445
4 166 161 159 169
4 727 714 720 718
4 4279 4291 4269 4300
4 46 61 59 48
4 502 490 498 497
4 159 161 150 162
4 15 7 9 8
4 16 19 27 25
4 435 425 420 434
4 47 46 59 49
4 43 42 62 55
4 498 490 485 497
4 236 225 230 229
4 225 230 229 222
4 230 236 229 239
4 3455 3471 3474 3470
4 3471 3474 3470 3494
4 3471 3474 3494 3505
4 254 244 251 250
4 244 251 250 240
4 251 254 250 258
4 23 16 27 22
4 196 185 190 189
4 185 190 189 182
4 190 196 189 199
4 190 189 182 188
4 25 33 40 27
4 3 2 8 10
4 490 478 485 482
4 22 31 33 23
4 139 140 128 141
4 140 139 150 141
4 37 27 41 33
4 32 25 40 27
4 485 478 472 471
4 3227 3247 3234 3259
4 464 452 458 461
4 240 244 239 250
4 4309 4335 4350 4333
4 4335 4350 4333 4359
4 4335 4350 4359 4379
4 4309 4335 4333 4300
4 674 660 669 658
4 491 479 483 484
4 728 717 719 737
4 491 479 484 485
4 727 720 736 734
4 736 727 734 745
4 734 736 745 748
4 333 323 328 327
4 323 328 327 320
4 328 333 327 338
4 221 222 211 223
4 3474 3494 3505 3502
4 3494 3505 3502 3528
4 86 100 98 91
4 385 373 379 378
4 373 379 378 371
4 379 385 378 393
4 435 440 434 445
4 394 387 383 378
4 64 49 65 59
4 28 26 42 36
4 294 290 298 297
4 298 294 297 303
4 297 298 303 311
4 718 727 734 720
4 174 185 179 182
4 185 179 182 189
4 179 174 182 170
4 179 182 189 184
4 182 179 170 172
4 401 385 393 392
4 385 393 392 378
4 393 401 392 408
4 412 420 418 408
4 48 34 49 46
4 2 7 8 9
4 264 258 270 269
4 270 264 269 273
4 269 270 273 279
4 98 100 109 102
4 394 395 407 396
4 4333 4335 4359 4300
4 10 16 5 13
4 639 631 624 634
4 3715 3736 3738 3725
4 3736 3738 3725 3765
4 3738 3715 3725 3708
4 166 174 170 169
4 174 170 169 182
4 170 169 182 176
4 264 254 258 257
4 258 264 257 269
4 254 258 257 250
4 429 441 426 432
4 426 429 432 419
4 441 426 432 435
4 426 429 419 413
4 432 426 419 418
4 8 17 10 15
4 3455 3471 3470 3443
4 189 190 199 194
4 189 190 194 188
4 71 73 83 75
4 283 273 279 278
4 273 279 278 269
4 279 283 278 290
4 230 229 222 223
4 76 75 87 83
4 669 660 654 658
4 4644 4655 4633 4614
4 18 25 32 19
4 200 199 190 194
4 479 483 484 467
4 34 37 49 47
4 199 207 211 210
4 207 211 210 215
4 211 199 210 209
4 211 210 215 221
4 352 342 349 348
4 342 349 348 338
4 349 352 348 356
4 3474 3470 3494 3486
4 22 13 11 16
4 610 603 597 602
4 161 159 169 162
4 3555 3528 3535 3543
4 3528 3535 3543 3516
4 3528 3535 3516 3507
4 3535 3555 3543 3575
4 3535 3543 3516 3507
4 660 645 654 658
4 454 441 449 447
4 449 454 447 467
4 454 441 447 446
4 441 449 447 432
4 745 736 752 748
4 323 313 320 319
4 313 320 319 311
4 320 323 319 327
4 3474 3455 3470 3450
4 3494 3471 3505 3507
4 3505 3494 3507 3516
4 3505 3494 3516 3528
4 3507 3505 3516 3528
4 3494 3507 3516 3514
4 59 61 71 64
4 603 591 597 590
4 714 720 718 706
4 66 64 75 71
4 9 13 10 4
4 61 73 71 66
4 631 617 624 618
4 420 425 418 434
4 239 240 250 247
4 76 66 75 73
4 714 702 706 705
4 294 283 290 289
4 283 290 289 278
4 290 294 289 297
4 402 407 413 419
4 407 413 419 422
4 624 617 610 618
4 395 394 383 396
4 3791 3799 3823 3806
4 3791 3799 3806 3777
4 3791 3799 3777 3765
4 3799 3823 3806 3843
4 3799 3806 3777 3790
4 645 631 639 644
4 222 221 230 223
4 66 48 64 61
4 653 634 644 639
4 402 394 407 408
4 83 86 98 87
4 591 575 583 590
4 170 161 169 162
4 49 52 65 60
4 52 65 60 68
4 654 645 639 644
4 229 230 239 234
4 73 86 83 76
4 617 603 610 602
4 41 27 40 33
4 4655 4657 4633 4703
4 48 49 64 59
4 15 26 17 18
4 759 745 752 748
4 387 395 383 376
4 383 387 376 371
4 3470 3471 3494 3485
4 597 591 583 590
4 4309 4288 4291 4317
4 240 239 230 234
4 4117 4079 4097 4096
4 58 69 73 76
4 404 393 402 408
4 121 132 130 126
4 373 378 367 371
4 11 12 22 16
4 3830 3808 3790 3806
4 3808 3790 3806 3799
4 3806 3808 3799 3843
4 3830 3808 3806 3843
4 582 590 577 575
4 479 472 466 471
4 104 91 102 100
4 34 23 31 21
4 420 435 434 433
4 435 434 433 447
4 5772 5800 5771 5782
4 5800 5771 5782 5802
4 557 549 544 548
4 603 596 590 602
4 777 759 767 765
4 537 549 535 544
4 874 879 890 888
4 21 20 23 31
4 290 298 297 293
4 75 77 85 84
4 77 85 84 90
4 85 84 90 97
4 85 84 97 83
4 3474 3470 3486 3450
4 4386 4356 4367 4373
4 4356 4367 4373 4341
4 4386 4356 4373 4370
4 4356 4367 4341 4317
4 4373 4356 4341 4346
4 4367 4386 4373 4400
4 4367 4373 4341 4369
4 472 485 471 479
4 349 348 338 347
4 74 84 90 77
4 74 84 77 71
4 18 9 10 15
4 289 290 297 293
4 515 521 511 509
4 379 378 371 387
4 447 441 432 435
4 104 102 115 109
4 562 549 557 548
4 3494 3470 3485 3491
4 503 516 509 511
4 434 435 445 447
4 3806 3791 3777 3787
4 767 760 779 765
4 419 426 413 420
4 125 137 132 127
4 483 491 484 501
4 258 257 250 259
4 46 31 29 34
4 472 458 466 471
4 28 26 36 19
4 132 137 144 138
4 364 367 357 356
4 40 41 33 51
4 40 41 51 53
4 3022 3032 3045 3035
4 3032 3045 3035 3061
4 467 466 454 462
4 467 466 462 479
4 466 454 462 458
4 290 289 278 285
4 290 289 285 293
4 87 75 85 83
4 46 61 48 45
4 3777 3791 3765 3766
4 3277 3253 3247 3261
4 3253 3247 3261 3234
4 3277 3253 3261 3281
4 3247 3277 3261 3259
4 3247 3261 3234 3259
4 544 531 534 536
4 544 531 536 535
4 531 534 536 517
4 394 383 396 384
4 394 383 384 378
4 777 767 786 783
4 668 658 674 673
4 23 16 22 12
4 100 113 109 104
4 4 5 13 10
4 4 5 10 2
4 429 441 432 449
4 685 686 681 687
4 685 686 687 702
4 498 485 491 497
4 5089 5096 5062 5082
4 5089 5096 5082 5142
4 5062 5089 5082 5068
4 5062 5089 5068 5043
4 5089 5082 5068 5121
4 583 575 569 577
4 435 446 445 447
4 120 121 130 126
4 4291 4288 4269 4280
4 4291 4288 4280 4317
4 22 31 23 20
4 464 471 461 458
4 407 395 413 405
4 720 736 734 730
4 117 115 126 121
4 537 523 531 535
4 4097 4117 4096 4125
4 3708 3688 3715 3704
4 3715 3708 3704 3725
4 3708 3688 3704 3684
4 3688 3715 3704 3702
4 3704 3715 3725 3702
4 503 491 501 496
4 503 491 496 498
4 501 503 496 517
4 279 278 269 280
4 27 19 35 32
4 35 27 32 40
4 32 35 40 53
4 407 394 396 403
4 407 394 403 408
4 3543 3528 3516 3523
4 109 113 121 115
4 392 393 408 394
4 65 49 60 59
4 61 46 44 45
4 446 435 441 447
4 4034 3985 4004 4009
4 3985 4004 4009 3975
4 3985 4004 3975 3939
4 4004 4034 4009 4047
4 4004 4009 3975 3991
4 393 379 387 378
4 4657 4644 4633 4631
4 3799 3777 3765 3770
4 3777 3765 3770 3725
4 2944 2932 2958 2941
4 2944 2932 2941 2918
4 2958 2944 2941 2964
4 2944 2941 2964 2947
4 352 364 357 356
4 117 104 115 113
4 523 521 509 516
4 199 189 194 197
4 189 194 197 184
4 194 199 197 202
4 197 194 202 198
4 194 197 184 193
4 3199 3206 3228 3215
4 3199 3206 3215 3172
4 3206 3228 3215 3234
4 3228 3215 3234 3229
4 637 644 634 631
4 544 537 531 535
4 759 752 767 765
4 33 47 51 37
4 30 29 34 48
4 383 395 396 388
4 102 101 110 106
4 101 110 106 112
4 509 498 503 511
4 4849 4809 4833 4825
4 4833 4849 4825 4877
4 4809 4833 4825 4811
4 251 250 240 247
4 320 319 311 321
4 97 98 106 102
4 342 348 337 338
4 4279 4309 4291 4300
4 478 482 471 485
4 3715 3736 3725 3702
4 429 419 413 422
4 115 102 110 109
4 4079 4097 4096 4047
4 3528 3505 3535 3507
4 990 985 998 991
4 990 985 991 974
4 985 998 991 999
4 998 990 991 1009
4 734 718 720 730
4 98 109 106 102
4 458 446 454 447
4 258 270 269 266
4 200 199 194 202
4 19 27 25 32
4 3494 3474 3486 3502
4 60 59 74 65
4 74 60 65 68
4 352 357 348 356
4 418 420 434 433
4 434 418 433 421
4 348 349 356 347
4 91 87 102 98
4 575 562 569 564
4 395 383 376 388
4 531 523 516 521
4 4288 4258 4269 4280
4 269 270 279 280
4 786 767 779 783
4 113 125 121 117
4 48 34 46 29
4 5168 5180 5142 5163
4 5142 5168 5163 5147
4 5168 5180 5163 5214
4 5142 5168 5147 5121
4 569 562 557 564
4 257 258 269 259
4 2 3 1 5
4 250 251 258 259
4 4350 4333 4359 4369
4 4333 4359 4369 4358
4 4359 4350 4369 4383
4 37 41 52 51
4 41 52 51 53
4 364 373 367 371
4 395 407 396 405
4 429 432 419 427
4 91 76 87 86
4 521 523 535 531
4 211 210 221 223
4 121 125 132 126
4 435 420 426 433
4 426 435 433 432
4 433 426 432 418
4 435 433 432 447
4 433 432 447 439
4 433 432 439 421
4 432 447 439 427
4 432 433 418 421
4 446 458 445 447
4 278 279 290 285
4 4030 4001 3986 4006
4 4001 3986 4006 3946
4 801 786 793 800
4 19 35 32 39
4 35 32 39 53
4 3822 3823 3857 3836
4 3822 3823 3836 3806
4 3823 3857 3836 3843
4 3857 3822 3836 3852
4 129 128 127 141
4 3822 3823 3806 3791
4 4744 4746 4778 4759
4 4744 4746 4759 4715
4 1789 1809 1787 1798
4 1787 1789 1798 1773
4 49 48 46 59
4 4655 4633 4614 4703
4 4220 4238 4256 4240
4 4220 4238 4240 4206
4 4238 4256 4240 4276
4 2010 1997 1993 2004
4 1993 2010 2004 2014
4 176 165 173 172
4 119 118 117 125
4 5299 5338 5324 5321
4 5324 5299 5321 5298
4 5338 5324 5321 5375
4 5324 5299 5298 5276
4 5299 5321 5298 5274
4 5321 5324 5298 5348
4 144 156 153 147
4 91 104 95 100
4 51 33 37 41
4 4151 4166 4189 4168
4 4151 4166 4168 4132
4 4166 4189 4168 4204
4 1016 1020 1028 1021
4 1016 1020 1021 999
4 1020 1028 1021 1036
4 1028 1016 1021 1026
4 4825 4809 4811 4789
4 4825 4809 4789 4806
4 4825 4809 4806 4849
4 2716 2717 2694 2709
4 2694 2716 2709 2706
4 387 394 393 378
4 5401 5379 5367 5391
4 5401 5379 5391 5429
4 5367 5401 5391 5402
4 297 303 309 311
4 303 309 311 313
4 309 311 313 319
4 309 297 311 306
4 309 311 319 312
4 309 297 306 299
4 311 309 306 312
4 297 306 299 307
4 309 306 312 299
4 306 299 307 308
4 306 312 299 308
4 64 66 61 71
4 521 511 509 516
4 4400 4420 4386 4401
4 4400 4420 4401 4441
4 4386 4400 4401 4373
4 4401 4386 4373 4398
4 749 755 764 756
4 749 755 756 737
4 755 764 756 770
4 764 749 756 757
4 5 11 13 16
4 33 22 23 27
4 193 197 206 198
4 98 86 91 87
4 3455 3470 3450 3441
4 3450 3455 3441 3424
4 3455 3470 3441 3443
4 3455 3441 3424 3443
4 3441 3450 3424 3425
4 125 137 127 128
4 4074 4091 4114 4093
4 4074 4091 4093 4048
4 4091 4114 4093 4132
4 826 820 835 833
4 4633 4657 4631 4642
4 4633 4657 4642 4648
4 4642 4633 4648 4604
4 3856 3853 3898 3872
4 3856 3853 3872 3826
4 2 3 5 10
4 4765 4802 4766 4783
4 4802 4766 4783 4793
4 4766 4765 4783 4734
4 734 748 728 730
4 125 113 118 117
4 71 59 64 74
4 717 737 731 729
4 717 737 729 719
4 729 717 719 708
4 737 731 729 749
4 737 729 719 740
4 719 729 708 722
4 719 729 722 740
4 729 722 740 733
4 729 722 733 708
4 731 717 729 713
4 717 719 708 704
4 163 147 157 156
4 27 16 25 22
4 4309 4291 4300 4333
4 4309 4291 4333 4317
4 4333 4309 4317 4350
4 3152 3175 3178 3167
4 3175 3178 3167 3202
4 3152 3175 3167 3146
4 3178 3152 3167 3163
4 168 172 180 173
4 624 610 622 620
4 624 610 620 618
4 610 620 618 602
4 620 624 618 634
4 620 618 602 606
4 618 620 634 625
4 618 620 625 606
4 620 625 606 614
4 4341 4356 4317 4346
4 4220 4191 4206 4207
4 4191 4206 4207 4169
4 4206 4220 4207 4240
4 3471 3494 3485 3507
4 4030 4001 4006 4057
4 49 37 52 51
4 52 49 51 60
4 51 52 60 68
4 51 52 68 53
4 2958 2944 2964 2968
4 2944 2964 2968 2947
4 2964 2968 2947 2978
4 2964 2968 2978 2987
4 2964 2968 2987 2958
4 4638 4677 4648 4642
4 4648 4638 4642 4604
4 4677 4648 4642 4657
4 162 172 168 165
4 37 34 31 47
4 590 577 575 583
4 4474 4455 4486 4470
4 4455 4486 4470 4478
4 4474 4455 4470 4439
4 4486 4474 4470 4512
4 2076 2069 2051 2063
4 2069 2051 2063 2055
4 2076 2069 2063 2093
4 2069 2051 2055 2037
4 2063 2069 2055 2088
4 2051 2076 2063 2050
4 2051 2063 2055 2040
4 4681 4644 4657 4680
4 4657 4681 4680 4696
4 4657 4681 4696 4703
4 4681 4680 4696 4715
4 4680 4696 4715 4710
4 4696 4681 4715 4703
4 383 376 388 377
4 3739 3708 3738 3724
4 3738 3739 3724 3766
4 21 29 31 34
4 64 75 71 77
4 5068 5062 5043 5042
4 4076 4032 4056 4054
4 4032 4056 4054 4008
4 4056 4076 4054 4095
4 786 779 793 783
4 121 109 115 120
4 3824 3852 3853 3845
4 3824 3852 3845 3822
4 3852 3853 3845 3895
4 3853 3824 3845 3826
4 81 82 91 76
4 5295 5256 5261 5271
4 5295 5256 5271 5296
4 5256 5261 5271 5214
4 5261 5295 5271 5276
4 688 686 705 689
4 297 298 311 307
4 49 34 47 46
4 4204 4236 4219 4221
4 4236 4219 4221 4255
4 4219 4204 4221 4189
4 1644 1625 1632 1637
4 141 138 147 144
4 194 189 188 184
4 188 194 184 193
4 2759 2763 2783 2770
4 2759 2763 2770 2735
4 2763 2783 2770 2791
4 592 606 601 599
4 592 606 599 602
4 606 601 599 619
4 601 592 599 584
4 117 127 119 125
4 117 127 125 126
4 85 75 84 83
4 4117 4095 4079 4096
4 1127 1144 1135 1145
4 419 429 427 422
4 3727 3712 3737 3722
4 3727 3712 3722 3692
4 3712 3737 3722 3710
4 3737 3727 3722 3758
4 3737 3727 3758 3763
4 3727 3722 3758 3732
4 3722 3737 3758 3744
4 3727 3758 3763 3732
4 4397 4437 4425 4423
4 4437 4425 4423 4460
4 83 98 97 87
4 4350 4333 4369 4341
4 4350 4333 4341 4317
4 4341 4350 4317 4367
4 4341 4350 4367 4369
4 4333 4369 4341 4340
4 4333 4341 4317 4280
4 4350 4367 4369 4383
4 4367 4369 4383 4400
4 432 439 421 427
4 4458 4459 4491 4469
4 4458 4459 4469 4434
4 4458 4459 4434 4424
4 4434 4458 4424 4441
4 4424 4434 4441 4401
4 2328 2352 2349 2337
4 2352 2349 2337 2377
4 2349 2328 2337 2327
4 73 61 58 66
4 61 58 66 45
4 87 102 98 97
4 3583 3603 3580 3588
4 3580 3583 3588 3558
4 571 584 567 573
4 584 567 573 576
4 567 571 573 558
4 466 462 479 471
4 5096 5062 5082 5059
4 4153 4116 4133 4136
4 4116 4133 4136 4095
4 4133 4153 4136 4169
4 843 853 860 852
4 117 104 113 108
4 3853 3895 3898 3872
4 4539 4526 4563 4544
4 4539 4526 4544 4509
4 4563 4539 4544 4578
4 4526 4563 4544 4543
4 890 906 898 893
4 452 461 445 458
4 461 445 458 447
4 4370 4334 4356 4346
4 4334 4356 4346 4317
4 789 806 799 798
4 789 806 798 800
4 806 799 798 816
4 799 789 798 781
4 87 85 101 97
4 85 101 97 90
4 101 87 97 102
4 180 184 193 186
4 569 557 570 566
4 569 557 566 564
4 570 569 566 583
4 557 566 564 548
4 566 569 564 577
4 566 564 548 558
4 564 566 577 571
4 566 564 558 571
4 558 566 571 573
4 566 571 573 583
4 4367 4373 4369 4400
4 3215 3206 3234 3208
4 4034 4008 3985 4009
4 2259 2263 2238 2253
4 2259 2263 2253 2284
4 2238 2259 2253 2236
4 141 127 138 137
4 4947 4983 4990 4969
4 4983 4990 4969 5026
4 172 184 180 176
4 1866 1888 1864 1876
4 1888 1864 1876 1890
4 1864 1866 1876 1849
4 128 140 137 141
4 83 73 76 75
4 3765 3736 3770 3725
4 767 752 760 765
4 18 13 19 10
4 19 18 10 17
4 396 383 388 377
4 3982 3995 3942 3974
4 3942 3982 3974 3941
4 3982 3995 3974 4032
4 752 746 760 748
4 3528 3516 3523 3494
4 3852 3857 3897 3871
4 3852 3857 3871 3836
4 644 634 631 639
4 1735 1719 1741 1733
4 1741 1735 1733 1751
4 1735 1719 1733 1714
4 393 392 378 394
4 32 18 19 36
4 4220 4256 4236 4240
4 2404 2381 2397 2394
4 2381 2397 2394 2368
4 2397 2404 2394 2421
4 138 126 133 132
4 534 544 536 552
4 4514 4508 4480 4496
4 4508 4480 4496 4469
4 606 625 619 614
4 879 890 888 897
4 890 888 897 905
4 1306 1315 1296 1305
4 1306 1315 1305 1318
4 1296 1306 1305 1289
4 348 337 338 339
4 3687 3712 3692 3699
4 3712 3692 3699 3722
4 3699 3712 3722 3710
4 3687 3712 3699 3710
4 3692 3687 3699 3659
4 4644 4633 4631 4612
4 5772 5771 5728 5782
4 71 83 84 75
4 83 86 87 76
4 4424 4400 4383 4399
4 4400 4383 4399 4369
4 4424 4400 4399 4401
4 4400 4399 4401 4369
4 568 575 577 564
4 418 420 433 426
4 418 420 426 419
4 106 109 120 110
4 106 109 110 102
4 120 106 110 112
4 190 200 194 202
4 3022 3032 3035 3013
4 3022 3032 3013 3006
4 3032 3035 3013 3006
4 3035 3022 3013 3026
4 3035 3022 3026 3049
4 3013 3035 3026 3023
4 3026 3035 3049 3050
4 4132 4091 4116 4115
4 4091 4116 4115 4076
4 4116 4132 4115 4136
4 4115 4116 4136 4095
4 835 827 846 833
4 2941 2958 2964 2965
4 3895 3852 3897 3871
4 51 47 49 37
4 5062 5059 5031 5042
4 881 863 874 878
4 3507 3516 3514 3540
4 75 66 71 73
4 165 163 173 168
4 597 583 587 589
4 597 583 589 590
4 583 587 589 573
4 4079 4095 4056 4082
4 4079 4095 4082 4096
4 4056 4079 4082 4034
4 4082 4079 4096 4055
4 2571 2541 2547 2559
4 2541 2547 2559 2521
4 2547 2571 2559 2569
4 73 86 76 69
4 4873 4916 4915 4899
4 4916 4915 4899 4947
4 4915 4873 4899 4868
4 664 680 672 670
4 664 680 670 673
4 680 672 670 682
4 680 672 682 692
4 670 680 682 678
4 672 664 670 655
4 672 670 682 671
4 3470 3494 3486 3491
4 4639 4612 4644 4631
4 1947 1968 1952 1953
4 1968 1952 1953 1956
4 1947 1968 1953 1967
4 1952 1947 1953 1926
4 1952 1953 1956 1937
4 4657 4644 4631 4680
4 752 736 746 748
4 90 74 77 72
4 23 22 20 12
4 820 801 811 817
4 5168 5163 5147 5198
4 674 681 673 683
4 674 681 683 687
4 683 674 687 689
4 687 683 689 686
4 687 683 686 681
4 683 686 681 673
4 673 674 683 669
4 689 687 686 706
4 674 683 669 689
4 683 689 686 688
4 686 683 688 673
4 5374 5377 5415 5393
4 5374 5377 5393 5337
4 5377 5415 5393 5421
4 5415 5374 5393 5412
4 718 734 728 730
4 542 548 535 549
4 548 535 549 544
4 3516 3494 3514 3523
4 4276 4238 4258 4280
4 4258 4276 4280 4288
4 4276 4280 4288 4317
4 1710 1686 1696 1689
4 1686 1696 1689 1662
4 179 182 184 172
4 3555 3528 3543 3556
4 2901 2879 2900 2895
4 2879 2900 2895 2872
4 2900 2901 2895 2927
4 571 592 584 573
4 327 328 338 334
4 3791 3777 3787 3766
4 4204 4166 4191 4190
4 4166 4191 4190 4153
4 4191 4204 4190 4207
4 4190 4191 4207 4169
4 1089 1068 1081 1077
4 1068 1081 1077 1059
4 1081 1089 1077 1093
4 1081 1089 1093 1099
4 1077 1081 1093 1079
4 1089 1093 1099 1102
4 1093 1099 1102 1103
4 278 279 285 280
4 3256 3282 3283 3274
4 3282 3283 3274 3309
4 3283 3256 3274 3266
4 4106 4069 4107 4096
4 146 162 156 152
4 378 367 371 368
4 4518 4521 4547 4527
4 4518 4521 4527 4478
4 4521 4547 4527 4534
4 4547 4518 4527 4549
4 2141 2163 2162 2156
4 2163 2162 2156 2188
4 2162 2141 2156 2134
4 719 728 737 735
4 719 728 735 730
4 728 737 735 748
4 735 719 730 740
4 735 728 748 730
4 730 735 740 746
4 730 735 746 748
4 735 740 746 758
4 735 746 748 755
4 4809 4833 4811 4786
4 655 666 647 657
4 666 647 657 656
4 647 655 657 635
4 666 647 656 659
4 647 657 656 643
4 657 656 643 665
4 656 643 665 646
4 657 656 665 666
4 396 394 384 403
4 394 384 403 392
4 491 501 496 484
4 496 491 484 497
4 496 491 497 498
4 484 496 497 489
4 484 496 489 493
4 859 853 846 852
4 194 197 193 198
4 3820 3801 3794 3809
4 3820 3801 3809 3841
4 3801 3794 3809 3776
4 3794 3820 3809 3826
4 4572 4543 4549 4553
4 4572 4543 4553 4563
4 4543 4549 4553 4512
4 1042 1047 1058 1044
4 1042 1047 1044 1027
4 146 137 140 141
4 147 145 157 153
4 145 157 153 160
4 145 157 160 158
4 157 153 160 167
4 153 145 160 142
4 153 145 142 138
4 157 147 153 156
4 157 153 167 156
4 160 153 142 154
4 160 153 154 167
4 160 145 158 154
4 158 160 154 177
4 160 145 154 142
4 485 490 482 497
4 3424 3402 3407 3410
4 3407 3424 3410 3422
4 3424 3402 3410 3425
4 3407 3424 3422 3443
4 3410 3407 3422 3408
4 3402 3407 3410 3374
4 3424 3410 3422 3441
4 3424 3410 3441 3425
4 3422 3424 3441 3443
4 3441 3422 3443 3408
4 531 516 517 520
4 531 516 520 521
4 516 517 520 503
4 520 516 503 511
4 4193 4154 4177 4176
4 4177 4193 4176 4199
4 4154 4177 4176 4142
4 4177 4193 4199 4216
4 4176 4177 4199 4142
4 2120 2122 2103 2117
4 2103 2120 2117 2118
4 2120 2122 2117 2150
4 152 141 147 146
4 5302 5277 5325 5308
4 5302 5277 5308 5263
4 5325 5302 5308 5342
4 625 641 635 633
4 625 641 633 634
4 641 635 633 655
4 635 625 633 619
4 5772 5800 5782 5798
4 1828 1849 1826 1838
4 1826 1828 1838 1809
4 100 86 96 95
4 96 100 95 104
4 826 810 820 817
4 66 48 61 45
4 64 48 59 61
4 4117 4096 4125 4131
4 4048 4032 4076 4054
4 736 730 746 734
4 3543 3528 3523 3556
4 3227 3234 3206 3196
4 4806 4778 4809 4789
4 113 100 107 108
4 4633 4644 4614 4612
4 2351 2357 2331 2337
4 127 126 138 132
4 394 402 393 408
4 5459 5476 5496 5481
4 5459 5476 5481 5428
4 5476 5496 5481 5537
4 342 333 338 337
4 333 338 337 327
4 338 337 327 339
4 874 879 888 869
4 874 879 869 860
4 3228 3199 3215 3229
4 4369 4359 4383 4379
4 4369 4359 4379 4358
4 4359 4383 4379 4350
4 5728 5730 5772 5744
4 5730 5772 5744 5774
4 4441 4400 4424 4401
4 764 770 781 771
4 764 770 771 756
4 770 781 771 789
4 781 764 771 773
4 771 764 756 757
4 590 603 602 597
4 86 100 91 95
4 686 687 702 706
4 835 820 827 833
4 3799 3777 3770 3790
4 3826 3856 3820 3837
4 3820 3826 3837 3809
4 3837 3820 3809 3841
4 609 617 618 602
4 5093 5090 5129 5108
4 5093 5090 5108 5053
4 5129 5093 5108 5124
4 718 715 705 710
4 4269 4291 4280 4278
4 4269 4291 4278 4262
4 64 65 77 74
4 65 77 74 72
4 77 64 74 71
4 76 66 73 58
4 5163 5142 5147 5120
4 610 597 605 599
4 4356 4373 4370 4346
4 4204 4220 4236 4221
4 33 31 37 23
4 3986 4030 4006 3995
4 454 467 462 447
4 462 454 447 458
4 4805 4846 4832 4824
4 4832 4805 4824 4811
4 4846 4832 4824 4873
4 4832 4805 4811 4786
4 4824 4832 4811 4825
4 3806 3791 3787 3822
4 367 357 356 368
4 1998 2007 1991 2001
4 1998 2007 2001 2026
4 2007 1991 2001 2005
4 420 418 408 419
4 115 126 121 120
4 4048 4076 4091 4073
4 4048 4076 4073 4054
4 4076 4091 4073 4115
4 4076 4073 4054 4095
4 810 801 820 817
4 100 113 104 108
4 482 471 485 479
4 1775 1754 1764 1773
4 678 661 671 670
4 678 661 670 669
4 661 671 670 657
4 671 678 670 682
4 498 502 497 511
4 2853 2854 2833 2846
4 2853 2854 2846 2879
4 2833 2853 2846 2826
4 156 162 168 163
4 77 85 90 94
4 85 90 94 101
4 90 77 94 72
4 5180 5142 5163 5137
4 4133 4117 4154 4131
4 1430 1410 1411 1419
4 1410 1411 1419 1391
4 91 76 86 81
4 3144 3153 3172 3160
4 3153 3172 3160 3171
4 3144 3153 3160 3124
4 3153 3172 3171 3196
4 3160 3153 3171 3130
4 3172 3144 3160 3173
4 3172 3160 3171 3191
4 19 16 13 25
4 4368 4397 4380 4384
4 4397 4380 4384 4423
4 4380 4368 4384 4348
4 137 146 144 141
4 4458 4491 4478 4469
4 2256 2280 2257 2253
4 142 144 153 138
4 289 278 285 284
4 278 285 284 271
4 285 289 284 299
4 4132 4153 4166 4152
4 4132 4153 4152 4136
4 4153 4166 4152 4190
4 4153 4152 4136 4169
4 860 853 869 863
4 5147 5142 5121 5120
4 3856 3898 3900 3872
4 471 461 458 466
4 461 458 466 462
4 466 461 462 471
4 461 462 471 473
4 898 906 915 913
4 4 9 2 10
4 806 821 816 814
4 806 821 814 817
4 821 816 814 831
4 126 124 133 130
4 124 133 130 131
4 133 126 130 132
4 4258 4269 4280 4248
4 4258 4269 4248 4227
4 4269 4280 4248 4278
4 4248 4258 4227 4238
4 4248 4258 4238 4280
4 557 544 552 551
4 557 544 551 548
4 544 552 551 536
4 551 544 536 548
4 552 557 551 566
4 551 557 548 566
4 536 551 548 541
4 536 551 541 545
4 4373 4341 4369 4340
4 383 396 384 377
4 4133 4154 4169 4131
4 2165 2167 2150 2156
4 2150 2165 2156 2134
4 408 404 420 402
4 641 664 655 650
4 641 664 650 653
4 664 655 650 670
4 655 641 650 633
4 650 664 670 669
4 641 650 633 639
4 169 159 165 162
4 434 433 447 439
4 434 433 439 421
4 140 150 146 141
4 357 348 356 353
4 810 792 801 800
4 4097 4117 4125 4142
4 4125 4097 4142 4106
4 4125 4097 4106 4096
4 4142 4125 4106 4139
4 4097 4106 4096 4047
4 4106 4125 4096 4139
4 4142 4125 4139 4154
4 2932 2958 2941 2933
4 4032 3982 4008 4010
4 3982 4008 4010 3941
4 4008 4032 4010 4054
4 843 826 835 833
4 3516 3543 3523 3514
4 432 419 427 421
4 432 419 421 418
4 419 427 421 414
4 4236 4256 4274 4257
4 4236 4256 4257 4240
4 4256 4274 4257 4293
4 4256 4257 4240 4276
4 1562 1578 1586 1581
4 1578 1586 1581 1604
4 3823 3836 3806 3843
4 2608 2571 2604 2595
4 2571 2604 2595 2569
4 2604 2608 2595 2636
4 62 42 54 55
4 54 62 55 80
4 42 54 55 39
4 54 55 39 53
4 54 55 53 80
4 890 874 888 881
4 4133 4095 4117 4131
4 1200 1192 1185 1197
4 719 715 718 710
4 4884 4901 4927 4907
4 4884 4901 4907 4867
4 4901 4927 4907 4938
4 653 658 673 669
4 42 28 36 39
4 36 42 39 54
4 28 36 39 19
4 39 36 54 53
4 39 36 53 32
4 39 36 32 19
4 69 81 86 76
4 396 407 403 414
4 3045 3022 3035 3049
4 3035 3045 3049 3068
4 3035 3045 3068 3061
4 4132 4116 4153 4136
4 843 835 853 852
4 2941 2964 2947 2948
4 3894 3897 3857 3871
4 3228 3234 3253 3229
4 176 173 186 180
4 3470 3471 3485 3443
4 3197 3178 3202 3193
4 3178 3202 3193 3167
4 3202 3197 3193 3222
4 3193 3178 3167 3163
4 4341 4373 4346 4340
4 2304 2308 2284 2300
4 2304 2308 2300 2331
4 2284 2304 2300 2282
4 4639 4644 4680 4631
4 1904 1926 1909 1916
4 1926 1909 1916 1937
4 1909 1904 1916 1888
4 65 64 59 74
4 792 777 786 783
4 413 407 405 422
4 801 793 811 800
4 4009 3985 3975 3964
4 4009 3985 3964 4008
4 555 562 564 548
4 5535 5541 5569 5546
4 5541 5569 5546 5549
4 5569 5535 5546 5571
4 328 327 320 321
4 319 320 327 321
4 704 717 713 708
4 717 713 708 729
4 713 704 708 692
4 152 147 163 156
4 2948 2927 2947 2941
4 190 194 188 202
4 194 188 202 198
4 4204 4191 4220 4207
4 279 290 285 280
4 4165 4197 4175 4176
4 429 432 427 449
4 4478 4518 4486 4494
4 4486 4478 4494 4470
4 4494 4486 4470 4512
4 2119 2118 2093 2117
4 734 736 748 746
4 5082 5062 5068 5042
4 3708 3704 3725 3724
4 3704 3725 3724 3720
4 3708 3704 3724 3709
4 3725 3708 3724 3738
4 3724 3725 3738 3766
4 1009 998 1016 1003
4 4833 4825 4811 4868
4 1170 1174 1156 1160
4 702 706 705 686
4 173 171 181 178
4 171 181 178 183
4 3777 3806 3787 3790
4 2014 2035 2010 2020
4 2035 2010 2020 2025
4 2010 2014 2020 2004
4 2020 2010 2004 2025
4 165 152 163 162
4 144 146 156 147
4 3765 3777 3766 3725
4 792 786 801 800
4 4020 4013 4049 4022
4 3200 3199 3229 3212
4 168 180 178 173
4 384 396 403 397
4 384 396 397 377
4 396 403 397 414
4 396 397 377 389
4 397 396 414 409
4 5485 5443 5444 5464
4 5485 5443 5464 5484
4 5443 5444 5464 5406
4 5444 5485 5464 5489
4 1667 1655 1676 1666
4 1667 1655 1666 1646
4 1655 1676 1666 1665
4 1676 1667 1666 1688
4 888 890 881 893
4 888 890 893 905
4 4670 4706 4702 4690
4 4670 4706 4690 4673
4 4706 4702 4690 4734
4 4702 4670 4690 4664
4 3820 3856 3841 3837
4 188 176 186 184
4 188 176 184 182
4 5219 5221 5262 5237
4 5219 5221 5237 5182
4 5221 5262 5237 5263
4 5262 5219 5237 5260
4 1735 1732 1714 1725
4 1735 1732 1725 1751
4 1732 1714 1725 1712
4 1714 1735 1725 1733
4 1735 1725 1733 1751
4 4383 4369 4379 4399
4 4255 4289 4265 4272
4 4265 4255 4272 4223
4 4255 4289 4272 4274
4 4272 4255 4274 4257
4 3531 3530 3557 3539
4 3531 3530 3539 3503
4 3530 3557 3539 3556
4 3557 3531 3539 3558
4 718 720 730 710
4 741 749 757 750
4 741 749 750 731
4 757 741 750 744
4 102 91 98 100
4 4544 4526 4543 4520
4 4544 4526 4520 4509
4 4526 4543 4520 4512
4 4543 4520 4512 4553
4 4520 4526 4512 4490
4 5090 5054 5092 5078
4 5090 5054 5078 5053
4 5054 5092 5078 5055
4 5092 5090 5078 5130
4 2286 2306 2289 2295
4 2286 2306 2295 2285
4 2289 2286 2295 2260
4 4117 4125 4142 4154
4 2786 2784 2807 2793
4 2786 2784 2793 2761
4 2784 2807 2793 2806
4 2807 2786 2793 2809
4 977 969 987 976
4 977 969 976 960
4 969 987 976 975
4 987 977 976 995
4 4425 4397 4423 4380
4 4074 4030 4048 4053
4 4030 4048 4053 3995
4 4048 4074 4053 4093
4 4074 4030 4053 4057
4 4074 4053 4093 4057
4 3375 3402 3403 3392
4 3402 3403 3392 3425
4 3375 3402 3392 3374
4 3403 3375 3392 3376
4 720 706 710 718
4 3975 4009 3964 3991
4 5535 5529 5490 5517
4 5535 5529 5517 5571
4 5529 5490 5517 5489
4 5490 5535 5517 5492
4 1914 1924 1939 1925
4 1914 1924 1925 1900
4 1924 1939 1925 1946
4 1939 1914 1925 1918
4 10 8 15 9
4 10 8 9 2
4 4917 4872 4877 4890
4 4872 4877 4890 4849
4 4917 4872 4890 4913
4 4877 4917 4890 4918
4 2839 2808 2810 2822
4 2839 2808 2822 2826
4 2808 2810 2822 2781
4 545 534 528 532
4 5685 5712 5661 5684
4 5685 5712 5684 5733
4 5712 5661 5684 5677
4 5661 5685 5684 5637
4 778 768 787 771
4 778 768 771 758
4 768 787 771 780
4 787 778 771 798
4 768 771 758 756
4 768 771 756 757
4 758 768 756 751
4 756 758 751 740
4 768 756 751 750
4 756 751 750 729
4 756 758 740 755
4 751 756 740 729
4 771 778 758 760
4 771 758 756 770
4 751 768 750 761
4 750 751 761 743
4 750 751 743 733
4 750 751 733 729
4 743 750 733 723
4 761 750 743 744
4 2717 2694 2709 2688
4 4458 4478 4441 4469
4 3655 3684 3656 3667
4 3656 3655 3667 3633
4 3655 3684 3667 3688
4 3684 3656 3667 3685
4 1251 1244 1236 1248
4 4197 4198 4228 4213
4 4197 4198 4213 4165
4 4228 4197 4213 4199
4 4197 4213 4199 4176
4 1021 1028 1026 1034
4 1968 1953 1967 1989
4 5293 5296 5331 5311
4 5293 5296 5311 5252
4 5296 5331 5311 5333
4 5331 5293 5311 5326
4 2059 2060 2036 2040
4 2036 2059 2040 2034
4 2040 2036 2034 2013
4 2059 2040 2034 2055
4 2040 2034 2055 2051
4 2034 2040 2013 2006
4 2034 2059 2055 2037
4 2055 2034 2037 2051
4 2059 2055 2037 2088
4 2059 2040 2055 2063
4 2055 2059 2063 2088
4 2059 2040 2063 2060
4 2040 2034 2051 2033
4 2040 2034 2033 2006
4 2051 2040 2033 2050
4 45 29 48 46
4 2979 3001 3002 2993
4 2979 3001 2993 2978
4 3001 3002 2993 3023
4 3002 2979 2993 2980
4 1300 1281 1294 1289
4 1300 1281 1289 1290
4 1281 1294 1289 1275
4 1294 1300 1289 1305
4 1294 1300 1305 1316
4 1289 1294 1305 1296
4 1300 1305 1316 1318
4 1305 1316 1318 1315
4 1305 1294 1316 1304
4 1294 1305 1296 1304
4 1305 1316 1315 1304
4 1300 1289 1305 1306
4 1289 1294 1296 1277
4 1316 1318 1315 1335
4 1316 1318 1335 1325
4 1318 1335 1325 1339
4 1316 1318 1325 1310
4 5381 5360 5332 5350
4 5381 5360 5350 5408
4 5360 5332 5350 5313
4 3308 3281 3306 3296
4 3308 3281 3296 3282
4 3281 3306 3296 3277
4 3306 3308 3296 3327
4 439 455 448 447
4 439 455 447 445
4 5277 5325 5308 5305
4 5606 5566 5571 5583
4 5606 5566 5583 5604
4 5566 5571 5583 5529
4 5571 5606 5583 5610
4 1765 1775 1788 1776
4 1765 1775 1776 1754
4 1775 1788 1776 1798
4 1788 1776 1798 1796
4 1788 1765 1776 1778
4 1776 1775 1798 1773
4 1798 1788 1796 1814
4 1798 1788 1814 1802
4 1776 1775 1773 1754
4 1775 1788 1798 1802
4 1776 1798 1796 1789
4 1776 1798 1789 1773
4 1789 1776 1773 1774
4 1789 1776 1774 1796
4 1776 1773 1774 1750
4 4803 4837 4831 4822
4 4803 4837 4822 4804
4 4837 4831 4822 4869
4 4831 4803 4822 4802
4 2980 3002 3003 2996
4 2980 3002 2996 2993
4 3002 3003 2996 3029
4 3003 2980 2996 2971
4 3002 2996 2993 3023
4 188 186 198 193
4 5419 5458 5456 5442
4 5419 5458 5442 5420
4 5458 5456 5442 5494
4 5456 5419 5442 5416
4 1582 1581 1558 1570
4 4778 4744 4759 4769
4 4397 4418 4437 4423
4 4418 4437 4423 4454
4 3582 3581 3607 3589
4 3582 3581 3589 3556
4 3581 3607 3589 3606
4 3607 3582 3589 3608
4 1388 1408 1393 1389
4 1393 1388 1389 1372
4 2142 2119 2121 2126
4 2142 2119 2126 2141
4 2121 2142 2126 2140
4 407 396 405 414
4 4193 4199 4216 4227
4 2195 2196 2168 2180
4 2195 2196 2180 2217
4 2196 2168 2180 2169
4 2168 2195 2180 2167
4 5163 5180 5137 5176
4 2882 2880 2902 2888
4 2882 2880 2888 2855
4 2880 2902 2888 2901
4 2902 2882 2888 2903
4 1476 1478 1462 1473
4 1476 1478 1473 1499
4 1478 1462 1473 1464
4 1462 1476 1473 1477
4 1476 1473 1477 1499
4 564 557 548 562
4 3330 3328 3356 3339
4 3330 3328 3339 3309
4 3328 3356 3339 3355
4 3356 3330 3339 3364
4 869 878 888 874
4 869 878 874 863
4 874 869 863 860
4 4220 4207 4240 4221
4 4734 4766 4754 4760
4 4766 4754 4760 4793
4 4734 4766 4760 4783
4 4766 4760 4783 4793
4 781 799 791 790
4 781 799 790 798
4 799 790 798 805
4 790 798 805 787
4 790 798 787 771
4 805 790 787 794
4 787 790 771 780
4 790 787 794 780
4 4373 4386 4370 4398
4 5018 5024 5055 5039
4 5018 5024 5039 4979
4 5024 5055 5039 5059
4 5055 5018 5039 5054
4 2519 2522 2494 2505
4 2522 2494 2505 2496
4 2494 2519 2505 2490
4 3035 3026 3023 3050
4 2738 2717 2735 2731
4 2738 2717 2731 2718
4 2717 2735 2731 2709
4 2735 2738 2731 2759
4 2731 2717 2709 2698
4 1315 1296 1305 1304
4 5147 5163 5120 5151
4 4710 4744 4740 4726
4 4744 4740 4726 4769
4 4710 4744 4726 4715
4 4740 4710 4726 4708
4 3737 3740 3768 3744
4 3737 3740 3744 3710
4 1117 1127 1110 1116
4 4949 4984 4983 4969
4 1790 1789 1774 1796
4 569 583 577 566
4 5410 5372 5412 5397
4 5410 5372 5397 5369
4 5372 5412 5397 5374
4 5412 5410 5397 5446
4 1570 1553 1562 1558
4 728 719 718 730
4 3098 3097 3124 3111
4 3098 3097 3111 3078
4 3097 3124 3111 3130
4 3124 3098 3111 3125
4 1147 1156 1145 1144
4 682 680 692 690
4 682 680 690 678
4 692 682 690 708
4 5164 5117 5139 5140
4 3254 3253 3281 3264
4 3254 3253 3264 3229
4 3253 3281 3264 3261
4 3264 3253 3261 3234
4 3281 3254 3264 3282
4 619 635 628 627
4 619 635 627 633
4 635 627 633 657
4 4549 4572 4553 4576
4 5489 5444 5446 5466
4 5489 5444 5466 5464
4 5444 5466 5464 5418
4 5444 5446 5466 5418
4 5446 5489 5466 5490
4 5466 5464 5418 5448
4 1713 1724 1738 1725
4 4274 4236 4257 4255
4 4635 4619 4599 4618
4 4619 4599 4618 4578
4 4635 4619 4618 4670
4 4599 4635 4618 4600
4 3657 3685 3687 3674
4 3657 3685 3674 3656
4 3685 3687 3674 3710
4 3687 3657 3674 3659
4 214 202 212 209
4 1651 1650 1637 1649
4 1651 1650 1649 1666
4 1650 1637 1649 1644
4 1637 1651 1649 1638
4 1649 1650 1644 1655
4 1644 1649 1655 1636
4 1644 1649 1636 1637
4 1649 1655 1636 1646
4 1649 1655 1646 1666
4 1649 1655 1666 1650
4 1636 1649 1646 1626
4 396 395 405 388
4 405 396 388 389
4 625 633 619 614
4 4382 4370 4398 4385
4 4382 4370 4385 4351
4 4398 4382 4385 4418
4 4370 4398 4385 4373
4 3582 3557 3556 3568
4 3557 3556 3568 3539
4 3582 3557 3568 3583
4 3556 3582 3568 3589
4 3568 3557 3539 3558
4 3582 3568 3589 3588
4 1446 1427 1438 1428
4 4605 4600 4572 4595
4 4605 4600 4595 4637
4 4600 4572 4595 4563
4 4572 4605 4595 4576
4 2423 2422 2405 2416
4 2422 2405 2416 2410
4 2405 2423 2416 2402
4 102 104 100 109
4 5167 5130 5172 5160
4 5167 5130 5160 5129
4 5130 5172 5160 5136
4 5172 5167 5160 5210
4 2239 2240 2217 2227
4 2239 2240 2227 2264
4 2240 2217 2227 2226
4 66 76 70 58
4 2835 2855 2856 2850
4 2835 2855 2850 2834
4 2855 2856 2850 2882
4 2856 2835 2850 2843
4 1003 1010 1018 1009
4 3895 3898 3872 3923
4 3895 3898 3923 3942
4 3898 3872 3923 3900
4 3898 3923 3942 3944
4 3923 3895 3942 3941
4 4114 4132 4151 4134
4 4114 4132 4134 4093
4 4132 4151 4134 4168
4 4151 4114 4134 4145
4 4134 4114 4093 4104
4 4151 4134 4168 4145
4 4114 4093 4104 4074
4 3451 3425 3450 3442
4 3450 3451 3442 3476
4 3451 3425 3442 3426
4 3425 3450 3442 3441
4 3450 3442 3441 3486
4 760 746 758 755
4 548 551 566 558
4 551 566 558 552
4 548 551 558 541
4 551 558 541 550
4 558 551 552 550
4 5374 5333 5337 5349
4 5374 5333 5349 5372
4 5333 5337 5349 5295
4 5337 5374 5349 5393
4 5374 5349 5393 5397
4 713 731 723 721
4 713 731 721 729
4 731 721 729 733
4 721 729 733 708
4 721 729 708 713
4 708 721 713 709
4 708 721 709 733
4 731 723 721 733
4 723 713 721 709
4 721 709 733 726
4 721 709 726 723
4 733 721 726 723
4 597 610 602 599
4 4979 4942 4946 4964
4 4979 4942 4964 4976
4 4942 4946 4964 4913
4 4946 4979 4964 4982
4 3540 3514 3541 3543
4 3540 3514 3543 3516
4 3541 3540 3543 3570
4 3543 3540 3516 3507
4 3540 3543 3570 3575
4 575 577 564 569
4 2608 2572 2571 2595
4 3494 3485 3507 3514
4 4612 4576 4579 4591
4 4576 4579 4591 4547
4 4612 4576 4591 4605
4 4579 4612 4591 4614
4 3710 3709 3740 3719
4 3710 3709 3719 3685
4 3709 3740 3719 3739
4 3740 3710 3719 3744
4 3719 3740 3744 3748
4 1169 1176 1160 1164
4 4807 4808 4847 4819
4 4847 4807 4819 4846
4 1866 1849 1850 1852
4 1866 1849 1852 1876
4 1849 1850 1852 1838
4 1850 1866 1852 1869
4 1852 1866 1876 1877
4 1852 1849 1838 1845
4 653 644 654 639
4 3052 3027 3050 3044
4 3052 3027 3044 3029
4 3027 3050 3044 3023
4 3044 3027 3023 3029
4 3050 3052 3044 3080
4 1224 1231 1215 1220
4 4995 4968 4948 4951
4 3354 3326 3353 3343
4 3354 3326 3343 3327
4 3326 3353 3343 3322
4 3353 3354 3343 3374
4 482 485 497 484
4 497 482 484 489
4 482 484 489 473
4 484 489 473 481
4 482 485 484 479
4 484 482 479 471
4 484 482 471 473
4 484 489 481 493
4 1411 1430 1419 1432
4 5644 5646 5688 5668
4 5644 5646 5668 5604
4 5646 5688 5668 5697
4 5688 5644 5668 5686
4 1846 1854 1865 1852
4 2404 2381 2394 2382
4 4867 4869 4905 4885
4 4867 4869 4885 4831
4 4869 4905 4885 4909
4 4905 4867 4885 4901
4 2749 2762 2779 2764
4 2749 2762 2764 2740
4 614 605 598 599
4 605 598 599 587
4 599 605 587 597
4 614 605 599 620
4 598 614 599 604
4 598 599 587 573
4 598 614 604 608
4 599 598 604 584
4 4107 4139 4106 4096
4 3199 3229 3212 3215
4 3212 3199 3215 3180
4 3229 3212 3215 3245
4 3199 3215 3180 3172
4 3215 3212 3180 3245
4 3180 3199 3172 3173
4 3172 3180 3173 3160
4 3172 3180 3160 3191
4 3180 3160 3191 3179
4 3172 3180 3191 3215
4 3180 3191 3215 3245
4 3191 3180 3179 3210
4 4472 4454 4490 4475
4 4472 4454 4475 4437
4 4454 4490 4475 4474
4 4490 4472 4475 4509
4 3583 3608 3603 3588
4 1324 1334 1315 1318
4 1315 1324 1318 1306
4 1324 1334 1318 1339
4 1324 1318 1306 1308
4 1318 1324 1339 1326
4 779 767 765 783
4 2051 2063 2040 2050
4 5218 5180 5214 5200
4 5180 5214 5200 5163
4 5200 5180 5163 5176
4 5218 5180 5200 5176
4 5214 5218 5200 5256
4 2150 2151 2122 2136
4 2150 2151 2136 2167
4 2151 2122 2136 2124
4 2122 2150 2136 2117
4 2136 2122 2117 2105
4 3200 3199 3212 3173
4 2928 2948 2949 2943
4 2928 2948 2943 2927
4 2948 2949 2943 2979
4 2949 2928 2943 2931
4 1369 1380 1361 1373
4 1369 1380 1373 1389
4 1380 1361 1373 1374
4 1361 1369 1373 1352
4 4990 4947 4969 4958
4 3480 3477 3504 3490
4 3480 3477 3490 3453
4 3477 3504 3490 3503
4 3504 3480 3490 3495
4 921 931 939 932
4 5167 5165 5129 5157
4 5167 5165 5157 5208
4 5165 5129 5157 5124
4 5129 5167 5157 5160
4 5167 5157 5160 5203
4 5157 5160 5203 5173
4 864 871 882 873
4 864 871 873 854
4 871 882 873 891
4 882 864 873 872
4 402 407 419 408
4 5059 5024 5031 5041
4 5059 5024 5041 5039
4 5024 5041 5039 4992
4 5024 5031 5041 4992
4 5031 5059 5041 5042
4 5041 5039 4992 5030
4 5041 5031 5042 4992
4 2357 2358 2332 2347
4 2357 2358 2347 2382
4 2358 2332 2347 2333
4 2332 2357 2347 2331
4 5168 5147 5121 5198
4 932 915 926 921
4 127 125 126 132
4 138 127 132 137
4 4740 4738 4708 4724
4 4740 4738 4724 4767
4 4738 4708 4724 4706
4 4708 4740 4724 4726
4 4740 4724 4726 4763
4 4724 4708 4726 4691
4 4724 4726 4763 4741
4 4726 4724 4691 4741
4 3792 3791 3822 3787
4 3792 3791 3787 3766
4 3787 3792 3766 3767
4 1089 1075 1068 1077
4 5100 5064 5101 5087
4 5100 5064 5087 5056
4 5064 5101 5087 5074
4 5101 5100 5087 5143
4 1750 1732 1751 1744
4 1750 1732 1744 1731
4 1732 1751 1744 1725
4 1751 1750 1744 1774
4 1744 1732 1725 1724
4 3704 3708 3684 3709
4 5446 5449 5490 5468
4 5446 5449 5468 5412
4 5449 5490 5468 5492
4 5490 5446 5468 5466
4 5446 5468 5466 5397
4 1605 1612 1626 1614
4 1605 1612 1614 1592
4 1612 1626 1614 1636
4 1626 1605 1614 1619
4 108 96 104 100
4 3146 3125 3144 3141
4 3146 3125 3141 3126
4 3125 3144 3141 3124
4 3144 3146 3141 3173
4 522 541 532 536
4 522 541 536 535
4 541 532 536 545
4 3801 3794 3776 3763
4 3794 3776 3763 3768
4 3776 3801 3763 3781
4 4778 4809 4789 4786
4 5527 5485 5489 5498
4 5527 5485 5498 5524
4 5485 5489 5498 5464
4 5489 5527 5498 5529
4 5498 5485 5464 5484
4 1688 1699 1713 1700
4 1688 1699 1700 1676
4 1699 1713 1700 1724
4 1713 1688 1700 1701
4 3234 3227 3259 3196
4 4702 4734 4713 4720
4 4702 4734 4720 4690
4 4713 4702 4720 4664
4 4720 4702 4690 4664
4 3603 3634 3635 3623
4 3634 3635 3623 3657
4 3635 3603 3623 3612
4 622 605 614 620
4 5262 5263 5301 5274
4 2303 2283 2290 2292
4 2303 2283 2292 2281
4 2283 2290 2292 2262
4 102 101 106 97
4 101 106 97 112
4 97 101 112 90
4 3558 3557 3583 3568
4 1028 1036 1046 1035
4 1028 1036 1035 1021
4 1036 1046 1035 1059
4 1046 1028 1035 1034
4 1035 1028 1021 1034
4 5402 5441 5401 5422
4 5402 5441 5422 5443
4 5441 5401 5422 5429
4 5401 5402 5422 5391
4 5422 5401 5391 5429
4 825 831 840 832
4 840 825 832 834
4 825 831 832 816
4 831 840 832 850
4 655 650 670 657
4 655 650 657 633
4 5136 5092 5094 5110
4 5136 5092 5110 5130
4 5092 5094 5110 5055
4 5094 5136 5110 5137
4 2264 2285 2286 2274
4 2264 2285 2274 2263
4 2285 2286 2274 2295
4 2286 2274 2295 2260
4 2286 2264 2274 2260
4 4004 3975 3939 3991
4 3975 3939 3991 3964
4 2761 2762 2740 2752
4 2761 2762 2752 2786
4 2762 2740 2752 2764
4 2740 2761 2752 2738
4 2752 2762 2764 2786
4 987 994 1003 991
4 1003 987 991 995
4 987 994 991 975
4 994 1003 991 1009
4 987 991 995 976
4 987 991 976 975
4 991 1003 995 999
4 4469 4458 4434 4441
4 3403 3425 3426 3419
4 3425 3426 3419 3442
4 3403 3425 3419 3392
4 3426 3403 3419 3405
4 3419 3425 3442 3410
4 3419 3403 3392 3405
4 722 740 730 719
4 730 722 719 710
4 719 730 710 718
4 722 719 710 708
4 3845 3824 3822 3792
4 544 536 548 535
4 536 548 535 541
4 5700 5649 5653 5671
4 5700 5649 5671 5697
4 5649 5653 5671 5610
4 5653 5700 5671 5704
4 1969 1946 1956 1953
4 1969 1946 1953 1957
4 1946 1956 1953 1937
4 1956 1969 1953 1979
4 1953 1956 1979 1968
4 1979 1953 1968 1989
4 1968 1979 1989 1984
4 1968 1979 1984 1956
4 4204 4166 4190 4168
4 4166 4190 4168 4152
4 4190 4168 4152 4171
4 4168 4166 4152 4132
4 4946 4917 4950 4935
4 4950 4946 4935 4982
4 4946 4917 4935 4913
4 4917 4950 4935 4918
4 2987 2981 3006 2995
4 3006 2987 2995 3013
4 3006 2987 3013 3022
4 2987 2995 3013 2978
4 2995 3006 3013 3023
4 3274 3283 3266 3301
4 5637 5613 5593 5620
4 5637 5613 5620 5661
4 5613 5593 5620 5563
4 5593 5637 5620 5615
4 733 726 743 723
4 3685 3684 3709 3691
4 3685 3684 3691 3667
4 3684 3709 3691 3704
4 3709 3685 3691 3719
4 3684 3691 3667 3704
4 3691 3709 3719 3724
4 1220 1211 1200 1215
4 4480 4481 4514 4496
4 289 285 293 299
4 5323 5292 5326 5319
4 5323 5292 5319 5289
4 5292 5326 5319 5293
4 5326 5323 5319 5365
4 176 165 172 169
4 3894 3897 3871 3920
4 3894 3897 3920 3941
4 3897 3920 3941 3895
4 3897 3871 3920 3895
4 3026 3001 3000 3013
4 3000 3026 3013 3022
4 3013 3000 3022 2987
4 1257 1266 1248 1251
4 3826 3856 3837 3872
4 3856 3837 3872 3873
4 5190 5164 5139 5159
4 5190 5164 5159 5213
4 5164 5139 5159 5140
4 5159 5164 5140 5192
4 5140 5159 5192 5166
4 3308 3327 3328 3321
4 3327 3328 3321 3355
4 3308 3327 3321 3296
4 3328 3308 3321 3309
4 3321 3308 3296 3309
4 522 532 514 524
4 522 532 524 536
4 532 514 524 525
4 532 514 525 529
4 524 532 525 528
4 525 524 528 510
4 524 528 510 517
4 524 528 517 534
4 524 528 534 532
4 517 524 534 536
4 510 524 517 505
4 514 522 524 505
4 514 524 525 510
4 1824 1814 1837 1825
4 1824 1814 1825 1800
4 1814 1837 1825 1823
4 1837 1824 1825 1846
4 147 141 144 146
4 4869 4837 4870 4861
4 4869 4837 4861 4822
4 4837 4870 4861 4841
4 4870 4869 4861 4909
4 4837 4861 4822 4841
4 517 501 510 505
4 4106 4069 4096 4047
4 1547 1546 1522 1531
4 5299 5338 5321 5301
4 4455 4420 4441 4442
4 4420 4441 4442 4401
4 4441 4455 4442 4478
4 4455 4420 4442 4439
4 4442 4420 4401 4398
4 3608 3607 3633 3617
4 3608 3607 3617 3589
4 3607 3633 3617 3632
4 3633 3608 3617 3634
4 3607 3617 3589 3606
4 1449 1430 1432 1439
4 1430 1432 1439 1419
4 1449 1430 1439 1438
4 1439 1430 1419 1422
4 2094 2093 2076 2089
4 2093 2076 2089 2063
4 2076 2094 2089 2078
4 2076 2089 2063 2078
4 162 172 165 169
4 3049 3035 3068 3050
4 3068 3049 3050 3078
4 3068 3049 3078 3081
4 5172 5212 5210 5197
4 5172 5212 5197 5176
4 5212 5210 5197 5250
4 5210 5172 5197 5160
4 5172 5197 5160 5176
4 2167 2168 2151 2161
4 2167 2168 2161 2180
4 2168 2151 2161 2152
4 2151 2167 2161 2136
4 2168 2161 2180 2160
4 2161 2151 2136 2152
4 639 624 640 633
4 640 639 633 650
4 633 640 650 648
4 640 650 648 661
4 640 650 661 654
4 650 648 661 657
4 650 648 657 633
4 633 640 648 632
4 633 640 632 622
4 633 640 622 624
4 632 633 622 614
4 648 661 657 671
4 657 648 671 665
4 657 648 665 643
4 657 648 643 632
4 657 648 632 633
4 2901 2927 2928 2917
4 2901 2927 2917 2895
4 2927 2928 2917 2943
4 2928 2901 2917 2902
4 2917 2901 2895 2888
4 2928 2917 2943 2916
4 1407 1422 1399 1409
4 1407 1422 1409 1428
4 1422 1399 1409 1419
4 1399 1407 1409 1389
4 4219 4255 4223 4221
4 3356 3376 3377 3369
4 3376 3377 3369 3405
4 3356 3376 3369 3355
4 3377 3356 3369 3364
4 905 893 913 906
4 913 905 906 921
4 718 714 706 705
4 706 718 705 710
4 705 706 710 689
4 126 124 130 120
4 124 130 120 131
4 126 124 120 115
4 120 124 131 112
4 124 120 115 110
4 124 120 110 112
4 120 115 110 109
4 3422 3410 3408 3441
4 898 915 909 908
4 898 915 908 913
4 915 909 908 927
4 909 898 908 891
4 915 908 913 922
4 908 913 922 903
4 908 913 903 893
4 908 913 893 898
4 903 908 893 891
4 1144 1135 1145 1147
4 1135 1145 1147 1120
4 4769 4778 4806 4789
4 3794 3793 3826 3805
4 3794 3793 3805 3768
4 3793 3826 3805 3824
4 3826 3794 3805 3809
4 3794 3805 3809 3776
4 1102 1094 1089 1092
4 4983 5028 5026 5009
4 4983 5028 5009 4984
4 5028 5026 5009 5056
4 5026 4983 5009 4969
4 4983 5009 4969 4984
4 1749 1773 1764 1754
4 1764 1749 1754 1729
4 117 115 121 113
4 1570 1592 1585 1584
4 1570 1592 1584 1586
4 1592 1585 1584 1605
4 1585 1570 1584 1561
4 3102 3125 3126 3118
4 3102 3125 3118 3098
4 3125 3126 3118 3141
4 3126 3102 3118 3101
4 3118 3125 3141 3111
4 1126 1132 1116 1127
4 4968 4925 4948 4951
4 145 142 138 133
4 145 142 133 136
4 142 138 133 132
4 5446 5444 5410 5418
4 1765 1745 1754 1755
4 1765 1745 1755 1757
4 1745 1754 1755 1731
4 1754 1765 1755 1776
4 1765 1755 1776 1757
4 4804 4841 4837 4822
4 2949 2950 2931 2946
4 2950 2931 2946 2938
4 2949 2950 2946 2980
4 2931 2949 2946 2943
4 2949 2946 2943 2973
4 186 173 181 180
4 5375 5376 5419 5394
4 5375 5376 5394 5338
4 5376 5419 5394 5420
4 5419 5375 5394 5416
4 1616 1615 1598 1612
4 3045 3068 3061 3081
4 4368 4382 4397 4384
4 3581 3556 3555 3565
4 3556 3555 3565 3543
4 3555 3565 3543 3575
4 3581 3556 3565 3589
4 3565 3556 3543 3523
4 3565 3581 3589 3575
4 3555 3581 3565 3575
4 1408 1427 1415 1407
4 1415 1408 1407 1393
4 5643 5686 5683 5674
4 5643 5686 5674 5644
4 5686 5683 5674 5728
4 5683 5643 5674 5635
4 737 719 735 740
4 552 551 536 545
4 5096 5094 5059 5083
4 5096 5094 5083 5137
4 5094 5059 5083 5055
4 5059 5096 5083 5082
4 5096 5083 5082 5142
4 5083 5059 5082 5041
4 2215 2216 2194 2209
4 2215 2216 2209 2238
4 2216 2194 2209 2195
4 2194 2215 2209 2186
4 2880 2854 2879 2870
4 2880 2854 2870 2855
4 2854 2879 2870 2846
4 2879 2880 2870 2895
4 2870 2854 2846 2850
4 2870 2879 2895 2872
4 1018 1027 1034 1026
4 87 85 97 83
4 4034 4056 4008 4033
4 4034 4056 4033 4082
4 4008 4034 4033 4009
4 4034 4033 4009 4055
4 4056 4008 4033 4054
4 4033 4056 4054 4082
4 4056 4054 4082 4095
4 4054 4033 4082 4059
4 4033 4008 4009 4010
4 4033 4008 4010 4054
4 4010 4033 4054 4059
4 4033 4009 4055 4035
4 4034 4033 4055 4082
4 4009 4034 4055 4047
4 3453 3451 3477 3456
4 3453 3451 3456 3426
4 3451 3477 3456 3476
4 3477 3453 3456 3490
4 3456 3477 3490 3486
4 5730 5772 5774 5798
4 5772 5774 5798 5782
4 4032 4010 4054 4053
4 4765 4767 4803 4784
4 4765 4767 4784 4738
4 4767 4803 4784 4804
4 4803 4765 4784 4783
4 4765 4784 4783 4748
4 4784 4783 4748 4775
4 5082 5062 5042 5059
4 2572 2541 2571 2559
4 2640 2664 2666 2651
4 2640 2664 2651 2636
4 2664 2666 2651 2688
4 2666 2640 2651 2642
4 891 871 881 884
4 891 871 884 873
4 871 881 884 863
4 881 891 884 893
4 871 884 873 865
4 884 873 865 886
4 884 873 886 900
4 865 884 886 878
4 884 886 878 893
4 884 886 893 903
4 4680 4657 4696 4674
4 4657 4696 4674 4682
4 4696 4680 4674 4710
4 4639 4680 4676 4674
4 3767 3739 3766 3748
4 3767 3739 3748 3740
4 3739 3748 3740 3719
4 1137 1144 1127 1132
4 4873 4874 4916 4899
4 1828 1809 1810 1825
4 5372 5331 5333 5345
4 5372 5331 5345 5369
4 5331 5333 5345 5311
4 5333 5372 5345 5349
4 5345 5333 5349 5311
4 5345 5331 5311 5326
4 181 173 178 180
4 178 181 180 187
4 178 181 187 183
4 1190 1197 1181 1192
4 4079 4096 4055 4047
4 3355 3354 3375 3361
4 3355 3354 3361 3327
4 3354 3375 3361 3374
4 3375 3355 3361 3376
4 455 465 448 459
4 5031 5062 5042 5043
4 4384 4397 4423 4385
4 1892 1878 1900 1891
4 1892 1878 1891 1865
4 1878 1900 1891 1876
4 1891 1878 1876 1877
4 1900 1892 1891 1914
4 1876 1891 1877 1889
4 1891 1877 1889 1903
4 4909 4913 4942 4921
4 4909 4913 4921 4870
4 4913 4942 4921 4964
4 4942 4909 4921 4939
4 4942 4921 4964 4939
4 2741 2742 2758 2746
4 2742 2758 2746 2760
4 2758 2741 2746 2745
4 579 561 574 573
4 579 561 573 570
4 561 573 570 558
4 573 579 570 587
4 573 579 587 598
4 570 573 587 583
4 5615 5666 5637 5642
4 5615 5666 5642 5632
4 5666 5637 5642 5685
4 5637 5615 5642 5620
4 5642 5637 5620 5684
4 795 778 787 798
4 787 795 798 805
4 795 798 805 812
4 795 798 812 811
4 4811 4825 4789 4824
4 4386 4420 4398 4401
4 3655 3633 3632 3639
4 3633 3632 3639 3617
4 3655 3633 3639 3667
4 3632 3655 3639 3662
4 3639 3633 3617 3634
4 3639 3655 3667 3662
4 1286 1277 1269 1289
4 1286 1277 1289 1296
4 1289 1286 1296 1306
4 1289 1286 1306 1308
4 1269 1286 1289 1284
4 4057 4074 4104 4093
4 5728 5730 5744 5686
4 4073 4048 4054 4053
4 4073 4048 4053 4093
4 4053 4073 4093 4083
4 5250 5252 5293 5270
4 5250 5252 5270 5212
4 5252 5293 5270 5311
4 5293 5250 5270 5292
4 5293 5270 5311 5319
4 2079 2105 2106 2091
4 2105 2106 2091 2124
4 2106 2079 2091 2081
4 4514 4508 4496 4542
4 2949 2979 2980 2973
4 2979 2980 2973 2993
4 2973 2979 2993 2965
4 1335 1344 1325 1339
4 3503 3476 3502 3486
4 3476 3502 3486 3474
4 3486 3476 3474 3450
4 957 950 967 951
4 5249 5289 5278 5272
4 5249 5289 5272 5247
4 5289 5278 5272 5327
4 5278 5249 5272 5227
4 900 919 911 912
4 900 919 912 909
4 911 900 912 892
4 2014 2035 2020 2036
4 5031 5024 4982 4992
4 2331 2332 2308 2321
4 2331 2332 2321 2347
4 2332 2308 2321 2306
4 2308 2331 2321 2300
4 2332 2321 2347 2333
4 2321 2308 2300 2299
4 162 146 150 152
4 2806 2783 2805 2801
4 2806 2783 2801 2784
4 2783 2805 2801 2791
4 2805 2806 2801 2822
4 2801 2805 2822 2791
4 2806 2801 2822 2793
4 932 941 951 939
4 4710 4708 4676 4691
4 4927 4884 4907 4908
4 5141 5143 5182 5156
4 5141 5143 5156 5100
4 5143 5182 5156 5183
4 5182 5141 5156 5181
4 1711 1731 1729 1710
4 1729 1711 1710 1696
4 1711 1710 1696 1689
4 2944 2941 2947 2918
4 1636 1625 1644 1637
4 118 108 117 113
4 3175 3173 3200 3186
4 3175 3173 3186 3146
4 3173 3200 3186 3212
4 3200 3175 3186 3202
4 3200 3186 3212 3213
4 2987 2964 2958 2965
4 656 666 659 665
4 659 656 665 646
4 659 656 646 647
4 5455 5408 5430 5425
4 5408 5430 5425 5381
4 5430 5455 5425 5474
4 491 484 497 485
4 5535 5541 5546 5492
4 3900 3898 3944 3923
4 65 52 72 68
4 52 72 68 56
4 72 65 68 74
4 516 520 521 511
4 520 521 511 522
4 511 520 522 505
4 520 522 505 524
4 520 522 524 536
4 520 522 536 521
4 524 520 536 517
4 524 520 517 505
4 4351 4334 4370 4346
4 3530 3502 3528 3523
4 3528 3530 3523 3556
4 3530 3502 3523 3503
4 3502 3528 3523 3494
4 4805 4846 4824 4807
4 773 781 791 790
4 229 230 234 223
4 4491 4478 4469 4494
4 209 197 199 202
4 2834 2806 2833 2822
4 3944 3986 3946 3962
4 3944 3986 3962 3995
4 3986 3946 3962 4006
4 3962 3986 4006 3995
4 3946 3944 3962 3900
4 691 707 689 690
4 5729 5688 5697 5711
4 5729 5688 5711 5730
4 5688 5697 5711 5668
4 5697 5729 5711 5738
4 5711 5688 5668 5686
4 1939 1946 1957 1948
4 1939 1946 1948 1925
4 1946 1957 1948 1953
4 1957 1939 1948 1941
4 1948 1939 1925 1940
4 654 669 658 653
4 4939 4942 4976 4964
4 2860 2844 2875 2861
4 2860 2844 2861 2840
4 2875 2860 2861 2886
4 163 157 171 167
4 157 171 167 160
4 171 163 167 173
4 5379 5367 5391 5327
4 4549 4547 4576 4555
4 4549 4547 4555 4527
4 4576 4549 4555 4553
4 4549 4555 4553 4527
4 4547 4555 4527 4557
4 1236 1229 1220 1231
4 429 427 422 442
4 429 427 442 449
4 427 422 442 443
4 4332 4322 4358 4340
4 1947 1926 1927 1935
4 1947 1926 1935 1953
4 1926 1927 1935 1916
4 1927 1947 1935 1944
4 1935 1947 1953 1948
4 1935 1926 1916 1937
4 1953 1935 1948 1946
4 1953 1935 1946 1937
4 1935 1948 1946 1925
4 1935 1948 1925 1944
4 4117 4095 4096 4131
4 3027 3001 3026 3023
4 3026 3027 3023 3050
4 1275 1281 1266 1269
4 5771 5728 5782 5743
4 5286 5264 5238 5255
4 5286 5264 5255 5313
4 5264 5238 5255 5240
4 216 223 228 224
4 1849 1826 1838 1845
4 5601 5604 5644 5624
4 5601 5604 5624 5562
4 5604 5644 5624 5668
4 5644 5601 5624 5643
4 5644 5624 5668 5674
4 1800 1788 1814 1796
4 1800 1788 1796 1778
4 3975 3985 3939 3964
4 3405 3426 3428 3420
4 3426 3428 3420 3453
4 3405 3426 3420 3419
4 3426 3420 3419 3456
4 3428 3405 3420 3394
4 1560 1558 1547 1556
4 1560 1558 1556 1582
4 1558 1547 1556 1546
4 1547 1560 1556 1549
4 1809 1787 1798 1802
4 1421 1430 1438 1422
4 4901 4905 4938 4920
4 4901 4905 4920 4885
4 4905 4938 4920 4939
4 4938 4901 4920 4907
4 4901 4920 4907 4885
4 4905 4920 4885 4921
4 4920 4907 4885 4906
4 2119 2093 2094 2117
4 5142 5137 5096 5083
4 669 654 661 650
4 1445 1462 1442 1453
4 1093 1081 1099 1091
4 888 878 893 881
4 3202 3197 3222 3233
4 3197 3222 3233 3218
4 799 816 807 805
4 602 590 597 589
4 602 590 589 592
4 597 602 589 599
4 589 597 599 587
4 599 589 587 573
4 4291 4280 4278 4333
4 4972 4976 5016 4993
4 4972 4976 4993 4939
4 4976 5016 4993 5018
4 5016 4972 4993 5014
4 2425 2446 2426 2434
4 2425 2446 2434 2448
4 2446 2426 2434 2438
4 2426 2425 2434 2409
4 210 211 209 223
4 2735 2717 2716 2709
4 881 890 898 893
4 3845 3853 3826 3872
4 3845 3853 3872 3895
4 1102 1110 1094 1101
4 1102 1110 1101 1117
4 1110 1094 1101 1109
4 1094 1102 1101 1092
4 1101 1110 1109 1116
4 1101 1094 1092 1098
4 1109 1101 1116 1092
4 4949 4983 4947 4969
4 1570 1562 1586 1581
4 2854 2833 2846 2834
4 3082 3080 3102 3088
4 3082 3080 3088 3052
4 3080 3102 3088 3098
4 3102 3082 3088 3101
4 1150 1138 1132 1137
4 5067 5022 5047 5048
4 601 619 612 604
4 601 619 604 599
4 619 612 604 627
4 612 601 604 594
4 604 612 594 608
4 601 604 594 584
4 604 601 599 584
4 604 612 608 627
4 145 158 154 136
4 5562 5566 5604 5581
4 5562 5566 5581 5527
4 5566 5604 5581 5583
4 5581 5566 5583 5542
4 5604 5562 5581 5624
4 5583 5581 5542 5573
4 5581 5604 5624 5583
4 1738 1745 1757 1744
4 4804 4806 4841 4816
4 4804 4806 4816 4769
4 4806 4841 4816 4849
4 4841 4804 4816 4822
4 3054 3052 3082 3069
4 3054 3052 3069 3029
4 3052 3082 3069 3088
4 3082 3054 3069 3071
4 3082 3069 3088 3092
4 5142 5163 5137 5083
4 1638 1637 1616 1630
4 1638 1637 1630 1649
4 1637 1616 1630 1615
4 1616 1638 1630 1614
4 1630 1616 1614 1612
4 1637 1630 1649 1636
4 1630 1649 1636 1626
4 1614 1630 1612 1636
4 1636 1630 1626 1614
4 1630 1626 1614 1619
4 1630 1612 1636 1625
4 5299 5298 5276 5274
4 4631 4633 4642 4604
4 1446 1438 1453 1445
4 2256 2257 2233 2253
4 75 71 77 84
4 5136 5137 5176 5152
4 5136 5137 5152 5110
4 5137 5176 5152 5163
4 5176 5136 5152 5160
4 5152 5136 5110 5160
4 367 364 371 356
4 371 367 356 361
4 1003 1018 1014 1021
4 1018 1014 1021 1031
4 1014 1021 1031 1022
4 1021 1018 1031 1034
4 835 846 853 852
4 4193 4154 4176 4169
4 4154 4176 4169 4131
4 5377 5337 5348 5363
4 5377 5337 5363 5393
4 5363 5377 5393 5416
4 5337 5348 5363 5298
4 5348 5377 5363 5387
4 5348 5377 5387 5421
4 5377 5387 5421 5416
4 5387 5421 5416 5375
4 5416 5387 5375 5394
4 5416 5387 5394 5363
4 3535 3543 3507 3540
4 3535 3543 3540 3575
4 4938 4939 4972 4959
4 4938 4939 4959 4920
4 4939 4972 4959 4993
4 4972 4938 4959 4971
4 4959 4938 4920 4954
4 4972 4959 4993 4991
4 3700 3673 3694 3689
4 3700 3673 3689 3697
4 3694 3700 3689 3728
4 2010 1997 2004 2025
4 2636 2604 2622 2615
4 2636 2604 2615 2595
4 2604 2615 2595 2569
4 2604 2622 2615 2569
4 4605 4639 4637 4628
4 4639 4637 4628 4676
4 4605 4639 4628 4612
4 4637 4605 4628 4595
4 4605 4628 4595 4591
4 1153 1160 1144 1150
4 4874 4847 4875 4865
4 4847 4875 4865 4851
4 4875 4874 4865 4919
4 1850 1828 1831 1825
4 1572 1561 1585 1571
4 1572 1561 1571 1548
4 1561 1585 1571 1584
4 1585 1572 1571 1595
4 1585 1571 1584 1593
4 3050 3078 3080 3068
4 1206 1215 1197 1200
4 4900 4883 4858 4860
4 473 481 465 477
4 3160 3171 3191 3156
4 1878 1854 1863 1876
4 1863 1878 1876 1890
4 1878 1854 1876 1865
4 1854 1863 1876 1852
4 1854 1863 1852 1845
4 1863 1876 1852 1849
4 1876 1854 1852 1865
4 624 639 634 633
4 3945 3943 3904 3933
4 3943 3904 3933 3903
4 3904 3945 3933 3906
4 214 212 224 216
4 5744 5730 5774 5711
4 4460 4472 4500 4477
4 4460 4472 4477 4437
4 3603 3608 3634 3623
4 4289 4329 4304 4307
4 4304 4289 4307 4272
4 4289 4329 4307 4308
4 4329 4304 4307 4348
4 4289 4307 4272 4274
4 4307 4289 4308 4274
4 2122 2105 2103 2117
4 165 152 162 159
4 1352 1361 1344 1354
4 1352 1361 1354 1373
4 1361 1344 1354 1351
4 1344 1352 1354 1335
4 1361 1354 1373 1374
4 1866 1888 1876 1889
4 4153 4169 4191 4190
4 3503 3477 3476 3486
4 950 931 942 940
4 950 931 940 939
4 942 950 940 961
4 5208 5249 5227 5233
4 5208 5249 5233 5247
4 5249 5227 5233 5272
4 5233 5249 5272 5247
4 882 891 900 873
4 5014 5016 5053 5036
4 5014 5016 5036 4993
4 5016 5053 5036 5054
4 5053 5014 5036 5049
4 5016 5036 4993 5039
4 5014 5036 5049 4991
4 269 278 271 280
4 927 932 943 940
4 932 943 940 951
4 943 940 951 960
4 940 932 951 939
4 927 932 940 931
4 943 927 940 934
4 943 940 960 952
4 3727 3722 3732 3692
4 3765 3766 3738 3725
4 86 91 81 95
4 496 503 498 511
4 496 503 511 520
4 5441 5443 5484 5461
4 5441 5443 5461 5422
4 5443 5484 5461 5464
4 5484 5441 5461 5480
4 5461 5441 5422 5429
4 5461 5443 5464 5422
4 740 729 733 751
4 3193 3202 3222 3213
4 3193 3202 3213 3186
4 3202 3222 3213 3230
4 3222 3193 3213 3214
4 3213 3202 3230 3200
4 5264 5213 5238 5240
4 3809 3801 3776 3796
4 3809 3801 3796 3841
4 4359 4335 4379 4300
4 4637 4635 4600 4627
4 4637 4635 4627 4673
4 4635 4600 4627 4618
4 4627 4635 4618 4658
4 4600 4637 4627 4595
4 4600 4627 4618 4595
4 4618 4627 4658 4632
4 3657 3634 3656 3649
4 3657 3634 3649 3623
4 3634 3656 3649 3667
4 3656 3657 3649 3674
4 3634 3649 3623 3617
4 3656 3649 3667 3674
4 3657 3649 3674 3648
4 5301 5263 5302 5291
4 5301 5263 5291 5274
4 5263 5302 5291 5308
4 5302 5291 5308 5342
4 5302 5301 5291 5342
4 1675 1674 1651 1666
4 1675 1674 1666 1690
4 1674 1651 1666 1650
4 1454 1434 1446 1445
4 1434 1446 1445 1428
4 1446 1454 1445 1461
4 1445 1446 1461 1453
4 1446 1461 1453 1477
4 1446 1454 1461 1477
4 1454 1445 1461 1462
4 1445 1461 1462 1453
4 1461 1453 1477 1473
4 1461 1453 1473 1462
4 1473 1461 1462 1477
4 3808 3790 3799 3770
4 2328 2352 2337 2329
4 552 557 566 570
4 690 704 692 708
4 3790 3830 3806 3813
4 3790 3830 3813 3829
4 3830 3806 3813 3836
4 3830 3813 3829 3836
4 3806 3813 3836 3787
4 3806 3813 3787 3790
4 3830 3806 3836 3843
4 3291 3288 3313 3298
4 3291 3288 3298 3262
4 3313 3291 3298 3322
4 4317 4341 4346 4280
4 1185 1192 1176 1181
4 4638 4678 4677 4642
4 1904 1888 1889 1891
4 439 421 427 428
4 421 427 428 414
4 427 439 428 448
4 427 428 414 424
4 428 427 448 443
4 1240 1248 1231 1236
4 5085 5067 5047 5061
4 5085 5067 5061 5088
4 5067 5047 5061 5048
4 5061 5067 5048 5088
4 5048 5061 5088 5070
4 5047 5061 5048 5021
4 5061 5048 5021 5070
4 505 514 499 510
4 2165 2167 2156 2194
4 3309 3282 3308 3296
4 202 198 212 206
4 1523 1522 1505 1519
4 1523 1522 1519 1547
4 1522 1505 1519 1504
4 1505 1523 1519 1502
4 5321 5298 5274 5304
4 4638 4642 4604 4606
4 1438 1449 1453 1451
4 1449 1453 1451 1464
4 1438 1449 1451 1439
4 1453 1438 1451 1442
4 1449 1451 1439 1464
4 2111 2095 2083 2096
4 2111 2095 2096 2121
4 2095 2083 2096 2078
4 445 434 447 439
4 1389 1399 1380 1390
4 1389 1399 1390 1409
4 1399 1380 1390 1394
4 1380 1389 1390 1373
4 1399 1390 1409 1419
4 1390 1380 1373 1384
4 138 141 137 144
4 4256 4276 4293 4257
4 3364 3377 3394 3378
4 3364 3377 3378 3369
4 3377 3378 3369 3405
4 3377 3394 3378 3405
4 5068 5089 5121 5043
4 2381 2382 2357 2369
4 2381 2382 2369 2394
4 2382 2357 2369 2347
4 2357 2381 2369 2351
4 2369 2381 2394 2368
4 2357 2369 2347 2337
4 2685 2718 2712 2700
4 2718 2712 2700 2740
4 2712 2685 2700 2686
4 927 915 932 931
4 3692 3699 3722 3705
4 3692 3699 3705 3671
4 3699 3722 3705 3707
4 3692 3699 3671 3659
4 3699 3722 3707 3719
4 3256 3282 3274 3254
4 535 521 531 536
4 535 521 536 522
4 1120 1126 1109 1127
4 455 473 465 462
4 455 473 462 461
4 462 455 461 447
4 462 455 447 459
4 461 462 447 458
4 5496 5459 5481 5458
4 4096 4125 4131 4139
4 227 214 224 223
4 1600 1598 1582 1584
4 1598 1582 1584 1581
4 1582 1600 1584 1573
4 1582 1584 1581 1570
4 1991 1998 2001 1973
4 4382 4418 4397 4385
4 1398 1408 1388 1389
4 767 777 765 783
4 5172 5136 5176 5160
4 1034 1042 1054 1044
4 193 180 186 187
4 168 156 163 167
4 4169 4193 4206 4192
4 4169 4193 4192 4176
4 4193 4192 4176 4199
4 4193 4206 4192 4227
4 4206 4169 4192 4207
4 4192 4206 4207 4248
4 4192 4169 4176 4131
4 869 859 878 863
4 4257 4236 4240 4221
4 4257 4236 4221 4255
4 5090 5129 5108 5130
4 5068 5082 5042 5072
4 5068 5082 5072 5121
4 2688 2717 2718 2698
4 2718 2688 2698 2685
4 4696 4715 4710 4726
4 1137 1127 1117 1132
4 706 705 686 689
4 4947 4916 4949 4934
4 4947 4916 4934 4899
4 4916 4949 4934 4919
4 4949 4947 4934 4969
4 4916 4934 4899 4919
4 4947 4934 4969 4958
4 1810 1789 1790 1796
4 5365 5369 5406 5383
4 5365 5369 5383 5326
4 5369 5406 5383 5410
4 5406 5365 5383 5402
4 1531 1544 1520 1519
4 1520 1531 1519 1499
4 715 719 704 710
4 1174 1181 1164 1176
4 619 628 612 627
4 3836 3822 3806 3787
4 284 285 299 295
4 5653 5610 5618 5628
4 5653 5610 5628 5671
4 5610 5618 5628 5569
4 5618 5653 5628 5656
4 5628 5653 5671 5656
4 2781 2808 2791 2822
4 4806 4825 4849 4816
4 3655 3662 3688 3667
4 1269 1259 1251 1266
4 4459 4434 4424 4417
4 3943 3945 3989 3933
4 4091 4048 4073 4093
4 4073 4091 4093 4115
4 4091 4093 4115 4132
4 4093 4073 4115 4083
4 2106 2124 2109 2112
4 2109 2106 2112 2081
4 2106 2124 2112 2091
4 2112 2106 2091 2081
4 4308 4293 4334 4312
4 4308 4293 4312 4274
4 4293 4334 4312 4317
4 4334 4308 4312 4351
4 3504 3531 3532 3522
4 3531 3532 3522 3558
4 3504 3531 3522 3503
4 3532 3504 3522 3508
4 3532 3504 3508 3495
4 3504 3522 3508 3490
4 3522 3532 3508 3525
4 3532 3508 3525 3495
4 3508 3525 3495 3511
4 957 967 974 969
4 4509 4490 4526 4520
4 934 943 952 940
4 4982 4988 5031 4999
4 4982 4988 4999 4950
4 4988 5031 4999 5042
4 5031 4982 4999 4992
4 4982 4999 4992 4935
4 5031 4999 5042 4992
4 3737 3758 3744 3768
4 4676 4708 4673 4691
4 41 35 56 53
4 35 56 53 39
4 56 41 53 52
4 56 53 39 55
4 56 53 55 80
4 5182 5183 5221 5195
4 5182 5183 5195 5156
4 5183 5221 5195 5220
4 5221 5182 5195 5237
4 5195 5182 5156 5181
4 5195 5221 5237 5220
4 1711 1689 1712 1710
4 3470 3450 3441 3486
4 197 209 206 202
4 5500 5455 5474 5471
4 5455 5474 5471 5425
4 5474 5500 5471 5528
4 209 223 216 214
4 403 394 392 408
4 5453 5449 5415 5440
4 5453 5449 5440 5492
4 5449 5415 5440 5412
4 5415 5453 5440 5421
4 517 531 520 536
4 531 520 536 521
4 4676 4673 4637 4656
4 4676 4673 4656 4691
4 4673 4637 4656 4627
4 4637 4676 4656 4628
4 4656 4676 4691 4674
4 4691 4656 4674 4661
4 4637 4656 4627 4628
4 4656 4627 4628 4661
4 4627 4637 4628 4595
4 4628 4627 4595 4632
4 5182 5219 5181 5237
4 392 378 394 384
4 3197 3193 3222 3205
4 998 999 1016 1003
4 757 764 773 771
4 2284 2285 2263 2273
4 2284 2285 2273 2300
4 2285 2263 2273 2274
4 2263 2284 2273 2253
4 2273 2284 2300 2280
4 2273 2285 2274 2299
4 2273 2263 2253 2274
4 2285 2274 2299 2295
4 2274 2299 2295 2292
4 2274 2273 2299 2292
4 3486 3494 3502 3523
4 4459 4491 4469 4534
4 617 618 602 610
4 4152 4132 4136 4115
4 4136 4152 4115 4135
4 4152 4132 4115 4134
4 4152 4132 4134 4168
4 4132 4115 4134 4093
4 4115 4152 4134 4135
4 4134 4152 4168 4171
4 4115 4134 4093 4135
4 2716 2709 2706 2741
4 1236 1244 1229 1240
4 2141 2163 2156 2142
4 4165 4175 4139 4176
4 683 689 688 673
4 5250 5292 5247 5266
4 5250 5292 5266 5270
4 5266 5250 5270 5197
4 5292 5247 5266 5289
4 5247 5250 5266 5210
4 2036 2014 2013 2023
4 2036 2014 2023 2020
4 2014 2013 2023 1994
4 2013 2036 2023 2040
4 2036 2023 2040 2046
4 2014 2023 2020 2004
4 2023 2040 2046 2032
4 3603 3580 3588 3593
4 3002 3001 3027 3023
4 1904 1926 1916 1927
4 5332 5313 5286 5303
4 5332 5313 5303 5350
4 5313 5286 5303 5255
4 3306 3299 3326 3298
4 130 132 142 133
4 142 130 133 131
4 1828 1849 1838 1850
4 5604 5606 5646 5626
4 5604 5606 5626 5583
4 5606 5646 5626 5649
4 5646 5604 5626 5668
4 5606 5626 5583 5628
4 5626 5646 5668 5671
4 113 109 104 115
4 4872 4841 4849 4854
4 4841 4849 4854 4816
4 4872 4841 4854 4870
4 4849 4872 4854 4890
4 4854 4841 4816 4861
4 4872 4854 4890 4870
4 241 227 237 234
4 5459 5420 5428 5439
4 5459 5420 5439 5458
4 5428 5459 5439 5481
4 5459 5439 5481 5458
4 1789 1809 1798 1810
4 1421 1410 1430 1419
4 2121 2119 2094 2126
4 2194 2195 2167 2179
4 2194 2195 2179 2209
4 2195 2167 2179 2180
4 2167 2194 2179 2156
4 2179 2194 2209 2188
4 2179 2195 2180 2209
4 678 691 689 690
4 4206 4227 4238 4248
4 909 927 919 918
4 909 927 918 908
4 927 919 918 934
4 919 909 918 912
4 918 909 908 903
4 908 918 903 922
4 918 919 912 933
4 908 918 922 927
4 918 903 922 914
4 922 918 914 933
4 731 729 749 750
4 5016 5018 5054 5039
4 2467 2468 2446 2458
4 2467 2468 2458 2494
4 2468 2446 2458 2438
4 2718 2738 2740 2732
4 2718 2738 2732 2731
4 2738 2740 2732 2752
4 2740 2718 2732 2700
4 2738 2732 2731 2752
4 2740 2732 2752 2730
4 2718 2732 2700 2698
4 2700 2718 2698 2685
4 2718 2732 2698 2731
4 2732 2700 2698 2714
4 890 897 906 905
4 897 906 905 920
4 906 890 905 893
4 906 905 920 921
4 3824 3845 3826 3805
4 3793 3767 3792 3784
4 3792 3793 3784 3824
4 3793 3767 3784 3768
4 3767 3792 3784 3787
4 3792 3784 3787 3817
4 3784 3787 3817 3795
4 1562 1550 1578 1581
4 3857 3871 3836 3875
4 1084 1073 1092 1077
4 1084 1073 1077 1064
4 1092 1084 1077 1093
4 1073 1077 1064 1068
4 1077 1084 1064 1079
4 1084 1077 1093 1079
4 5117 5067 5085 5088
4 489 505 499 496
4 489 505 496 497
4 505 496 497 511
4 496 497 511 498
4 157 160 158 171
4 5566 5527 5529 5542
4 5527 5529 5542 5498
4 5542 5527 5498 5524
4 1738 1724 1745 1744
4 669 674 658 673
4 4383 4424 4399 4379
4 4368 4351 4382 4371
4 4368 4351 4371 4329
4 4382 4368 4371 4384
4 4368 4371 4384 4348
4 4351 4382 4371 4385
4 4382 4371 4385 4384
4 4371 4385 4384 4376
4 1438 1427 1421 1428
4 2238 2239 2216 2225
4 2238 2239 2225 2253
4 2239 2216 2225 2227
4 2216 2238 2225 2209
4 2225 2238 2253 2233
4 2225 2216 2209 2207
4 2783 2759 2770 2784
4 1018 1010 1027 1026
4 461 445 447 455
4 4151 4189 4185 4168
4 4189 4185 4168 4208
4 4189 4185 4208 4223
4 4168 4189 4208 4221
4 820 811 827 817
4 839 854 850 847
4 839 854 847 852
4 854 850 847 864
4 850 839 847 831
4 4976 4979 5018 4997
4 4976 4979 4997 4964
4 4979 5018 4997 5039
4 5018 4976 4997 4993
4 4976 4997 4993 4964
4 4979 4997 4964 4992
4 4979 4997 4992 5039
4 4997 4964 4992 4975
4 5018 4997 5039 4993
4 4964 4979 4992 4982
4 4997 4992 5039 5030
4 4979 4992 4982 5024
4 690 688 704 689
4 194 188 198 193
4 1169 1160 1153 1164
4 1089 1077 1093 1092
4 4805 4811 4786 4789
4 4811 4786 4789 4809
4 5326 5331 5369 5345
4 1561 1548 1544 1556
4 150 151 152 141
4 1224 1215 1206 1211
4 4948 4925 4900 4903
4 242 247 255 248
4 631 624 634 618
4 634 631 618 623
4 4478 4518 4494 4527
4 4518 4494 4527 4520
4 3946 3891 3900 3912
4 3891 3900 3912 3873
4 3891 3900 3873 3841
4 3912 3891 3873 3888
4 3900 3912 3873 3872
4 3873 3891 3841 3888
4 5666 5692 5714 5694
4 5666 5692 5694 5632
4 5692 5714 5694 5740
4 5714 5666 5694 5685
4 153 144 147 138
4 3634 3633 3656 3667
4 3013 3035 3023 3006
4 590 577 583 589
4 590 577 589 592
4 577 583 589 571
4 152 141 146 150
4 2948 2947 2978 2964
4 172 184 176 182
4 413 402 419 420
4 932 926 941 939
4 3758 3737 3763 3768
4 1068 1075 1061 1073
4 5098 5100 5141 5118
4 5098 5100 5118 5072
4 5100 5141 5118 5156
4 5141 5098 5118 5121
4 5141 5118 5156 5147
4 1712 1731 1711 1710
4 5444 5406 5410 5418
4 5406 5410 5418 5383
4 5418 5406 5383 5422
4 4805 4824 4811 4789
4 132 144 142 138
4 622 624 620 633
4 620 622 633 614
4 655 666 657 672
4 3230 3229 3254 3240
4 3230 3229 3240 3212
4 3229 3254 3240 3264
4 3254 3230 3240 3256
4 3229 3240 3212 3245
4 3240 3212 3245 3225
4 3254 3240 3264 3274
4 3229 3240 3245 3264
4 3240 3245 3264 3225
4 223 234 228 227
4 5524 5527 5562 5558
4 5527 5562 5558 5581
4 5562 5558 5581 5624
4 5562 5524 5558 5564
4 5558 5581 5624 5573
4 5558 5562 5564 5601
4 5558 5562 5601 5624
4 1699 1686 1710 1689
4 5772 5744 5774 5782
4 5772 5744 5782 5728
4 5744 5782 5728 5731
4 4635 4673 4670 4658
4 4673 4670 4658 4690
4 4670 4658 4690 4664
4 5260 5262 5299 5274
4 5260 5262 5274 5237
4 5262 5299 5274 5301
4 5262 5274 5237 5263
4 125 121 117 126
4 1009 1016 1026 1018
4 857 864 872 870
4 864 872 870 873
4 872 857 870 868
4 870 864 873 847
4 2263 2264 2239 2254
4 2263 2264 2254 2274
4 2264 2239 2254 2227
4 2239 2263 2254 2253
4 2264 2254 2274 2252
4 2263 2254 2253 2274
4 4563 4544 4543 4553
4 2833 2806 2805 2822
4 1003 994 1010 1009
4 3376 3403 3405 3392
4 4269 4248 4227 4213
4 2152 2138 2124 2135
4 2152 2138 2135 2160
4 2135 2152 2160 2161
4 2124 2152 2135 2136
4 2152 2138 2160 2169
4 2138 2135 2160 2147
4 4657 4631 4642 4674
4 4657 4631 4674 4680
4 3208 3237 3232 3234
4 3232 3208 3234 3196
4 4125 4117 4131 4154
4 768 761 780 769
4 761 780 769 772
4 780 768 769 771
4 768 769 771 757
4 2927 2947 2941 2918
4 1200 1211 1192 1206
4 4542 4573 4574 4557
4 4574 4542 4557 4534
4 1903 1904 1889 1891
4 285 290 293 280
4 293 285 280 287
4 1257 1248 1240 1244
4 2941 2958 2965 2933
4 5139 5117 5085 5109
4 5139 5117 5109 5140
4 5117 5085 5109 5088
4 5109 5117 5088 5140
4 5088 5109 5140 5114
4 228 234 242 237
4 1764 1775 1773 1787
4 1775 1773 1787 1798
4 4573 4604 4574 4589
4 4573 4604 4589 4606
4 4604 4574 4589 4614
4 4574 4573 4589 4557
4 4589 4574 4557 4579
4 5299 5321 5274 5301
4 4454 4418 4439 4440
4 4418 4439 4440 4398
4 4439 4454 4440 4474
4 4454 4418 4440 4423
4 3582 3608 3583 3588
4 4329 4368 4348 4371
4 2095 2094 2078 2090
4 2095 2094 2090 2121
4 2094 2078 2090 2089
4 2078 2095 2090 2096
4 2095 2090 2096 2121
4 3777 3787 3766 3757
4 605 622 610 620
4 2263 2238 2253 2239
4 4219 4223 4189 4208
4 4219 4223 4208 4221
4 4208 4219 4221 4189
4 2382 2383 2358 2371
4 2382 2383 2371 2409
4 2383 2358 2371 2353
4 2358 2382 2371 2347
4 2371 2358 2347 2346
4 427 419 422 414
4 4767 4769 4804 4763
4 4767 4769 4763 4740
4 1089 1094 1075 1092
4 5028 5029 5064 5044
4 5028 5029 5044 4984
4 5029 5064 5044 5060
4 1750 1749 1731 1755
4 1750 1749 1755 1773
4 1755 1750 1773 1776
4 1731 1750 1755 1744
4 1750 1755 1744 1774
4 1750 1755 1774 1776
4 1773 1755 1776 1754
4 1755 1774 1776 1757
4 1126 1116 1109 1127
4 4925 4883 4900 4903
4 206 209 216 212
4 4199 4177 4216 4142
4 1757 1765 1778 1776
4 2807 2835 2809 2820
4 2807 2835 2820 2834
4 2835 2809 2820 2843
4 2809 2807 2820 2793
4 2807 2820 2793 2806
4 552 534 545 536
4 1616 1598 1600 1614
4 4032 3982 4010 3974
4 3982 4010 3974 3941
4 1421 1408 1398 1409
4 1398 1421 1409 1410
4 1421 1408 1409 1407
4 1408 1398 1409 1389
4 1421 1409 1410 1419
4 1409 1398 1410 1390
4 1409 1398 1390 1389
4 1408 1409 1407 1389
4 1421 1409 1419 1422
4 1409 1410 1419 1390
4 1398 1410 1390 1391
4 5601 5599 5564 5592
4 5599 5564 5592 5585
4 5601 5599 5592 5643
4 5564 5601 5592 5558
4 119 128 125 127
4 1034 1027 1042 1044
4 859 846 849 847
4 449 447 432 427
4 2519 2540 2522 2505
4 3739 3708 3724 3709
4 4676 4680 4710 4674
4 3740 3767 3768 3744
4 1153 1137 1143 1150
4 4949 4919 4952 4937
4 4949 4919 4937 4934
4 4919 4952 4937 4929
4 4952 4949 4937 4984
4 4937 4949 4934 4969
4 1553 1544 1531 1556
4 1553 1544 1556 1561
4 1556 1553 1561 1570
4 1556 1553 1570 1558
4 1190 1181 1174 1176
4 4096 4082 4055 4071
4 635 647 628 627
4 170 169 176 172
4 170 169 172 162
4 561 552 545 550
4 5685 5714 5733 5716
4 5685 5714 5716 5694
4 5714 5733 5716 5759
4 5733 5685 5716 5684
4 5714 5716 5694 5759
4 5685 5716 5684 5642
4 1269 1277 1259 1275
4 2032 2007 2026 2022
4 2032 2007 2022 2005
4 2007 2026 2022 2001
4 2022 2007 2001 2005
4 2026 2032 2022 2053
4 4254 4269 4227 4234
4 4254 4269 4234 4262
4 4227 4254 4234 4216
4 4254 4234 4216 4262
4 4254 4269 4262 4300
4 4269 4234 4262 4246
4 4269 4234 4246 4213
4 4262 4269 4246 4278
4 4269 4246 4278 4248
4 4269 4246 4248 4213
4 4234 4227 4216 4199
4 4216 4234 4199 4228
4 4234 4262 4246 4228
4 4262 4246 4228 4263
4 4246 4234 4228 4213
4 4228 4246 4213 4229
4 4246 4228 4263 4229
4 1325 1344 1331 1337
4 1331 1325 1337 1310
4 1325 1344 1337 1339
4 1305 1306 1318 1300
4 4116 4076 4095 4115
4 967 950 961 958
4 961 967 958 976
4 967 950 958 951
4 961 967 976 981
4 967 958 976 969
4 967 976 981 985
4 976 981 985 995
4 967 976 985 974
4 976 985 974 991
4 976 985 991 995
4 967 976 974 969
4 1719 1741 1733 1736
4 2118 2093 2117 2103
4 926 906 920 921
4 920 926 921 938
4 3722 3737 3744 3710
4 3163 3178 3197 3193
4 656 647 643 646
4 3230 3200 3229 3212
4 5484 5524 5522 5509
4 5484 5524 5509 5498
4 5524 5522 5509 5564
4 5522 5484 5509 5480
4 1699 1676 1686 1687
4 1699 1676 1687 1700
4 1676 1686 1687 1665
4 1686 1699 1687 1689
4 1687 1686 1689 1665
4 1687 1699 1700 1712
4 3995 3942 3974 3944
4 2199 2191 2170 2185
4 2199 2191 2185 2212
4 2191 2170 2185 2164
4 4308 4351 4329 4330
4 4351 4329 4330 4371
4 4329 4308 4330 4307
4 4330 4329 4307 4348
4 4308 4351 4330 4312
4 4330 4308 4312 4307
4 4330 4351 4371 4346
4 1016 1021 1026 1018
4 4578 4563 4599 4584
4 4578 4563 4584 4544
4 4599 4578 4584 4618
4 4563 4584 4544 4553
4 4584 4599 4618 4595
4 791 799 807 790
4 2308 2284 2300 2285
4 141 127 137 128
4 994 975 980 990
4 4459 4469 4434 4449
4 707 722 710 708
4 707 722 708 709
4 708 707 709 693
4 816 806 814 798
4 806 814 798 811
4 4909 4939 4905 4921
4 593 579 574 581
4 579 574 581 573
4 574 593 581 580
4 581 579 573 594
4 812 805 822 814
4 812 805 814 798
4 814 812 798 811
4 822 812 814 829
4 814 812 811 827
4 812 814 829 827
4 1220 1229 1211 1224
4 4449 4481 4480 4471
4 4481 4480 4471 4496
4 4480 4449 4471 4469
4 4480 4471 4496 4469
4 4471 4496 4469 4494
4 3002 3027 3029 3023
4 1275 1266 1257 1259
4 5238 5213 5190 5207
4 5238 5213 5207 5240
4 5213 5190 5207 5159
4 3306 3326 3327 3320
4 3306 3326 3320 3298
4 3326 3327 3320 3343
4 3327 3306 3320 3296
4 3320 3326 3343 3322
4 3306 3320 3296 3298
4 3320 3296 3298 3314
4 3296 3306 3298 3277
4 541 550 532 545
4 1997 1993 2004 1971
4 3607 3606 3632 3617
4 3857 3894 3871 3875
4 3857 3894 3875 3843
4 5212 5176 5218 5199
4 5212 5176 5199 5197
4 5199 5212 5197 5270
4 5176 5218 5199 5200
4 5218 5199 5200 5246
4 5218 5212 5199 5246
4 5199 5200 5246 5215
4 654 639 640 650
4 915 906 926 921
4 4095 4082 4096 4131
4 1117 1118 1137 1125
4 1117 1118 1125 1102
4 1137 1117 1125 1132
4 5402 5406 5443 5422
4 2331 2351 2337 2327
4 1150 1132 1145 1144
4 670 672 655 657
4 5022 4968 4995 4998
4 234 247 242 241
4 570 552 561 558
4 1421 1427 1408 1407
4 2191 2189 2164 2178
4 2164 2191 2178 2185
4 2191 2178 2185 2212
4 2901 2879 2895 2880
4 1027 1010 1025 1026
4 869 853 859 863
4 2167 2150 2156 2136
4 2150 2156 2136 2134
4 2572 2574 2540 2564
4 2572 2574 2564 2610
4 2574 2540 2564 2550
4 4236 4220 4240 4221
4 2610 2640 2642 2631
4 2610 2640 2631 2608
4 2642 2610 2631 2616
4 1077 1081 1079 1059
4 737 735 748 755
4 1153 1144 1137 1150
4 4846 4874 4873 4864
4 4846 4874 4864 4847
4 1831 1828 1810 1825
4 3261 3277 3281 3296
4 3080 3078 3098 3087
4 3080 3078 3087 3068
4 3078 3098 3087 3111
4 3098 3080 3087 3088
4 3098 3087 3111 3118
4 3080 3087 3088 3044
4 1206 1197 1190 1192
4 4082 4079 4055 4034
4 4052 4007 4045 4039
4 4007 4045 4039 4012
4 4045 4052 4039 4090
4 167 168 178 173
4 3171 3172 3191 3196
4 4913 4870 4872 4890
4 4289 4304 4265 4272
4 501 496 484 493
4 5252 5212 5218 5246
4 2103 2105 2080 2089
4 2979 2948 2978 2965
4 147 145 153 138
4 939 950 957 951
4 285 284 271 281
4 2759 2784 2761 2768
4 2759 2784 2768 2770
4 2768 2759 2770 2746
4 2784 2761 2768 2793
4 2761 2759 2768 2738
4 2770 2768 2746 2790
4 2768 2784 2793 2801
4 941 926 938 939
4 938 941 939 959
4 3722 3758 3732 3742
4 4708 4706 4673 4694
4 4708 4706 4694 4724
4 4706 4673 4694 4690
4 4694 4706 4690 4748
4 4673 4708 4694 4691
4 4673 4694 4690 4658
4 4694 4690 4658 4687
4 4694 4673 4691 4658
4 4694 4708 4724 4691
4 4724 4694 4691 4687
4 3045 3049 3068 3081
4 1699 1710 1724 1712
4 1446 1434 1427 1428
4 1434 1427 1428 1415
4 1427 1428 1415 1407
4 2515 2538 2514 2529
4 2515 2538 2529 2542
4 2538 2514 2529 2530
4 2855 2834 2854 2850
4 1010 994 1002 1009
4 1002 1010 1009 1025
4 4104 4114 4145 4134
4 821 839 831 830
4 821 839 830 833
4 839 831 830 847
4 831 821 830 814
4 830 839 847 846
4 821 830 814 827
4 17 15 18 10
4 3491 3485 3457 3470
4 3485 3457 3470 3443
4 1185 1176 1169 1181
4 4677 4678 4709 4682
4 5218 5256 5252 5246
4 5256 5252 5246 5296
4 2421 2397 2410 2394
4 1240 1231 1224 1229
4 2964 2941 2965 2948
4 5047 5022 4995 4998
4 489 499 481 493
4 5606 5610 5649 5671
4 1846 1837 1854 1852
4 4341 4333 4340 4280
4 2151 2152 2124 2136
4 2902 2931 2903 2916
4 2902 2931 2916 2928
4 921 913 931 915
4 5165 5208 5177 5187
4 5177 5165 5187 5124
4 5165 5208 5187 5157
4 5187 5165 5157 5124
4 163 173 168 167
4 881 898 891 893
4 1075 1094 1086 1078
4 1086 1075 1078 1070
4 1078 1086 1070 1098
4 5026 5043 4990 5042
4 1732 1731 1712 1724
4 3688 3704 3684 3667
4 1585 1605 1595 1593
4 1605 1595 1593 1619
4 156 146 152 147
4 3306 3277 3299 3298
4 558 567 550 561
4 2120 2117 2118 2141
4 998 991 999 1003
4 998 991 1003 1009
4 4746 4778 4759 4786
4 4439 4398 4420 4442
4 2119 2141 2118 2117
4 4204 4190 4207 4221
4 4204 4190 4221 4168
4 2196 2217 2198 2200
4 2198 2196 2200 2169
4 2196 2217 2200 2180
4 2200 2196 2180 2169
4 1042 1058 1054 1044
4 4633 4657 4648 4703
4 891 909 900 899
4 891 909 899 903
4 909 900 899 912
4 900 891 899 884
4 900 899 912 894
4 899 912 894 903
4 899 912 903 918
4 899 912 918 909
4 903 899 918 909
4 894 899 903 886
4 912 903 918 914
4 918 912 914 933
4 899 903 886 884
4 912 903 914 894
4 914 912 894 907
4 886 899 884 900
4 4765 4802 4783 4803
4 5163 5142 5120 5083
4 2547 2521 2530 2559
4 688 690 680 689
4 5043 5068 5042 5056
4 5121 5147 5120 5118
4 4518 4486 4494 4512
4 1174 1164 1156 1160
4 672 682 692 694
4 682 692 694 693
4 467 462 447 459
4 5697 5646 5649 5671
4 1924 1900 1913 1916
4 1900 1913 1916 1888
4 1913 1924 1916 1937
4 1924 1900 1916 1925
4 1916 1924 1925 1935
4 1916 1924 1935 1937
4 1924 1925 1935 1946
4 1925 1916 1935 1927
4 1935 1924 1946 1937
4 227 224 237 228
4 5712 5733 5760 5732
4 5712 5733 5732 5684
4 5733 5760 5732 5779
4 5760 5712 5732 5735
4 5732 5712 5684 5713
4 4478 4491 4521 4527
4 1251 1259 1244 1257
4 3001 2978 3000 3013
4 4472 4509 4500 4477
4 723 731 741 750
4 2807 2806 2834 2820
4 3758 3722 3744 3742
4 1714 1712 1690 1700
4 3976 3969 4020 3970
4 2069 2093 2088 2063
4 752 760 765 748
4 4009 4033 4010 4015
4 765 752 748 759
4 4009 4033 4015 4035
4 2681 2695 2667 2692
4 2695 2667 2692 2680
4 2681 2695 2692 2713
4 2695 2692 2713 2727
4 2695 2692 2727 2707
4 2692 2695 2680 2707
4 221 210 214 223
4 3582 3589 3608 3588
4 5738 5697 5700 5711
4 281 284 295 285
4 186 176 180 184
4 5183 5221 5220 5228
4 5220 5183 5228 5178
4 5228 5220 5178 5202
4 3212 3199 3180 3173
4 2740 2732 2730 2700
4 2732 2730 2700 2714
4 3875 3857 3843 3836
4 3843 3875 3836 3859
4 3950 3952 3908 3934
4 3950 3952 3934 3994
4 3952 3908 3934 3910
4 3908 3950 3934 3899
4 4833 4811 4786 4868
4 5255 5264 5240 5290
4 932 940 931 939
4 3364 3331 3330 3339
4 3331 3330 3339 3301
4 378 371 387 383
4 5298 5276 5274 5271
4 4390 4360 4391 4378
4 4390 4360 4378 4358
4 4360 4391 4378 4361
4 632 614 626 627
4 632 614 627 633
4 627 632 633 657
4 626 632 627 657
4 614 627 633 619
4 614 626 627 608
4 614 627 619 604
4 614 627 604 608
4 768 756 750 757
4 756 750 757 749
4 756 750 749 729
4 909 908 903 891
4 807 816 825 815
4 807 816 815 805
4 816 825 815 832
4 825 815 832 834
4 825 807 815 813
4 815 832 834 822
4 815 832 822 814
4 822 815 814 805
4 822 815 805 813
4 822 815 813 834
4 815 805 813 807
4 815 814 805 816
4 815 814 816 832
4 832 834 822 841
4 822 832 841 830
4 832 841 830 847
4 822 832 830 814
4 832 834 841 857
4 841 822 830 829
4 822 830 829 814
4 830 829 814 827
4 830 841 829 849
4 829 830 849 846
4 830 829 827 846
4 832 841 847 857
4 841 830 847 849
4 847 841 849 858
4 830 847 849 846
4 849 847 858 865
4 849 847 865 859
4 847 841 858 857
4 815 813 834 825
4 4935 4917 4918 4890
4 4935 4917 4890 4913
4 4169 4192 4207 4190
4 4192 4207 4190 4196
4 4207 4190 4196 4221
4 4192 4207 4196 4213
4 4043 3996 4036 4027
4 3996 4036 4027 3994
4 707 691 693 682
4 691 693 682 678
4 4915 4899 4947 4958
4 573 579 598 594
4 170 182 172 176
4 2987 2964 2965 2978
4 2964 2965 2978 2948
4 5365 5383 5402 5367
4 3539 3530 3556 3523
4 3539 3530 3523 3503
4 1120 1126 1127 1135
4 1120 1126 1135 1145
4 1126 1127 1135 1145
4 3784 3792 3824 3845
4 2080 2103 2089 2088
4 1562 1553 1550 1558
4 3470 3441 3443 3457
4 3470 3441 3457 3462
4 3470 3441 3462 3486
4 3462 3470 3486 3491
4 3457 3470 3462 3491
4 3784 3767 3787 3748
4 3784 3767 3748 3744
4 3787 3784 3748 3795
4 1157 1150 1164 1153
4 4824 4805 4807 4787
4 4824 4805 4787 4789
4 4805 4807 4787 4770
4 4787 4805 4770 4786
4 4807 4787 4770 4773
4 2233 2256 2253 2234
4 2300 2308 2285 2299
4 2308 2285 2299 2306
4 2285 2299 2306 2295
4 2299 2306 2295 2346
4 2910 2933 2932 2917
4 3719 3710 3685 3674
4 1592 1584 1586 1598
4 4807 4773 4808 4819
4 2901 2917 2902 2888
4 1286 1289 1284 1308
4 1773 1755 1754 1749
4 1755 1754 1749 1731
4 599 606 619 614
4 2352 2337 2329 2355
4 2124 2112 2091 2126
4 1809 1826 1802 1823
4 1809 1826 1823 1838
4 1826 1823 1838 1845
4 1826 1802 1823 1845
4 1802 1809 1823 1814
4 1823 1838 1845 1837
4 1823 1838 1837 1825
4 1838 1837 1825 1852
4 1838 1837 1852 1845
4 1823 1838 1825 1809
4 4508 4480 4469 4459
4 4696 4674 4682 4691
4 2762 2786 2779 2764
4 4291 4269 4300 4262
4 878 888 874 881
4 2080 2060 2059 2063
4 2059 2080 2063 2088
4 2709 2694 2706 2689
4 163 165 162 168
4 566 552 570 558
4 1047 1058 1044 1061
4 2917 2927 2943 2941
4 2917 2927 2941 2918
4 2943 2917 2941 2933
4 1220 1229 1224 1231
4 3924 3877 3881 3890
4 3877 3881 3890 3828
4 3881 3924 3890 3919
4 1344 1351 1331 1337
4 893 908 898 891
4 3102 3088 3098 3118
4 3102 3088 3118 3101
4 2646 2641 2665 2650
4 2665 2646 2650 2668
4 2646 2641 2650 2615
4 2641 2665 2650 2662
4 2650 2646 2615 2636
4 2227 2240 2226 2252
4 2227 2240 2252 2264
4 2240 2226 2252 2260
4 2240 2252 2264 2260
4 3193 3222 3205 3214
4 3205 3193 3214 3174
4 2034 2051 2033 2037
4 2033 2034 2037 2006
4 2034 2037 2006 2013
4 2034 2037 2013 2036
4 2949 2979 2973 2943
4 5195 5183 5220 5170
4 5195 5183 5170 5156
4 850 847 864 857
4 2489 2463 2464 2478
4 2489 2463 2478 2488
4 2463 2464 2478 2445
4 2464 2489 2478 2491
4 2464 2489 2491 2497
4 2489 2478 2491 2506
4 779 793 783 782
4 779 793 782 778
4 782 779 778 760
4 793 783 782 800
4 793 782 778 795
4 782 778 795 798
4 795 782 798 793
4 798 795 793 811
4 793 783 800 786
4 782 778 798 771
4 782 778 771 770
4 771 782 770 789
4 782 770 789 783
4 782 798 793 800
4 782 778 770 760
4 778 771 770 760
4 771 782 789 798
4 782 789 798 800
4 783 779 782 765
4 782 779 760 765
4 783 800 786 792
4 789 782 783 800
4 3872 3856 3873 3900
4 3856 3873 3900 3841
4 3856 3873 3841 3837
4 4812 4798 4772 4777
4 4798 4772 4777 4762
4 4772 4777 4762 4730
4 1494 1492 1471 1493
4 1471 1494 1493 1468
4 1494 1492 1493 1513
4 1493 1494 1513 1515
4 1493 1494 1515 1497
4 1493 1494 1497 1468
4 4276 4238 4280 4240
4 5299 5260 5274 5276
4 3777 3770 3790 3751
4 3261 3264 3234 3262
4 4454 4440 4474 4475
4 4454 4440 4475 4423
4 4184 4163 4144 4161
4 4184 4163 4161 4200
4 5490 5517 5489 5466
4 1519 1520 1499 1501
4 4734 4713 4720 4754
4 719 710 708 704
4 3193 3213 3214 3186
4 259 271 267 266
4 3144 3160 3173 3141
4 3144 3160 3141 3124
4 3945 3933 3906 3963
4 2036 2023 2046 2020
4 2023 2046 2020 2022
4 3644 3661 3673 3658
4 3644 3661 3658 3627
4 3673 3644 3658 3642
4 251 250 247 259
4 3327 3320 3343 3321
4 3327 3320 3321 3296
4 3320 3321 3296 3314
4 5338 5301 5342 5321
4 1430 1439 1438 1422
4 2946 2931 2943 2916
4 2946 2931 2916 2938
4 2943 2946 2916 2936
4 2943 2946 2936 2973
4 2946 2916 2936 2926
4 4873 4846 4864 4824
4 4846 4864 4824 4819
4 2211 2233 2210 2209
4 2210 2211 2209 2188
4 2211 2209 2188 2189
4 2209 2210 2188 2186
4 72 68 56 89
4 4020 3969 4013 3970
4 1916 1909 1888 1913
4 1916 1909 1913 1937
4 2090 2094 2089 2126
4 4509 4500 4477 4522
4 4509 4500 4522 4537
4 4500 4477 4522 4495
4 4500 4522 4537 4523
4 4522 4500 4495 4523
4 2688 2664 2694 2684
4 2688 2664 2684 2651
4 2664 2684 2651 2650
4 2684 2651 2650 2662
4 2651 2664 2650 2636
4 683 673 669 689
4 5199 5176 5200 5152
4 5199 5176 5152 5160
4 5200 5199 5152 5215
4 2381 2351 2368 2369
4 5324 5298 5348 5276
4 5490 5468 5492 5517
4 5490 5468 5517 5466
4 5468 5517 5466 5448
4 4618 4627 4632 4595
4 550 560 543 545
4 4901 4907 4867 4885
4 4472 4475 4509 4477
4 4472 4475 4477 4437
4 846 859 852 847
4 4959 4938 4954 4971
4 5208 5177 5187 5227
4 3903 3940 3896 3920
4 5363 5348 5387 5375
4 2273 2285 2299 2300
4 2299 2273 2300 2281
4 4481 4450 4483 4473
4 4481 4450 4473 4449
4 4450 4483 4473 4461
4 4483 4481 4473 4517
4 467 449 459 447
4 5311 5296 5333 5271
4 1073 1092 1077 1075
4 2575 2573 2542 2565
4 2575 2573 2565 2609
4 2573 2542 2565 2538
4 2542 2575 2565 2545
4 2542 2575 2545 2536
4 2575 2565 2545 2588
4 2565 2542 2545 2506
4 3739 3724 3766 3748
4 3739 3724 3748 3719
4 3724 3748 3719 3726
4 285 293 299 295
4 5238 5190 5216 5207
4 5546 5569 5571 5628
4 919 911 912 929
4 199 210 209 202
4 5412 5397 5374 5393
4 3378 3364 3369 3348
4 3369 3378 3348 3373
4 4035 4071 4069 4055
4 4069 4035 4055 4047
4 4055 4069 4047 4096
4 4055 4069 4096 4071
4 1339 1350 1334 1335
4 5054 5078 5053 5036
4 4192 4176 4199 4213
4 4192 4176 4213 4167
4 1738 1757 1740 1744
4 835 843 833 852
4 1956 1969 1979 1984
4 3491 3514 3485 3494
4 483 484 467 477
4 4204 4220 4221 4207
4 4628 4605 4612 4591
4 1850 1852 1838 1825
4 5581 5566 5542 5527
4 5056 5028 5064 5044
4 634 653 641 639
4 1390 1380 1384 1394
4 4563 4599 4584 4595
4 2280 2301 2282 2300
4 666 657 672 671
4 4691 4694 4658 4687
4 4675 4629 4651 4652
4 4651 4675 4652 4689
4 4629 4651 4652 4610
4 4652 4651 4689 4659
4 4651 4652 4610 4622
4 4073 4076 4115 4095
4 5345 5372 5369 5397
4 5345 5372 5397 5349
4 5397 5345 5349 5364
4 5039 5055 5054 5078
4 216 206 212 213
4 2931 2916 2928 2943
4 5743 5771 5802 5782
4 5055 5039 5059 5083
4 1380 1373 1384 1374
4 1384 1380 1374 1394
4 1374 1384 1394 1385
4 5274 5260 5237 5245
4 5237 5274 5245 5258
4 921 939 938 926
4 921 939 926 932
4 2404 2394 2421 2416
4 2404 2394 2416 2396
4 2404 2394 2396 2382
4 2394 2416 2396 2379
4 5157 5160 5173 5108
4 5157 5160 5108 5129
4 5108 5157 5129 5124
4 2719 2742 2741 2746
4 3082 3069 3092 3071
4 5592 5564 5558 5509
4 1238 1240 1224 1229
4 3442 3451 3426 3456
4 3442 3451 3456 3476
4 3186 3212 3213 3225
4 4679 4641 4665 4660
4 4679 4641 4660 4678
4 4665 4679 4660 4714
4 266 261 274 267
4 188 186 193 184
4 5085 5139 5109 5119
4 5271 5295 5296 5333
4 5130 5160 5129 5108
4 514 525 529 508
4 525 529 508 519
4 525 529 519 539
4 514 525 508 510
4 525 529 539 543
4 525 529 543 532
4 519 525 539 528
4 529 539 543 554
4 543 525 532 545
4 508 525 519 510
4 529 519 539 533
4 519 525 528 510
4 3256 3274 3266 3246
4 3256 3274 3246 3240
4 3266 3256 3246 3233
4 3256 3246 3233 3230
4 3246 3266 3233 3249
4 171 167 160 177
4 4052 4039 4090 4070
4 3480 3495 3458 3473
4 3480 3495 3473 3490
4 3473 3480 3490 3453
4 3495 3458 3473 3479
4 3458 3480 3473 3453
4 5464 5444 5418 5406
4 4322 4295 4324 4313
4 4322 4295 4313 4278
4 4295 4324 4313 4297
4 931 922 942 940
4 3504 3522 3490 3503
4 934 952 944 946
4 934 952 946 940
4 952 944 946 963
4 944 934 946 929
4 3167 3152 3146 3138
4 3167 3152 3138 3163
4 3152 3146 3138 3126
4 3146 3138 3126 3141
4 3138 3152 3126 3131
4 3146 3138 3141 3186
4 5110 5136 5130 5160
4 5492 5453 5486 5472
4 5453 5486 5472 5416
4 5492 5453 5472 5440
4 5453 5472 5440 5416
4 353 368 363 361
4 2369 2347 2337 2355
4 4330 4329 4348 4371
4 2082 2070 2061 2072
4 2061 2082 2072 2071
4 2061 2082 2071 2075
4 4905 4885 4909 4921
4 4726 4740 4763 4769
4 4230 4222 4264 4239
4 4230 4222 4239 4200
4 306 311 312 307
4 312 306 307 308
4 306 311 307 297
4 5442 5456 5416 5472
4 2189 2188 2163 2179
4 4371 4385 4376 4346
4 4449 4481 4471 4473
4 4481 4471 4473 4496
4 3960 3958 4000 3971
4 3960 3958 3971 3917
4 3958 4000 3971 3997
4 4000 3960 3971 4005
4 2005 1989 1991 1995
4 2005 1989 1995 2006
4 1989 1991 1995 1967
4 1991 2005 1995 2001
4 1995 1991 2001 1976
4 5774 5730 5798 5729
4 5774 5730 5729 5711
4 2191 2189 2178 2212
4 2640 2608 2636 2625
4 2640 2608 2625 2631
4 2608 2636 2625 2595
4 2625 2608 2595 2631
4 2636 2640 2625 2651
4 2625 2640 2631 2651
4 2640 2631 2651 2642
4 2631 2625 2651 2643
4 270 269 266 280
4 2142 2126 2140 2161
4 2421 2425 2404 2416
4 729 737 749 756
4 3776 3809 3796 3782
4 3776 3809 3782 3805
4 3809 3782 3805 3837
4 3805 3809 3837 3826
4 3837 3805 3826 3845
4 293 285 287 295
4 576 594 580 581
4 576 594 581 584
4 581 576 584 573
4 594 581 584 573
4 580 576 581 574
4 576 581 574 573
4 594 580 581 593
4 581 594 593 579
4 5546 5541 5549 5505
4 5546 5541 5505 5492
4 5541 5549 5505 5486
4 5541 5505 5492 5486
4 5505 5492 5486 5472
4 5486 5505 5472 5456
4 5505 5492 5472 5517
4 4454 4475 4437 4423
4 3969 3932 3927 3921
4 5455 5408 5425 5435
4 5425 5455 5435 5471
4 3420 3426 3453 3456
4 1031 1021 1034 1035
4 1034 1031 1035 1048
4 1031 1021 1035 1032
4 1031 1035 1048 1040
4 1035 1034 1048 1054
4 1035 1034 1054 1046
4 1048 1035 1054 1059
4 2712 2723 2686 2700
4 2712 2723 2700 2740
4 4385 4370 4373 4346
4 4419 4391 4422 4412
4 4419 4391 4412 4378
4 4391 4422 4412 4381
4 4422 4419 4412 4450
4 4391 4412 4378 4361
4 4228 4197 4199 4216
4 4197 4199 4216 4175
4 4197 4199 4175 4176
4 4199 4175 4176 4142
4 4199 4216 4175 4142
4 3787 3792 3817 3822
4 3792 3817 3822 3845
4 3817 3822 3845 3836
4 3817 3822 3836 3787
4 3845 3817 3836 3829
4 4455 4470 4439 4442
4 4455 4470 4442 4478
4 5615 5642 5620 5595
4 5642 5620 5595 5631
4 4639 4612 4631 4628
4 4631 4639 4628 4674
4 4628 4631 4674 4661
4 4674 4691 4661 4682
4 3758 3732 3742 3774
4 3326 3299 3322 3298
4 5009 5026 4969 5042
4 209 223 214 210
4 6127 6132 6128 6092
4 4125 4131 4139 4154
4 1837 1854 1852 1845
4 1619 1626 1640 1630
4 3126 3118 3141 3138
4 3126 3118 3138 3101
4 3118 3141 3138 3128
4 5292 5266 5270 5319
4 5292 5266 5319 5289
4 18 36 26 19
4 2351 2357 2337 2369
4 4959 4993 4991 4977
4 2959 2939 2972 2954
4 2972 2959 2954 2982
4 2959 2939 2954 2935
4 2939 2972 2954 2955
4 3740 3744 3748 3767
4 2805 2833 2822 2826
4 608 598 593 604
4 593 608 604 594
4 604 593 594 598
4 1421 1409 1422 1428
4 3078 3087 3068 3081
4 4045 4052 4090 4110
4 4052 4090 4110 4070
4 2330 2329 2303 2318
4 2303 2330 2318 2320
4 2330 2329 2318 2355
4 2329 2303 2318 2302
4 1127 1144 1145 1132
4 2931 2903 2916 2938
4 5602 5553 5576 5570
4 5602 5553 5570 5577
4 5553 5576 5570 5528
4 5576 5602 5570 5629
4 2301 2328 2327 2304
4 2327 2301 2304 2282
4 2301 2304 2282 2300
4 2301 2304 2300 2328
4 3699 3687 3710 3674
4 3699 3687 3674 3659
4 3766 3767 3748 3787
4 2879 2853 2872 2846
4 4759 4744 4715 4726
4 4759 4744 4726 4769
4 805 814 798 816
4 5321 5298 5304 5363
4 2135 2160 2147 2153
4 2135 2160 2153 2161
4 4234 4227 4199 4213
4 5732 5733 5779 5759
4 5733 5779 5759 5795
4 5779 5759 5795 5825
4 1145 1150 1144 1160
4 4048 3995 4032 4053
4 1266 1281 1270 1274
4 1270 1266 1274 1250
4 1266 1281 1274 1269
4 1281 1270 1274 1290
4 1274 1266 1269 1251
4 1269 1274 1251 1264
4 1269 1274 1264 1284
4 5291 5263 5308 5220
4 2689 2690 2719 2709
4 124 133 131 136
4 131 124 136 116
4 133 131 136 142
4 4054 4073 4053 4083
4 493 483 477 484
4 3001 2993 2978 2995
4 3001 2993 2995 3023
4 2993 2995 3023 3008
4 4964 4992 4975 4935
4 4964 4992 4935 4982
4 4573 4589 4557 4556
4 4573 4589 4556 4606
4 4589 4557 4556 4555
4 2445 2447 2423 2437
4 2423 2445 2437 2424
4 5159 5164 5192 5213
4 1102 1101 1092 1103
4 1101 1092 1103 1116
4 5259 5238 5216 5235
4 5238 5216 5235 5207
4 5216 5259 5235 5222
4 5235 5238 5207 5255
4 5235 5238 5255 5286
4 5238 5207 5255 5240
4 5207 5235 5255 5224
4 5207 5255 5240 5224
4 4152 4153 4190 4169
4 3656 3667 3685 3674
4 3283 3309 3301 3274
4 5059 5041 5042 5082
4 5041 5042 5082 5072
4 628 612 627 626
4 1367 1388 1372 1369
4 1372 1367 1369 1348
4 4877 4890 4849 4825
4 3531 3522 3503 3539
4 3531 3522 3539 3558
4 882 900 892 873
4 4291 4300 4333 4292
4 5029 5064 5060 5074
4 5323 5365 5367 5353
4 5323 5365 5353 5319
4 5353 5323 5319 5289
4 5365 5367 5353 5383
4 5367 5323 5353 5327
4 5353 5365 5383 5319
4 4500 4460 4477 4495
4 2759 2770 2746 2735
4 3786 3764 3802 3785
4 3764 3802 3785 3783
4 3802 3786 3785 3819
4 3191 3171 3196 3179
4 5458 5442 5420 5439
4 1110 1109 1116 1127
4 3045 3049 3081 3022
4 2212 2211 2189 2205
4 2212 2211 2205 2234
4 2211 2189 2205 2209
4 2205 2211 2209 2225
4 2209 2205 2225 2207
4 2209 2205 2207 2180
4 2205 2207 2180 2185
4 2189 2212 2205 2178
4 2189 2205 2209 2179
4 2205 2209 2179 2180
4 2205 2225 2207 2227
4 2189 2205 2179 2178
4 2205 2179 2178 2180
4 2179 2178 2180 2161
4 2180 2179 2161 2167
4 2179 2161 2167 2156
4 2225 2207 2227 2216
4 2178 2180 2161 2160
4 2161 2167 2156 2136
4 2156 2161 2136 2142
4 2179 2178 2161 2163
4 2179 2161 2156 2163
4 5419 5394 5420 5442
4 5419 5394 5442 5416
4 5394 5442 5416 5424
4 2026 2022 2001 2016
4 2026 2022 2016 2048
4 2022 2001 2016 2004
4 4784 4783 4775 4822
4 1478 1462 1464 1456
4 2540 2572 2564 2541
4 173 171 178 167
4 171 178 167 177
4 1461 1454 1462 1476
4 1462 1461 1476 1477
4 1461 1476 1477 1475
4 1461 1476 1475 1454
4 1476 1477 1475 1500
4 1477 1461 1475 1454
4 2238 2215 2236 2233
4 1334 1315 1318 1335
4 3913 3958 3917 3928
4 3913 3958 3928 3956
4 3958 3917 3928 3971
4 3917 3913 3928 3874
4 3928 3958 3971 3978
4 3422 3407 3443 3382
4 4972 4993 5014 4991
4 5014 4972 4991 4971
4 4991 5014 4971 5032
4 4991 5014 5032 5049
4 5014 5032 5049 5073
4 5032 5049 5073 5051
4 2514 2515 2529 2488
4 3861 3842 3892 3864
4 3861 3842 3864 3819
4 3842 3892 3864 3884
4 3892 3861 3864 3906
4 3864 3892 3906 3914
4 3892 3861 3906 3904
4 3861 3864 3906 3878
4 3892 3906 3914 3947
4 3892 3906 3947 3945
4 3861 3906 3904 3878
4 3906 3947 3945 3963
4 3947 3945 3963 4002
4 3277 3261 3259 3284
4 3277 3261 3284 3298
4 3261 3259 3284 3262
4 3261 3284 3298 3262
4 3284 3277 3298 3299
4 3298 3284 3299 3291
4 3298 3284 3291 3262
4 3284 3291 3262 3259
4 3284 3299 3291 3259
4 3284 3277 3299 3259
4 4545 4517 4550 4533
4 4545 4517 4533 4514
4 4517 4550 4533 4519
4 4550 4545 4533 4575
4 4517 4550 4519 4501
4 4533 4517 4519 4473
4 561 545 556 560
4 2225 2239 2227 2254
4 2225 2239 2254 2253
4 2254 2225 2253 2234
4 2227 2225 2254 2234
4 3871 3894 3920 3875
4 3894 3920 3875 3939
4 858 841 851 857
4 5168 5163 5198 5214
4 5118 5098 5072 5121
4 3111 3124 3125 3141
4 5303 5332 5350 5315
4 3900 3946 3912 3962
4 3946 3912 3962 3955
4 3912 3962 3955 3937
4 3962 3946 3955 4006
4 1277 1296 1282 1294
4 3392 3375 3374 3361
4 3392 3375 3361 3376
4 2688 2717 2698 2709
4 4439 4440 4398 4442
4 5498 5489 5529 5517
4 3837 3826 3872 3845
4 3872 3837 3845 3878
4 2138 2160 2169 2157
4 4877 4833 4868 4825
4 4824 4832 4825 4873
4 832 840 834 857
4 4865 4847 4851 4819
4 4865 4847 4819 4864
4 4847 4851 4819 4808
4 4865 4847 4864 4874
4 4864 4865 4874 4899
4 4847 4851 4808 4839
4 4864 4865 4899 4890
4 4874 4864 4899 4873
4 4864 4899 4873 4825
4 4851 4808 4839 4795
4 247 259 255 253
4 1814 1800 1796 1825
4 5181 5219 5198 5237
4 573 567 558 561
4 1755 1744 1774 1757
4 5200 5218 5246 5256
4 2233 2257 2236 2253
4 541 551 550 545
4 4762 4719 4730 4732
4 4730 4762 4732 4777
4 4719 4730 4732 4693
4 1549 1573 1560 1571
4 5016 4993 5018 5039
4 994 975 990 991
4 990 994 991 1009
4 5176 5199 5197 5160
4 5199 5197 5160 5173
4 5142 5089 5121 5082
4 4274 4272 4257 4312
4 3671 3692 3659 3675
4 1689 1687 1665 1674
4 1689 1687 1674 1690
4 1689 1687 1690 1712
4 1687 1665 1674 1666
4 1689 1687 1712 1699
4 1665 1674 1666 1650
4 1665 1674 1650 1662
4 1650 1665 1662 1644
4 1650 1665 1644 1655
4 1665 1662 1644 1655
4 1687 1674 1690 1666
4 1687 1690 1712 1700
4 1687 1690 1700 1666
4 1665 1689 1674 1662
4 1666 1665 1650 1655
4 1662 1650 1644 1632
4 873 882 872 892
4 1584 1585 1593 1605
4 2867 2859 2885 2869
4 2859 2885 2869 2886
4 2885 2867 2869 2889
4 503 496 517 520
4 715 705 710 704
4 1637 1630 1636 1625
4 5391 5367 5402 5383
4 4939 4959 4920 4921
4 1073 1077 1068 1075
4 4743 4711 4745 4727
4 4711 4745 4727 4714
4 4743 4711 4727 4709
4 4745 4743 4727 4773
4 5163 5120 5151 5148
4 3394 3364 3378 3380
4 3787 3766 3757 3748
4 3766 3757 3748 3724
4 3757 3748 3724 3726
4 2379 2377 2352 2369
4 811 801 800 817
4 801 800 817 810
4 3633 3639 3667 3634
4 3967 3969 3927 3968
4 4555 4527 4557 4556
4 5036 5016 5054 5039
4 2163 2156 2142 2161
4 854 852 863 859
4 3758 3763 3732 3774
4 3758 3763 3774 3776
4 3758 3763 3776 3768
4 3774 3758 3776 3742
4 3763 3774 3776 3781
4 3776 3758 3768 3744
4 3776 3758 3744 3742
4 4627 4635 4658 4673
4 4358 4322 4360 4340
4 198 186 195 193
4 2822 2839 2826 2846
4 2822 2839 2846 2836
4 5420 5428 5439 5378
4 988 995 1007 996
4 988 995 996 977
4 995 1007 996 1014
4 1007 988 996 997
4 610 620 602 599
4 3420 3405 3419 3390
4 3419 3420 3390 3417
4 3420 3405 3390 3378
4 3419 3420 3417 3456
4 5686 5688 5730 5711
4 3822 3836 3852 3845
4 5036 5053 5049 5108
4 1916 1904 1927 1903
4 427 439 448 447
4 5632 5615 5582 5595
4 3543 3565 3523 3541
4 2118 2141 2134 2120
4 2134 2118 2120 2088
4 3125 3118 3098 3111
4 2854 2870 2855 2850
4 3967 3965 4011 3979
4 3967 3965 3979 3924
4 3965 4011 3979 4005
4 4011 3967 3979 4013
4 2005 2033 2006 2023
4 3477 3456 3476 3486
4 4677 4678 4682 4642
4 4682 4677 4642 4657
4 4642 4682 4657 4674
4 2610 2572 2608 2597
4 2610 2572 2597 2564
4 2572 2608 2597 2595
4 2608 2597 2595 2631
4 2608 2610 2597 2631
4 2572 2597 2564 2559
4 2610 2597 2631 2594
4 240 230 241 234
4 899 903 884 891
4 5700 5704 5739 5719
4 5700 5704 5719 5671
4 5704 5739 5719 5735
4 5739 5700 5719 5738
4 5719 5700 5671 5711
4 368 377 363 370
4 3213 3202 3200 3186
4 2466 2467 2448 2457
4 2448 2466 2457 2450
4 2466 2467 2457 2490
4 2467 2448 2457 2446
4 3180 3173 3160 3141
4 3160 3180 3141 3158
4 5286 5332 5303 5315
4 3952 3956 3910 3936
4 3952 3956 3936 3996
4 3956 3910 3936 3913
4 3910 3952 3936 3934
4 3952 3936 3934 3990
4 657 647 635 627
4 3425 3419 3392 3410
4 3419 3392 3410 3409
4 1788 1796 1778 1776
4 3099 3101 3131 3114
4 3099 3101 3114 3092
4 3099 3101 3092 3071
4 3101 3114 3092 3118
4 3114 3099 3092 3090
4 3356 3339 3355 3369
4 3356 3339 3369 3364
4 1388 1398 1389 1390
4 1388 1398 1390 1378
4 1398 1390 1378 1391
4 1390 1388 1378 1373
4 1378 1390 1373 1384
4 1389 1388 1390 1373
4 1388 1378 1373 1367
4 1378 1373 1367 1357
4 1378 1373 1357 1368
4 1378 1390 1384 1391
4 1373 1378 1384 1368
4 1373 1367 1357 1352
4 501 483 493 484
4 3691 3685 3667 3674
4 3691 3685 3674 3719
4 2752 2740 2730 2764
4 840 850 857 832
4 4006 4030 4057 4053
4 4006 4030 4053 3995
4 2981 3006 2995 3008
4 672 670 671 657
4 2861 2860 2840 2859
4 624 620 633 634
4 3206 3172 3196 3191
4 3206 3172 3191 3215
4 3191 3206 3215 3208
4 3215 3191 3208 3245
4 3196 3206 3191 3208
4 4740 4724 4763 4767
4 465 455 462 459
4 3237 3232 3234 3262
4 3232 3234 3262 3259
4 3232 3234 3259 3196
4 830 831 814 832
4 830 831 832 847
4 1078 1086 1098 1094
4 1089 1075 1077 1092
4 967 958 969 951
4 958 969 951 960
4 958 969 960 976
4 951 958 960 940
4 951 958 940 950
4 958 960 940 953
4 960 958 976 966
4 958 940 950 961
4 940 951 950 939
4 960 958 966 953
4 5733 5760 5779 5793
4 5760 5779 5793 5786
4 5793 5760 5786 5791
4 2959 2956 2935 2936
4 1749 1754 1729 1731
4 5387 5375 5394 5363
4 1145 1132 1126 1127
4 4527 4521 4534 4491
4 3719 3709 3739 3724
4 3281 3296 3282 3264
4 3281 3296 3264 3261
4 4846 4824 4807 4819
4 5566 5583 5542 5529
4 212 208 220 213
4 208 220 213 218
4 212 208 213 201
4 208 213 201 218
4 220 212 213 216
4 605 610 599 620
4 2094 2093 2089 2117
4 2093 2089 2117 2103
4 2089 2117 2103 2105
4 5710 5655 5680 5672
4 5710 5655 5672 5690
4 5655 5680 5672 5629
4 5680 5710 5672 5742
4 4496 4508 4469 4527
4 5733 5716 5759 5732
4 5733 5716 5732 5684
4 5716 5732 5684 5717
4 5716 5759 5732 5717
4 4312 4330 4307 4318
4 4312 4330 4318 4346
4 4312 4330 4346 4351
4 4330 4307 4318 4354
4 4760 4734 4783 4748
4 4783 4760 4748 4775
4 4760 4734 4748 4720
4 4748 4760 4720 4775
4 4760 4734 4720 4754
4 4734 4748 4720 4690
4 2160 2152 2169 2168
4 2160 2152 2168 2161
4 4578 4537 4539 4544
4 4537 4539 4544 4509
4 878 859 865 863
4 3813 3790 3829 3797
4 3829 3813 3797 3795
4 3829 3813 3795 3817
4 3453 3456 3490 3473
4 3456 3490 3473 3472
4 3490 3473 3472 3508
4 3490 3473 3508 3495
4 3473 3508 3495 3511
4 3508 3490 3495 3504
4 1215 1206 1211 1200
4 3917 3865 3874 3883
4 3865 3874 3883 3816
4 3874 3917 3883 3928
4 3917 3883 3928 3971
4 1310 1290 1300 1301
4 1310 1290 1301 1302
4 1290 1300 1301 1289
4 1300 1310 1301 1318
4 1300 1301 1289 1306
4 1301 1289 1306 1308
4 2665 2690 2689 2684
4 4573 4575 4606 4556
4 5214 5200 5163 5209
4 5214 5200 5209 5271
4 5200 5163 5209 5215
4 156 163 167 157
4 2217 2198 2200 2226
4 1798 1796 1789 1810
4 5190 5207 5159 5175
4 5190 5207 5175 5216
4 5451 5430 5411 5426
4 5430 5411 5426 5381
4 5411 5451 5426 5417
4 592 584 573 599
4 5546 5535 5492 5517
4 5546 5535 5517 5571
4 1164 1156 1160 1145
4 3097 3078 3081 3111
4 654 653 639 650
4 4263 4229 4266 4253
4 4263 4229 4253 4246
4 4229 4266 4253 4230
4 4253 4263 4246 4278
4 4263 4246 4278 4262
4 4253 4263 4278 4295
4 4246 4253 4278 4248
4 4278 4263 4262 4292
4 4278 4263 4292 4295
4 4246 4253 4248 4213
4 4262 4278 4292 4291
4 4278 4292 4291 4333
4 5628 5618 5656 5616
4 5618 5656 5616 5677
4 5656 5616 5677 5661
4 3603 3623 3612 3588
4 3603 3623 3588 3608
4 3612 3603 3588 3593
4 3612 3603 3593 3635
4 403 421 414 407
4 403 421 407 408
4 5326 5319 5293 5311
4 4441 4442 4401 4469
4 212 224 216 220
4 3354 3343 3374 3361
4 3354 3343 3361 3327
4 2258 2234 2235 2242
4 2258 2234 2242 2256
4 2234 2235 2242 2212
4 2235 2258 2242 2262
4 781 771 789 798
4 3732 3722 3742 3707
4 4055 4079 4047 4034
4 5415 5440 5412 5393
4 5415 5440 5393 5421
4 661 670 669 650
4 661 670 650 657
4 4765 4784 4748 4738
4 4748 4765 4738 4734
4 4748 4765 4734 4783
4 4738 4748 4734 4706
4 1876 1888 1890 1900
4 2882 2888 2903 2874
4 3426 3419 3442 3456
4 5208 5210 5247 5203
4 5208 5210 5203 5167
4 5210 5203 5167 5160
4 3639 3632 3662 3637
4 5464 5461 5422 5448
4 3649 3674 3648 3658
4 2284 2259 2282 2280
4 3222 3213 3230 3240
4 3213 3230 3240 3212
4 3240 3213 3212 3225
4 3777 3787 3757 3779
4 1277 1259 1275 1258
4 1427 1428 1407 1421
4 2570 2573 2611 2595
4 4004 4009 3991 4047
4 4595 4572 4576 4553
4 4595 4572 4553 4563
4 4481 4517 4514 4502
4 4481 4517 4502 4473
4 4517 4514 4502 4533
4 4514 4481 4502 4496
4 4502 4514 4496 4556
4 4502 4481 4473 4496
4 4502 4517 4533 4473
4 266 253 261 259
4 505 496 511 520
4 505 496 520 517
4 1190 1206 1192 1191
4 1192 1190 1191 1176
4 1192 1190 1176 1181
4 2850 2835 2834 2820
4 2850 2835 2820 2843
4 4883 4858 4860 4840
4 4709 4677 4682 4703
4 5047 4995 5023 5021
4 4066 4031 4058 4046
4 4066 4031 4046 4029
4 4031 4058 4046 4002
4 1315 1334 1327 1335
4 1334 1327 1335 1348
4 5092 5078 5055 5110
4 5092 5078 5110 5130
4 1571 1584 1593 1573
4 4847 4875 4851 4839
4 4875 4851 4839 4886
4 4875 4851 4886 4865
4 4851 4839 4886 4863
4 3544 3564 3574 3561
4 3544 3564 3561 3527
4 3574 3544 3561 3542
4 101 110 112 116
4 112 101 116 94
4 110 112 116 124
4 1866 1876 1877 1889
4 1877 1866 1889 1869
4 1889 1877 1869 1894
4 1877 1866 1869 1852
4 620 634 625 633
4 625 620 633 614
4 5606 5583 5610 5628
4 5468 5449 5492 5440
4 5468 5449 5440 5412
4 5213 5207 5240 5192
4 5213 5207 5192 5159
4 5207 5240 5192 5211
4 5207 5192 5159 5166
4 2281 2280 2256 2273
4 2300 2304 2331 2337
4 4840 4798 4812 4814
4 4812 4840 4814 4858
4 234 247 241 240
4 150 159 162 152
4 2735 2731 2709 2741
4 4272 4255 4257 4221
4 3699 3705 3671 3707
4 976 961 981 966
4 961 981 966 971
4 966 961 971 953
4 971 966 953 963
4 966 961 953 958
4 981 966 971 988
4 966 961 958 976
4 4724 4738 4706 4748
4 4724 4738 4748 4784
4 884 891 873 900
4 4145 4151 4185 4168
4 5800 5782 5798 5837
4 5800 5782 5837 5802
4 5798 5800 5837 5865
4 5800 5837 5865 5863
4 3088 3082 3092 3101
4 3082 3092 3101 3071
4 2790 2792 2812 2795
4 2792 2812 2795 2811
4 2812 2790 2795 2810
4 2792 2812 2811 2815
4 3704 3688 3702 3669
4 5349 5374 5372 5397
4 4678 4711 4709 4682
4 559 578 565 563
4 565 559 563 547
4 563 565 547 553
4 578 565 563 588
4 563 565 553 588
4 1289 1281 1275 1269
4 5085 5109 5088 5061
4 5109 5088 5061 5070
4 5085 5109 5061 5063
4 2379 2405 2377 2394
4 4204 4221 4189 4168
4 524 534 536 532
4 5577 5597 5555 5574
4 5597 5555 5574 5565
4 5555 5577 5574 5533
4 5597 5555 5565 5578
4 5555 5574 5565 5519
4 4547 4576 4555 4591
4 4576 4555 4591 4595
4 4555 4553 4527 4556
4 5466 5464 5448 5498
4 5466 5464 5498 5489
4 5498 5466 5489 5517
4 3912 3891 3888 3948
4 168 172 173 165
4 2810 2839 2822 2836
4 970 977 988 966
4 5110 5094 5137 5083
4 5110 5094 5083 5055
4 4639 4680 4674 4631
4 339 353 350 347
4 5744 5774 5782 5780
4 5782 5744 5780 5731
4 2541 2540 2519 2533
4 2541 2540 2533 2564
4 2540 2519 2533 2505
4 2519 2533 2505 2529
4 2519 2541 2533 2529
4 2540 2533 2564 2550
4 4759 4778 4769 4789
4 4759 4778 4789 4786
4 1101 1110 1116 1117
4 577 589 592 571
4 589 592 571 573
4 589 592 573 599
4 589 592 599 602
4 2162 2188 2186 2165
4 790 781 798 771
4 790 781 771 773
4 2189 2164 2178 2163
4 3958 3956 3997 3978
4 3956 3997 3978 3996
4 3997 3958 3978 3971
4 1926 1952 1937 1953
4 4803 4784 4804 4822
4 4803 4784 4822 4783
4 4033 4010 4015 4059
4 4015 4033 4059 4035
4 4193 4199 4227 4192
4 865 884 878 863
4 1021 1018 1034 1026
4 213 216 226 220
4 226 213 220 218
4 2996 2980 2993 2973
4 2993 2996 2973 2988
4 2996 2980 2973 2967
4 2993 2996 2988 3023
4 2996 2973 2988 2967
4 2973 2993 2988 2965
4 3222 3197 3205 3218
4 1251 1259 1257 1266
4 2404 2409 2382 2396
4 4490 4475 4474 4520
4 3967 3927 3924 3935
4 3967 3927 3935 3968
4 3927 3924 3935 3890
4 3924 3967 3935 3979
4 3935 3967 3968 3979
4 3968 3935 3979 3966
4 3979 3968 3966 4019
4 3924 3935 3890 3915
4 3968 3935 3966 3918
4 3968 3935 3918 3921
4 3935 3918 3921 3890
4 3935 3918 3890 3915
4 3968 3935 3921 3927
4 3935 3979 3966 3915
4 3935 3966 3918 3915
4 3918 3890 3915 3867
4 3918 3890 3867 3876
4 3890 3867 3876 3828
4 3918 3890 3876 3921
4 3890 3915 3867 3851
4 3966 3979 4019 4014
4 3935 3921 3927 3890
4 1787 1798 1802 1775
4 3197 3193 3205 3163
4 3568 3582 3583 3588
4 4419 4450 4449 4443
4 4419 4450 4443 4412
4 4449 4419 4443 4417
4 4443 4419 4412 4399
4 598 579 593 594
4 3871 3836 3875 3859
4 997 1007 1015 1006
4 1007 1015 1006 1022
4 1015 997 1006 1004
4 2076 2063 2050 2078
4 886 865 877 873
4 865 877 873 858
4 877 886 873 894
4 877 873 858 870
4 877 873 870 892
4 858 877 870 868
4 873 858 870 847
4 873 865 858 847
4 877 870 868 892
4 870 858 868 851
4 870 858 851 857
4 1953 1947 1967 1948
4 3486 3476 3450 3442
4 3407 3374 3382 3410
4 3202 3193 3167 3186
4 3193 3167 3186 3176
4 3193 3167 3176 3174
4 3940 3988 3991 3964
4 4543 4544 4520 4553
4 1600 1598 1584 1614
4 1632 1625 1604 1615
4 1632 1625 1615 1637
4 3532 3522 3558 3548
4 3532 3522 3548 3525
4 3548 3532 3525 3563
4 3525 3548 3563 3546
4 3558 3532 3548 3563
4 4518 4549 4512 4553
4 4628 4639 4676 4674
4 4706 4694 4724 4748
4 3006 3033 3032 3035
4 1571 1561 1584 1556
4 1571 1561 1556 1548
4 1584 1571 1556 1560
4 1571 1556 1560 1549
4 3583 3588 3558 3568
4 2917 2943 2916 2936
4 4629 4592 4607 4610
4 4607 4629 4610 4651
4 4592 4607 4610 4571
4 4610 4607 4651 4623
4 4607 4610 4571 4581
4 2256 2258 2281 2271
4 2256 2258 2271 2242
4 2258 2271 2242 2292
4 2258 2281 2271 2292
4 2281 2256 2271 2273
4 2256 2271 2273 2253
4 2271 2273 2253 2274
4 2271 2273 2274 2292
4 2271 2281 2273 2292
4 2256 2271 2253 2254
4 2271 2253 2254 2274
4 2254 2271 2274 2242
4 2254 2271 2242 2256
4 3087 3098 3088 3118
4 2895 2900 2927 2918
4 5041 5059 5039 5083
4 5039 5041 5083 5030
4 4676 4691 4674 4710
4 5270 5293 5292 5319
4 1451 1439 1464 1442
4 1451 1439 1442 1438
4 1464 1451 1442 1473
4 3784 3793 3768 3805
4 3784 3793 3805 3824
4 4557 4574 4534 4579
4 2319 2333 2353 2346
4 2319 2333 2346 2306
4 2333 2353 2346 2358
4 2346 2333 2358 2347
4 4400 4401 4373 4369
4 4401 4373 4369 4378
4 5167 5157 5203 5208
4 2719 2720 2742 2725
4 2720 2742 2725 2739
4 2742 2719 2725 2746
4 2725 2742 2746 2760
4 5308 5325 5342 5358
4 5308 5325 5358 5305
4 5325 5342 5358 5378
4 5358 5325 5378 5352
4 4841 4854 4870 4861
4 1248 1266 1250 1256
4 1250 1248 1256 1232
4 1248 1266 1256 1251
4 1256 1248 1251 1236
4 1251 1256 1236 1242
4 1251 1256 1242 1264
4 1251 1256 1264 1274
4 1251 1256 1274 1266
4 1256 1264 1274 1261
4 1256 1274 1266 1250
4 477 467 459 465
4 4979 4992 5024 5039
4 4676 4656 4628 4674
4 4656 4628 4674 4661
4 5063 5047 5023 5021
4 841 834 851 857
4 2968 2944 2947 2918
4 5697 5711 5668 5671
4 4555 4576 4553 4595
4 3167 3175 3202 3186
4 3167 3175 3186 3146
4 2397 2410 2394 2368
4 1089 1093 1102 1092
4 4154 4176 4131 4139
4 368 384 377 383
4 368 384 383 378
4 3608 3634 3623 3617
4 1513 1515 1533 1516
4 1513 1515 1516 1493
4 1533 1513 1516 1538
4 1516 1513 1493 1491
4 2382 2369 2394 2396
4 2369 2394 2396 2379
4 5456 5419 5416 5421
4 5416 5456 5421 5486
4 289 297 299 293
4 4873 4899 4868 4825
4 4920 4959 4954 4906
4 4000 3997 4040 4016
4 4000 3997 4016 3971
4 3997 4040 4016 4043
4 4040 4000 4016 4051
4 4016 4000 3971 4025
4 376 383 371 368
4 376 383 368 377
4 2571 2572 2559 2595
4 2559 2571 2595 2569
4 1473 1478 1464 1490
4 5624 5581 5583 5573
4 2622 2636 2615 2646
4 2615 2622 2646 2611
4 2646 2615 2611 2641
4 3799 3808 3770 3843
4 2150 2120 2134 2126
4 2833 2846 2834 2822
4 2833 2846 2822 2826
4 280 266 274 271
4 2784 2768 2770 2801
4 5349 5337 5393 5363
4 5393 5349 5363 5364
4 5349 5337 5363 5304
4 941 951 939 957
4 939 941 957 959
4 3985 3964 4008 3941
4 3985 3964 3941 3939
4 4139 4138 4165 4150
4 4165 4139 4150 4176
4 4139 4138 4150 4107
4 4138 4165 4150 4167
4 4150 4165 4176 4167
4 1169 1153 1161 1162
4 1169 1153 1162 1164
4 1161 1169 1162 1172
4 1169 1162 1172 1164
4 1162 1172 1164 1157
4 1162 1172 1157 1161
4 1164 1162 1157 1153
4 1153 1161 1162 1157
4 1531 1544 1519 1547
4 2138 2124 2135 2112
4 2124 2135 2112 2126
4 1500 1524 1517 1504
4 1517 1500 1504 1499
4 1688 1700 1701 1680
4 1688 1700 1680 1666
4 3212 3200 3213 3230
4 3590 3620 3611 3604
4 3611 3590 3604 3589
4 3590 3620 3604 3591
4 3590 3604 3589 3591
4 1876 1863 1890 1864
4 1876 1863 1864 1849
4 1863 1890 1864 1845
4 1863 1864 1849 1845
4 3044 3052 3029 3069
4 3044 3052 3069 3088
4 5047 5061 5021 5063
4 4010 4032 3974 4053
4 2234 2233 2211 2225
4 4133 4136 4095 4131
4 4133 4136 4131 4169
4 5410 5418 5383 5397
4 5410 5418 5397 5446
4 5418 5383 5397 5395
4 5418 5383 5395 5422
4 2354 2387 2380 2373
4 2387 2380 2373 2403
4 2387 2380 2403 2414
4 2403 2387 2414 2401
4 4033 4055 4082 4059
4 182 189 184 188
4 4664 4620 4619 4636
4 4620 4619 4636 4582
4 4664 4620 4636 4646
4 3274 3256 3254 3240
4 1520 1544 1526 1529
4 1526 1520 1529 1501
4 1520 1544 1529 1519
4 1529 1520 1519 1501
4 1544 1526 1529 1548
4 1544 1529 1519 1547
4 2903 2902 2916 2888
4 2902 2916 2888 2917
4 1084 1092 1103 1093
4 820 826 817 833
4 817 820 833 827
4 1453 1477 1473 1479
4 1477 1473 1479 1499
4 1473 1453 1479 1449
4 2889 2885 2910 2895
4 2910 2889 2895 2918
4 4370 4385 4351 4346
4 5044 5029 5060 5013
4 2379 2352 2355 2369
4 2763 2770 2735 2745
4 735 740 758 755
4 3001 3026 3023 3013
4 3458 3429 3428 3439
4 3429 3428 3439 3420
4 3429 3428 3420 3394
4 3428 3439 3420 3453
4 670 678 669 673
4 214 202 209 210
4 5684 5661 5637 5620
4 1430 1421 1419 1422
4 4935 4946 4913 4964
4 4935 4946 4964 4982
4 3873 3912 3888 3887
4 3873 3912 3887 3872
4 1676 1666 1665 1687
4 1676 1666 1687 1700
4 1925 1948 1940 1944
4 2844 2875 2861 2864
4 4238 4240 4206 4248
4 4238 4240 4248 4280
4 4240 4248 4280 4253
4 2716 2735 2709 2741
4 1432 1449 1439 1455
4 3946 3891 3912 3948
4 180 172 176 173
4 2090 2078 2096 2066
4 2090 2078 2066 2063
4 2096 2090 2066 2091
4 2096 2090 2091 2126
4 3969 3967 4013 3968
4 19 18 17 26
4 230 221 227 223
4 3617 3608 3589 3588
4 201 206 213 212
4 1969 1953 1979 1978
4 3213 3222 3214 3240
4 4997 4993 4964 4975
4 4440 4439 4474 4470
4 655 657 635 633
4 228 216 224 226
4 4384 4371 4376 4354
4 4384 4371 4354 4348
4 4361 4347 4381 4364
4 4361 4347 4364 4324
4 212 198 208 201
4 198 208 201 195
4 208 201 195 204
4 201 198 195 193
4 756 758 755 770
4 2732 2752 2730 2714
4 1040 1048 1057 1051
4 1040 1048 1051 1035
4 1057 1040 1051 1049
4 1048 1051 1035 1059
4 2987 2981 2995 2965
4 2981 2995 2965 2993
4 2995 2987 2965 2978
4 2995 2965 2993 2978
4 505 499 496 493
4 670 680 678 673
4 4710 4726 4708 4691
4 3202 3222 3230 3233
4 5698 5635 5683 5675
4 5683 5698 5675 5731
4 5698 5635 5675 5669
4 473 465 462 467
4 462 473 467 479
4 710 707 708 704
4 707 708 704 690
4 878 884 893 881
4 878 884 881 863
4 1132 1138 1119 1125
4 1119 1132 1125 1116
4 1132 1138 1125 1137
4 1138 1119 1125 1130
4 1132 1125 1116 1117
4 1125 1119 1116 1103
4 1125 1116 1117 1101
4 5026 5009 5056 5042
4 5387 5421 5375 5348
4 2982 2956 2959 2966
4 2982 2956 2966 2981
4 2959 2982 2966 2954
4 2966 2959 2954 2936
4 2932 2941 2918 2917
4 4874 4916 4899 4919
4 643 632 626 657
4 5332 5381 5350 5357
4 1409 1421 1407 1428
4 1257 1275 1259 1258
4 1259 1257 1258 1244
4 2895 2901 2880 2888
4 4578 4619 4582 4594
4 4582 4578 4594 4537
4 1229 1211 1224 1218
4 1224 1229 1218 1238
4 894 899 886 900
4 2036 2060 2035 2046
4 2036 2060 2046 2040
4 2060 2035 2046 2052
4 4969 4990 4958 4988
4 3854 3908 3866 3880
4 3908 3866 3880 3910
4 4673 4656 4691 4658
4 4673 4656 4658 4627
4 4656 4658 4627 4661
4 4656 4691 4658 4661
4 3923 3942 3944 3974
4 3923 3942 3974 3941
4 4545 4575 4573 4556
4 241 237 248 242
4 237 248 242 243
4 847 854 864 873
4 2463 2462 2447 2457
4 5139 5190 5159 5175
4 5551 5528 5507 5523
4 5528 5507 5523 5474
4 5507 5551 5523 5512
4 1487 1485 1466 1474
4 1485 1466 1474 1470
4 4136 4152 4135 4192
4 3254 3264 3282 3274
4 2950 2946 2980 2967
4 2950 2946 2967 2938
4 2980 2950 2967 2971
4 2950 2967 2971 2938
4 4139 4175 4142 4176
4 4234 4216 4262 4228
4 960 977 970 966
4 3933 3904 3906 3878
4 3723 3720 3751 3757
4 3751 3723 3757 3777
4 145 154 142 136
4 5376 5338 5342 5356
4 5376 5338 5356 5394
4 5356 5376 5394 5420
4 5338 5342 5356 5321
4 5342 5376 5356 5358
4 5356 5338 5321 5394
4 4039 4045 4090 4063
4 1595 1585 1593 1571
4 1888 1909 1890 1913
4 1725 1714 1733 1700
4 2666 2688 2685 2683
4 2685 2666 2683 2660
4 2666 2688 2683 2651
4 2683 2666 2651 2660
4 2688 2685 2683 2698
4 2683 2688 2698 2684
4 2698 2683 2684 2714
4 2688 2698 2684 2709
4 2685 2666 2660 2652
4 2685 2683 2698 2700
4 2683 2698 2700 2714
4 2685 2683 2700 2660
4 2698 2684 2709 2725
4 2683 2688 2684 2651
4 2684 2683 2651 2662
4 3736 3725 3702 3723
4 3736 3725 3723 3770
4 746 735 758 755
4 3657 3649 3648 3623
4 3649 3648 3623 3638
4 1556 1553 1558 1546
4 2306 2332 2333 2321
4 3402 3410 3425 3392
4 3402 3410 3392 3374
4 4475 4490 4509 4520
4 3960 3919 3917 3931
4 3960 3919 3931 3965
4 3919 3917 3931 3883
4 3917 3960 3931 3971
4 3917 3931 3883 3971
4 3960 3931 3971 3984
4 1428 1445 1442 1438
4 4920 4905 4939 4921
4 682 692 693 708
4 3903 3896 3859 3885
4 3896 3859 3885 3875
4 3896 3859 3875 3843
4 3885 3896 3875 3920
4 3859 3885 3875 3871
4 3885 3875 3871 3920
4 3871 3885 3920 3923
4 3903 3896 3885 3920
4 3859 3885 3871 3878
4 3859 3903 3885 3878
4 4605 4595 4576 4591
4 499 489 496 493
4 2573 2570 2538 2559
4 748 734 746 730
4 1334 1350 1348 1335
4 5078 5090 5053 5108
4 5078 5090 5108 5130
4 4240 4257 4221 4242
4 4240 4257 4242 4280
4 1713 1738 1717 1725
4 4633 4648 4604 4614
4 4633 4648 4614 4703
4 4604 4633 4614 4589
4 3794 3776 3768 3805
4 4715 4696 4703 4746
4 4715 4696 4746 4759
4 5026 5056 5043 5042
4 5646 5626 5649 5671
4 5524 5527 5558 5542
4 5527 5558 5542 5581
4 5558 5542 5581 5573
4 2302 2280 2281 2300
4 4399 4401 4369 4378
4 3376 3369 3355 3361
4 3895 3852 3871 3845
4 3852 3871 3845 3836
4 3871 3845 3836 3829
4 2349 2377 2368 2351
4 2368 2349 2351 2327
4 1174 1190 1176 1170
4 1176 1174 1170 1160
4 1176 1174 1160 1164
4 4490 4474 4512 4520
4 5227 5208 5233 5187
4 5208 5233 5187 5203
4 5208 5233 5203 5247
4 5233 5187 5203 5173
4 5187 5208 5203 5157
4 5203 5187 5157 5173
4 2331 2304 2327 2337
4 755 756 737 740
4 2742 2739 2760 2725
4 3069 3088 3092 3079
4 1224 1206 1218 1211
4 1206 1218 1211 1191
4 4678 4679 4711 4684
4 4678 4679 4684 4660
4 4679 4684 4660 4714
4 4679 4711 4684 4714
4 4711 4678 4684 4682
4 4678 4684 4682 4642
4 1294 1289 1275 1277
4 1275 1294 1277 1282
4 1277 1275 1282 1258
4 242 228 237 238
4 224 237 228 231
4 2424 2414 2439 2427
4 2424 2414 2427 2403
4 2424 2414 2403 2402
4 2414 2427 2403 2408
4 2427 2424 2403 2437
4 2403 2424 2402 2416
4 5808 5749 5765 5778
4 5749 5765 5778 5723
4 5765 5808 5778 5810
4 5749 5765 5723 5693
4 162 156 152 163
4 240 239 234 247
4 4292 4322 4332 4314
4 4292 4322 4314 4278
4 4314 4292 4278 4333
4 4322 4332 4314 4340
4 4314 4322 4340 4313
4 4340 4314 4313 4280
4 4332 4292 4314 4333
4 4314 4332 4333 4340
4 4333 4314 4340 4280
4 4314 4322 4313 4278
4 4322 4340 4313 4360
4 4313 4314 4278 4280
4 1046 1061 1044 1054
4 4890 4877 4918 4868
4 3522 3508 3490 3472
4 952 960 970 966
4 5137 5152 5110 5148
4 5152 5110 5148 5160
4 255 259 267 261
4 1586 1570 1581 1584
4 1676 1686 1665 1662
4 4885 4869 4909 4861
4 4885 4869 4861 4822
4 319 327 325 321
4 4382 4397 4384 4385
4 746 760 748 755
4 4694 4690 4687 4748
4 2126 2121 2140 2096
4 2615 2636 2595 2625
4 2595 2615 2625 2611
4 2615 2636 2625 2650
4 2625 2615 2650 2641
4 2595 2615 2611 2570
4 2615 2625 2611 2641
4 2636 2625 2650 2651
4 2625 2650 2651 2643
4 353 363 350 355
4 4478 4494 4470 4469
4 4635 4618 4658 4670
4 2404 2425 2409 2396
4 4223 4208 4221 4237
4 4208 4221 4237 4212
4 3927 3932 3889 3921
4 665 657 666 671
4 1547 1556 1546 1531
4 3904 3945 3906 3892
4 963 970 979 966
4 5620 5593 5615 5595
4 1968 1952 1956 1984
4 3502 3503 3486 3523
4 3374 3353 3382 3360
4 5047 5085 5061 5063
4 5383 5406 5402 5422
4 3943 3989 3988 3972
4 3943 3989 3972 3933
4 3988 3943 3972 3940
4 3972 3943 3933 3903
4 1408 1407 1393 1389
4 227 214 223 221
4 2446 2467 2458 2457
4 2467 2458 2457 2486
4 1626 1646 1640 1649
4 1236 1244 1240 1248
4 3035 3032 3061 3033
4 2357 2331 2337 2347
4 3008 2982 3011 2988
4 3744 3719 3748 3726
4 574 561 556 560
4 455 448 447 459
4 2302 2328 2301 2300
4 2301 2302 2300 2280
4 5484 5461 5464 5509
4 5484 5461 5509 5480
4 5553 5500 5528 5520
4 5553 5500 5520 5533
4 5500 5528 5520 5471
4 5528 5553 5520 5570
4 5520 5500 5471 5478
4 5553 5520 5570 5533
4 918 922 927 946
4 1016 1021 1018 1003
4 5585 5599 5635 5609
4 5585 5599 5609 5592
4 5599 5609 5592 5643
4 1451 1453 1442 1473
4 1451 1453 1473 1464
4 3490 3477 3503 3486
4 1745 1757 1744 1755
4 1744 1745 1755 1731
4 1651 1675 1666 1654
4 1651 1675 1654 1641
4 1675 1666 1654 1680
4 1666 1651 1654 1649
4 1675 1666 1680 1690
4 1666 1654 1680 1667
4 1680 1666 1667 1688
4 2690 2720 2719 2725
4 4606 4608 4641 4617
4 4608 4641 4617 4621
4 4606 4608 4617 4575
4 253 248 261 255
4 2993 2979 2978 2965
4 4992 4997 4975 5030
4 2423 2447 2422 2437
4 5162 5139 5119 5135
4 5139 5119 5135 5109
4 5119 5162 5135 5123
4 5135 5139 5109 5159
4 5135 5139 5159 5175
4 5159 5135 5175 5158
4 5139 5109 5159 5140
4 5109 5159 5140 5114
4 5109 5135 5159 5158
4 805 794 813 807
4 285 278 280 271
4 280 285 271 281
4 5500 5455 5471 5478
4 4997 5039 4993 5030
4 5714 5733 5759 5795
4 4291 4333 4317 4280
4 4854 4849 4890 4825
4 4854 4849 4825 4816
4 4825 4854 4816 4830
4 1081 1093 1079 1091
4 4542 4557 4534 4527
4 908 915 927 922
4 857 864 870 847
4 2941 2932 2933 2917
4 1244 1229 1240 1238
4 1240 1244 1238 1257
4 4832 4873 4868 4825
4 1655 1676 1665 1662
4 5419 5375 5416 5421
4 4280 4248 4278 4253
4 2572 2541 2559 2564
4 4440 4418 4398 4385
4 1462 1473 1464 1442
4 1453 1473 1462 1442
4 3288 3313 3298 3314
4 2194 2165 2186 2188
4 1318 1324 1326 1308
4 3410 3407 3408 3382
4 5036 5014 4993 4991
4 4993 5036 4991 4977
4 2641 2609 2644 2643
4 2644 2641 2643 2662
4 2643 2644 2662 2653
4 3261 3234 3259 3262
4 4514 4545 4542 4556
4 2034 2059 2037 2036
4 2520 2515 2489 2506
4 3920 3894 3941 3939
4 4055 4009 4047 4035
4 4719 4689 4730 4693
4 4719 4689 4693 4675
4 4689 4693 4675 4652
4 4082 4096 4131 4098
4 4082 4096 4098 4071
4 3558 3580 3563 3548
4 1156 1145 1144 1160
4 4783 4802 4793 4821
4 4783 4802 4821 4822
4 4802 4793 4821 4838
4 2717 2718 2698 2731
4 1185 1169 1182 1172
4 1713 1688 1701 1717
4 1701 1713 1717 1700
4 768 761 769 757
4 761 769 757 772
4 550 567 560 561
4 4832 4811 4825 4868
4 3160 3171 3156 3130
4 5626 5604 5583 5624
4 5626 5604 5624 5668
4 5624 5626 5668 5639
4 5583 5626 5624 5639
4 5402 5422 5391 5383
4 2574 2540 2550 2535
4 816 814 831 832
4 4061 4011 4044 4037
4 4011 4044 4037 4005
4 4044 4061 4037 4105
4 2330 2320 2354 2334
4 2330 2320 2334 2318
4 2320 2354 2334 2340
4 2334 2330 2318 2355
4 4052 4007 4039 4003
4 2709 2731 2698 2725
4 2709 2731 2725 2719
4 2731 2698 2725 2732
4 2725 2731 2732 2752
4 985 981 999 996
4 981 999 996 989
4 999 996 989 1011
4 996 989 1011 1006
4 996 989 1006 997
4 989 1011 1006 1004
4 1011 996 1006 1022
4 496 501 517 505
4 496 501 505 493
4 1446 1438 1445 1428
4 1092 1073 1078 1075
4 1073 1078 1075 1058
4 4938 4920 4954 4907
4 4920 4954 4907 4906
4 4709 4743 4742 4725
4 4709 4743 4725 4727
4 4743 4725 4727 4787
4 4743 4742 4725 4787
4 4742 4709 4725 4703
4 280 274 287 281
4 5120 5147 5151 5118
4 5147 5151 5118 5156
4 5151 5118 5156 5087
4 5151 5120 5118 5148
4 5064 5044 5060 5087
4 5064 5044 5087 5056
4 5060 5064 5087 5074
4 2380 2379 2355 2364
4 2380 2379 2364 2402
4 2379 2355 2364 2369
4 2355 2380 2364 2373
4 2380 2364 2373 2403
4 4293 4312 4274 4257
4 255 242 248 252
4 3969 3976 3932 3970
4 3932 3969 3970 3921
4 2253 2259 2284 2280
4 4527 4547 4557 4534
4 4633 4631 4612 4591
4 4631 4612 4591 4628
4 4618 4599 4600 4595
4 3767 3784 3768 3744
4 4360 4322 4324 4313
4 5685 5684 5637 5642
4 2540 2522 2505 2550
4 2540 2522 2550 2535
4 2522 2550 2535 2496
4 1007 1014 1022 1021
4 267 271 281 274
4 4806 4825 4816 4789
4 2521 2519 2490 2529
4 2779 2749 2764 2766
4 2593 2600 2629 2598
4 2600 2629 2598 2639
4 2593 2600 2598 2560
4 2600 2598 2560 2555
4 3568 3556 3589 3565
4 3568 3556 3565 3523
4 3589 3568 3565 3572
4 2093 2118 2088 2103
4 2880 2870 2895 2888
4 2880 2870 2888 2855
4 3965 3960 4005 3984
4 3960 4005 3984 3971
4 4005 3965 3984 3979
4 3965 3984 3979 3926
4 650 641 653 639
4 258 251 253 259
4 2121 2142 2140 2139
4 737 735 755 740
4 2434 2426 2409 2413
4 3801 3776 3796 3781
4 995 1003 1014 999
4 647 657 643 626
4 1796 1800 1778 1791
4 2809 2814 2779 2803
4 2809 2814 2803 2820
4 2803 2809 2820 2793
4 2814 2779 2803 2798
4 2809 2814 2820 2843
4 2820 2803 2793 2795
4 1075 1078 1070 1058
4 4390 4391 4419 4378
4 253 241 248 247
4 4198 4228 4213 4229
4 3171 3153 3196 3130
4 2079 2105 2091 2080
4 223 234 227 230
4 4919 4937 4934 4865
4 1531 1553 1556 1546
4 4009 3964 3991 4015
4 4185 4208 4223 4201
4 4614 4633 4612 4591
4 4972 4959 4991 4971
4 4518 4527 4549 4553
4 198 212 206 201
4 1838 1828 1850 1825
4 1838 1828 1825 1809
4 2329 2328 2302 2316
4 2329 2328 2316 2337
4 2328 2316 2337 2300
4 2328 2302 2316 2300
4 2302 2316 2300 2281
4 2302 2329 2316 2318
4 2316 2329 2337 2347
4 2329 2316 2318 2345
4 2337 2316 2347 2321
4 2337 2316 2321 2331
4 2316 2321 2331 2300
4 2316 2321 2300 2292
4 2316 2347 2321 2318
4 2321 2316 2318 2292
4 2321 2337 2331 2347
4 2316 2318 2345 2347
4 2318 2329 2345 2355
4 2337 2316 2331 2300
4 2318 2345 2347 2335
4 2318 2345 2335 2334
4 2318 2345 2334 2355
4 2345 2347 2335 2371
4 2345 2335 2334 2373
4 2345 2347 2371 2364
4 2345 2347 2364 2355
4 2364 2345 2355 2373
4 5655 5602 5629 5622
4 5655 5602 5622 5630
4 5602 5629 5622 5570
4 5629 5655 5622 5672
4 5622 5602 5570 5577
4 5655 5622 5672 5630
4 3722 3699 3710 3719
4 2843 2856 2874 2858
4 2843 2856 2858 2850
4 2856 2858 2850 2882
4 2856 2874 2858 2882
4 2874 2843 2858 2863
4 1010 1018 1009 1026
4 1009 1010 1026 1025
4 1994 2014 1993 1995
4 5760 5732 5779 5786
4 2690 2691 2720 2697
4 2690 2691 2697 2662
4 2691 2720 2697 2714
4 2720 2690 2697 2725
4 2720 2697 2714 2725
4 2697 2714 2725 2684
4 807 791 790 794
4 510 501 493 505
4 2040 2033 2050 2032
4 847 850 831 832
4 2463 2447 2445 2437
4 5357 5332 5315 5350
4 726 709 712 723
4 4351 4334 4346 4312
4 4334 4346 4312 4317
4 1505 1519 1504 1499
4 3722 3744 3742 3707
4 3623 3635 3612 3648
4 3623 3635 3648 3657
4 3635 3648 3657 3659
4 3759 3764 3786 3785
4 2254 2274 2252 2242
4 4769 4804 4763 4816
4 499 514 508 510
4 421 419 414 407
4 421 419 407 408
4 3343 3353 3374 3360
4 1809 1798 1810 1825
4 4690 4658 4687 4667
4 2210 2233 2236 2215
4 2236 2210 2215 2186
4 2210 2215 2186 2209
4 2210 2215 2209 2233
4 181 186 180 187
4 5383 5369 5410 5397
4 1156 1170 1160 1147
4 1891 1878 1877 1865
4 3674 3657 3648 3659
4 2156 2141 2142 2136
4 2156 2141 2136 2134
4 419 421 418 408
4 2611 2609 2641 2625
4 4048 4032 4054 4053
4 2423 2422 2416 2437
4 2416 2423 2437 2424
4 2023 2013 2040 2006
4 5286 5303 5255 5273
4 5286 5303 5273 5315
4 2542 2515 2520 2506
4 1878 1900 1876 1890
4 5716 5685 5694 5642
4 2300 2321 2299 2292
4 5147 5163 5151 5209
4 5042 5068 5072 5056
4 5529 5542 5498 5517
4 5529 5542 5517 5583
4 5542 5498 5517 5516
4 5542 5498 5516 5509
4 4990 4969 5026 5042
4 4811 4832 4786 4868
4 1876 1852 1877 1865
4 5056 5100 5098 5072
4 3588 3580 3558 3548
4 5583 5571 5610 5628
4 2257 2280 2282 2259
4 558 566 573 570
4 566 573 570 583
4 3792 3784 3817 3845
4 5271 5261 5276 5245
4 5271 5261 5245 5209
4 799 807 790 805
4 1025 1027 1026 1044
4 664 650 653 669
4 872 870 873 892
4 3725 3704 3702 3695
4 1638 1630 1614 1635
4 1630 1614 1635 1619
4 1638 1630 1635 1649
4 991 990 974 975
4 990 974 975 980
4 974 975 980 959
4 186 181 195 187
4 181 195 187 183
4 1764 1775 1787 1802
4 4203 4218 4233 4217
4 4203 4218 4217 4183
4 4218 4217 4183 4205
4 4218 4233 4217 4259
4 4217 4218 4259 4243
4 4217 4218 4243 4205
4 4233 4203 4217 4232
4 871 854 863 865
4 2162 2156 2188 2165
4 2162 2156 2165 2134
4 4547 4555 4557 4591
4 3580 3593 3563 3576
4 3580 3593 3576 3588
4 3576 3580 3588 3548
4 3593 3563 3576 3578
4 3563 3580 3576 3548
4 3576 3563 3548 3562
4 4297 4295 4266 4286
4 4295 4266 4286 4253
4 4266 4297 4286 4264
4 4266 4286 4253 4239
4 2808 2822 2826 2805
4 2808 2822 2805 2791
4 2826 2808 2805 2791
4 970 988 979 966
4 241 227 234 230
4 5610 5571 5569 5628
4 5053 5014 5049 5073
4 2541 2519 2521 2529
4 3068 3035 3061 3033
4 566 577 571 583
4 4397 4418 4423 4385
4 5082 5083 5041 5072
4 4491 4478 4494 4527
4 4784 4767 4804 4763
4 4784 4767 4763 4724
4 5073 5093 5124 5097
4 5073 5093 5097 5049
4 5124 5073 5097 5099
4 5073 5093 5049 5053
4 5097 5073 5049 5051
4 567 576 560 561
4 1099 1093 1091 1112
4 5321 5324 5348 5375
4 3965 3924 3919 3926
4 1798 1809 1802 1814
4 5377 5363 5387 5416
4 3903 3943 3940 3972
4 5349 5345 5311 5364
4 1183 1178 1167 1165
4 1167 1183 1165 1175
4 1178 1167 1165 1159
4 1167 1165 1159 1148
4 1167 1165 1148 1175
4 484 479 467 473
4 484 479 473 471
4 1956 1952 1937 1984
4 5227 5233 5272 5244
4 5233 5272 5244 5254
4 794 790 780 791
4 3442 3425 3441 3410
4 3991 3988 4035 4015
4 1582 1584 1570 1556
4 53 56 52 68
4 53 56 68 89
4 1646 1667 1669 1664
4 1667 1669 1664 1691
4 1669 1664 1691 1682
4 4638 4678 4642 4617
4 193 206 201 198
4 2055 2069 2037 2088
4 4333 4369 4340 4358
4 2347 2371 2346 2335
4 2346 2347 2335 2299
4 2371 2346 2335 2362
4 2346 2335 2362 2336
4 1561 1556 1570 1584
4 2170 2199 2185 2184
4 2281 2258 2283 2292
4 3013 3000 2987 2978
4 1269 1277 1275 1289
4 5219 5237 5260 5198
4 3632 3639 3617 3604
4 3639 3617 3604 3628
4 3617 3604 3628 3589
4 3617 3604 3589 3606
4 2083 2111 2096 2098
4 931 913 922 915
4 1231 1248 1232 1236
4 2124 2109 2112 2138
4 4190 4168 4171 4212
4 459 449 442 427
4 2424 2423 2402 2416
4 5256 5271 5296 5246
4 5256 5271 5246 5200
4 3321 3328 3309 3339
4 3321 3328 3339 3355
4 877 868 887 892
4 3274 3282 3309 3296
4 4115 4136 4135 4082
4 5484 5485 5524 5498
4 4307 4304 4272 4296
4 4307 4304 4296 4348
4 4272 4307 4296 4290
4 5618 5653 5656 5677
4 1515 1528 1533 1521
4 1515 1528 1521 1497
4 1528 1533 1521 1537
4 1533 1515 1521 1516
4 1533 1521 1537 1516
4 1528 1533 1537 1552
4 1537 1533 1516 1538
4 1521 1528 1537 1551
4 1533 1537 1552 1559
4 1521 1528 1551 1545
4 1533 1537 1559 1538
4 1515 1521 1516 1493
4 5496 5537 5548 5531
4 5496 5537 5531 5481
4 5531 5496 5481 5494
4 5537 5548 5531 5582
4 5548 5496 5531 5494
4 3996 3952 3994 3990
4 3996 3952 3990 3936
4 3952 3994 3990 3934
4 3994 3996 3990 4027
4 3996 3990 4027 3978
4 4657 4696 4682 4703
4 1600 1616 1614 1621
4 1888 1876 1889 1891
4 1888 1876 1891 1900
4 2138 2135 2147 2112
4 4825 4789 4824 4830
4 2948 2943 2927 2941
4 2980 2949 2973 2946
4 3932 3882 3889 3925
4 3889 3932 3925 3921
4 3932 3882 3925 3929
4 3932 3925 3921 3970
4 3932 3925 3970 3977
4 3932 3925 3977 3929
4 2846 2854 2834 2850
4 2217 2239 2227 2216
4 4542 4545 4573 4556
4 654 669 653 650
4 2770 2783 2784 2801
4 2770 2783 2801 2791
4 2463 2488 2462 2477
4 2488 2462 2477 2485
4 2463 2488 2477 2478
4 2462 2463 2477 2457
4 2477 2463 2478 2457
4 2477 2462 2457 2466
4 2457 2477 2466 2490
4 2478 2477 2457 2486
4 2477 2457 2486 2490
4 2478 2477 2486 2506
4 3837 3872 3873 3855
4 3837 3872 3855 3878
4 4054 4082 4095 4073
4 4054 4082 4073 4083
4 894 877 887 892
4 206 197 202 198
4 3632 3606 3637 3611
4 4167 4140 4163 4156
4 4140 4163 4156 4161
4 4163 4156 4161 4200
4 737 729 740 756
4 4988 4950 4958 4969
4 532 550 543 545
4 1876 1878 1865 1877
4 4269 4227 4234 4213
4 3050 3044 3023 3068
4 3050 3044 3068 3080
4 2564 2574 2550 2594
4 2564 2574 2594 2610
4 2574 2594 2610 2616
4 846 835 833 852
4 3994 4042 4036 4026
4 4036 3994 4026 4027
4 4026 4036 4027 4085
4 2228 2262 2235 2241
4 2235 2228 2241 2213
4 2235 2228 2213 2199
4 2228 2262 2241 2246
4 2228 2241 2213 2219
4 2241 2235 2213 2242
4 2241 2235 2242 2262
4 2228 2213 2199 2219
4 3153 3124 3130 3160
4 3556 3568 3539 3523
4 2910 2906 2933 2917
4 1157 1138 1150 1143
4 4742 4743 4770 4787
4 2916 2902 2928 2917
4 4360 4324 4361 4352
4 4360 4324 4352 4313
4 4324 4361 4352 4364
4 4324 4352 4313 4297
4 1211 1192 1206 1191
4 1022 1031 1040 1032
4 799 798 816 805
4 4950 4935 4918 4958
4 4371 4351 4385 4346
4 1935 1925 1927 1944
4 2490 2494 2467 2486
4 2490 2494 2486 2505
4 2494 2486 2505 2483
4 2467 2490 2486 2457
4 2486 2505 2483 2506
4 2486 2505 2506 2529
4 4207 4206 4240 4248
4 2687 2653 2674 2678
4 2653 2674 2678 2645
4 3589 3581 3606 3575
4 3013 2995 3023 3001
4 3035 3068 3050 3023
4 4082 4054 4059 4083
4 3980 3976 4028 3977
4 3980 3976 3977 3929
4 3976 4028 3977 4020
4 3977 3976 4020 3970
4 3977 3976 3970 3932
4 3977 3976 3932 3929
4 5270 5250 5212 5197
4 5610 5606 5628 5671
4 1566 1551 1575 1577
4 1551 1575 1577 1559
4 1575 1566 1577 1591
4 1577 1575 1591 1597
4 1577 1575 1597 1583
4 1577 1575 1583 1559
4 1566 1551 1577 1552
4 1551 1577 1552 1559
4 1566 1551 1552 1545
4 1551 1552 1545 1528
4 1551 1552 1528 1537
4 1552 1551 1559 1537
4 1591 1577 1597 1601
4 1577 1597 1601 1583
4 1597 1591 1601 1610
4 1601 1597 1610 1622
4 1601 1597 1622 1607
4 1597 1601 1583 1607
4 4748 4724 4784 4741
4 1601 1610 1624 1622
4 1624 1601 1622 1607
4 1610 1624 1622 1639
4 1624 1622 1639 1642
4 1624 1622 1642 1631
4 1624 1622 1631 1607
4 1639 1624 1642 1645
4 1624 1642 1645 1631
4 1642 1639 1645 1659
4 1645 1642 1659 1672
4 1645 1642 1672 1653
4 1645 1642 1653 1631
4 1659 1645 1672 1673
4 1645 1672 1673 1653
4 1672 1659 1673 1684
4 1673 1672 1684 1693
4 1673 1672 1693 1681
4 1673 1672 1681 1653
4 1684 1673 1693 1694
4 1673 1693 1694 1681
4 1693 1684 1694 1707
4 1694 1693 1707 1720
4 1694 1693 1720 1703
4 1694 1693 1703 1681
4 1707 1694 1720 1722
4 1694 1720 1722 1703
4 1720 1707 1722 1737
4 1722 1720 1737 1742
4 1722 1720 1742 1730
4 1722 1720 1730 1703
4 1737 1722 1742 1743
4 1722 1742 1743 1730
4 1742 1737 1743 1761
4 1743 1742 1761 1770
4 1743 1742 1770 1753
4 1742 1743 1730 1753
4 1761 1743 1770 1772
4 1743 1770 1772 1753
4 1770 1761 1772 1786
4 1772 1770 1786 1793
4 1772 1770 1793 1781
4 1770 1772 1753 1781
4 1786 1772 1793 1794
4 1772 1793 1794 1781
4 1793 1786 1794 1808
4 1794 1793 1808 1820
4 1794 1793 1820 1803
4 1793 1794 1781 1803
4 1808 1794 1820 1821
4 1794 1820 1821 1803
4 1820 1808 1821 1836
4 1821 1820 1836 1842
4 1821 1820 1842 1832
4 1820 1821 1803 1832
4 1836 1821 1842 1843
4 1821 1842 1843 1832
4 1842 1836 1843 1858
4 1843 1842 1858 1872
4 1843 1842 1872 1853
4 1842 1843 1832 1853
4 1858 1843 1872 1875
4 1843 1872 1875 1853
4 1872 1858 1875 1887
4 1875 1872 1887 1895
4 1875 1872 1895 1882
4 1872 1875 1853 1882
4 1887 1875 1895 1897
4 1875 1895 1897 1882
4 1895 1887 1897 1910
4 1897 1895 1910 1922
4 1897 1895 1922 1902
4 1895 1897 1882 1902
4 1910 1897 1922 1923
4 1897 1922 1923 1902
4 1922 1910 1923 1938
4 1923 1922 1938 1943
4 1923 1922 1943 1929
4 1922 1923 1902 1929
4 1938 1923 1943 1945
4 1923 1943 1945 1929
4 1943 1938 1945 1963
4 1945 1943 1963 1975
4 1945 1943 1975 1955
4 1943 1945 1929 1955
4 1650 1637 1644 1632
4 2980 2973 2967 2946
4 2973 2967 2946 2936
4 2103 2120 2118 2088
4 919 918 934 946
4 4146 4162 4183 4143
4 4183 4146 4143 4157
4 4146 4162 4143 4128
4 4143 4146 4128 4102
4 4143 4146 4102 4120
4 4143 4146 4120 4157
4 2383 2371 2409 2395
4 2383 2371 2395 2353
4 2409 2383 2395 2413
4 3588 3612 3593 3576
4 3612 3593 3576 3613
4 3588 3612 3576 3605
4 3336 3338 3362 3344
4 3338 3362 3344 3363
4 3362 3336 3344 3360
4 1725 1732 1712 1724
4 4714 4755 4745 4737
4 4714 4755 4737 4729
4 4755 4745 4737 4773
4 5266 5270 5319 5285
4 5266 5270 5285 5223
4 5266 5270 5223 5197
4 1478 1464 1490 1480
4 1478 1464 1480 1456
4 1464 1480 1456 1470
4 1490 1478 1480 1501
4 1464 1490 1480 1470
4 1480 1490 1501 1495
4 1177 1194 1188 1187
4 1177 1194 1187 1181
4 1194 1188 1187 1204
4 1188 1177 1187 1168
4 5613 5620 5661 5616
4 4515 4552 4531 4530
4 4552 4531 4530 4570
4 4531 4515 4530 4493
4 4530 4531 4493 4511
4 4531 4530 4570 4548
4 4552 4531 4570 4571
4 4531 4570 4571 4548
4 4570 4552 4571 4592
4 4571 4570 4592 4607
4 4571 4570 4607 4581
4 4515 4530 4493 4492
4 4493 4515 4492 4476
4 4530 4493 4492 4503
4 4492 4493 4476 4453
4 4492 4493 4453 4466
4 4492 4493 4466 4503
4 4531 4530 4548 4511
4 4570 4571 4548 4581
4 4476 4492 4453 4451
4 4453 4476 4451 4436
4 4492 4453 4451 4466
4 4451 4453 4436 4414
4 4451 4453 4414 4432
4 4453 4451 4466 4432
4 4436 4451 4414 4413
4 4414 4436 4413 4395
4 4451 4414 4413 4432
4 4413 4414 4395 4377
4 4413 4414 4377 4392
4 4413 4414 4392 4432
4 809 828 819 818
4 819 809 818 796
4 818 819 796 803
4 828 819 818 837
4 819 818 837 823
4 819 818 823 803
4 819 809 796 797
4 796 819 797 803
4 809 796 797 788
4 796 797 788 774
4 796 797 774 784
4 797 796 803 784
4 828 819 837 838
4 819 837 838 823
4 837 828 838 848
4 838 837 848 855
4 838 837 855 842
4 838 837 842 823
4 797 788 774 775
4 774 797 775 784
4 788 774 775 766
4 774 775 766 753
4 774 775 753 762
4 775 774 784 762
4 848 838 855 856
4 838 855 856 845
4 855 848 856 866
4 856 855 866 875
4 856 855 875 861
4 856 855 861 845
4 775 766 753 754
4 753 775 754 762
4 766 753 754 747
4 753 754 747 732
4 753 754 732 738
4 754 753 762 738
4 866 856 875 876
4 856 875 876 862
4 875 866 876 889
4 876 875 889 895
4 876 875 895 885
4 875 876 862 885
4 754 747 732 725
4 732 754 725 738
4 725 732 738 698
4 889 876 895 896
4 876 895 896 883
4 895 889 896 910
4 896 895 910 916
4 896 895 916 902
4 896 895 902 883
4 747 732 725 724
4 732 725 724 700
4 910 896 916 917
4 896 916 917 904
4 916 910 917 930
4 917 916 930 935
4 917 916 935 924
4 917 916 924 904
4 930 917 935 936
4 917 935 936 925
4 935 930 936 949
4 936 935 949 954
4 936 935 954 945
4 936 935 945 925
4 949 936 954 955
4 936 954 955 947
4 954 949 955 968
4 955 954 968 972
4 955 954 972 962
4 954 955 947 962
4 968 955 972 973
4 955 972 973 964
4 972 968 973 986
4 973 972 986 992
4 973 972 992 983
4 973 972 983 964
4 986 973 992 993
4 973 992 993 984
4 992 986 993 1005
4 993 992 1005 1012
4 993 992 1012 1000
4 993 992 1000 984
4 1005 993 1012 1013
4 993 1012 1013 1001
4 1012 1005 1013 1023
4 1013 1012 1023 1029
4 1013 1012 1029 1019
4 1013 1012 1019 1001
4 1023 1013 1029 1030
4 1013 1029 1030 1019
4 1029 1023 1030 1041
4 1030 1029 1041 1050
4 1030 1029 1050 1037
4 1030 1029 1037 1019
4 1041 1030 1050 1052
4 1030 1050 1052 1037
4 1050 1041 1052 1060
4 1052 1050 1060 1065
4 1052 1050 1065 1055
4 1050 1052 1037 1055
4 1060 1052 1065 1066
4 1052 1065 1066 1056
4 1065 1060 1066 1076
4 1066 1065 1076 1087
4 1066 1065 1087 1071
4 1066 1065 1071 1056
4 1076 1066 1087 1088
4 1066 1087 1088 1072
4 1087 1076 1088 1097
4 1088 1087 1097 1105
4 1088 1087 1105 1090
4 1088 1087 1090 1072
4 1097 1088 1105 1106
4 1088 1105 1106 1096
4 1105 1097 1106 1115
4 1105 1106 1096 1111
4 1106 1105 1115 1121
4 1106 1105 1121 1111
4 1088 1105 1096 1090
4 1096 1088 1090 1072
4 1090 1096 1072 1100
4 1105 1096 1090 1108
4 1096 1090 1108 1100
4 1115 1106 1121 1122
4 1106 1121 1122 1111
4 1121 1115 1122 1134
4 1122 1121 1134 1141
4 1122 1121 1141 1129
4 1122 1121 1129 1111
4 1134 1122 1141 1142
4 1122 1141 1142 1129
4 1141 1134 1142 1152
4 1142 1141 1152 1158
4 1142 1141 1158 1148
4 1142 1141 1148 1129
4 1152 1142 1158 1159
4 1142 1158 1159 1148
4 1158 1152 1159 1171
4 1159 1158 1171 1178
4 1159 1158 1178 1167
4 1159 1158 1167 1148
4 1171 1159 1178 1179
4 1159 1178 1179 1165
4 1178 1171 1179 1189
4 1179 1178 1189 1195
4 1179 1178 1195 1186
4 1179 1178 1186 1165
4 1189 1179 1195 1196
4 1179 1195 1196 1186
4 1195 1189 1196 1208
4 1196 1195 1208 1216
4 1196 1195 1216 1199
4 1195 1196 1186 1199
4 1208 1196 1216 1217
4 1196 1216 1217 1205
4 1216 1208 1217 1228
4 1216 1217 1205 1223
4 1217 1216 1228 1233
4 1217 1216 1233 1223
4 1196 1216 1205 1199
4 1228 1217 1233 1235
4 1217 1233 1235 1223
4 1233 1228 1235 1246
4 1235 1233 1246 1252
4 1235 1233 1252 1241
4 1235 1233 1241 1223
4 1216 1205 1199 1221
4 1205 1199 1221 1212
4 1205 1196 1199 1186
4 1199 1205 1186 1212
4 1246 1235 1252 1253
4 1235 1252 1253 1245
4 1252 1246 1253 1265
4 1252 1253 1245 1260
4 1253 1252 1265 1272
4 1253 1252 1272 1260
4 1235 1252 1245 1241
4 1252 1245 1241 1262
4 1245 1235 1241 1223
4 1241 1245 1223 1239
4 1245 1241 1262 1239
4 1265 1253 1272 1273
4 1253 1272 1273 1260
4 1272 1265 1273 1283
4 1273 1272 1283 1292
4 1273 1272 1292 1278
4 1273 1272 1278 1260
4 1283 1273 1292 1293
4 1273 1292 1293 1280
4 1292 1283 1293 1303
4 1292 1293 1280 1299
4 1293 1292 1303 1313
4 1293 1292 1313 1299
4 1273 1292 1280 1278
4 1292 1280 1278 1298
4 1280 1278 1298 1288
4 1280 1273 1278 1260
4 1278 1280 1260 1288
4 1280 1292 1299 1298
4 1299 1280 1298 1288
4 1292 1299 1298 1313
4 1299 1298 1313 1321
4 1299 1298 1321 1329
4 1303 1293 1313 1314
4 1293 1313 1314 1299
4 1313 1303 1314 1323
4 1314 1313 1323 1332
4 1314 1313 1332 1322
4 1314 1313 1322 1299
4 1323 1314 1332 1333
4 1314 1332 1333 1322
4 1332 1323 1333 1345
4 1332 1333 1322 1341
4 1333 1332 1345 1353
4 1333 1332 1353 1341
4 1313 1332 1322 1321
4 1332 1322 1321 1340
4 1322 1321 1340 1329
4 1322 1313 1321 1299
4 1321 1322 1299 1329
4 1322 1332 1341 1340
4 1341 1322 1340 1329
4 1332 1341 1340 1353
4 1341 1340 1353 1359
4 1341 1340 1359 1362
4 1345 1333 1353 1355
4 1333 1353 1355 1341
4 1353 1345 1355 1366
4 1355 1353 1366 1375
4 1355 1353 1375 1359
4 1355 1353 1359 1341
4 1366 1355 1375 1376
4 1355 1375 1376 1364
4 1375 1366 1376 1387
4 1375 1376 1364 1383
4 1376 1375 1387 1395
4 1376 1375 1395 1383
4 1355 1375 1364 1359
4 1375 1364 1359 1382
4 1364 1359 1382 1370
4 1364 1355 1359 1341
4 1359 1364 1341 1370
4 1364 1375 1383 1382
4 1383 1364 1382 1370
4 1375 1383 1382 1395
4 1383 1382 1395 1401
4 1383 1382 1401 1400
4 1387 1376 1395 1396
4 1376 1395 1396 1383
4 1395 1387 1396 1406
4 1396 1395 1406 1417
4 1396 1395 1417 1403
4 1396 1395 1403 1383
4 1406 1396 1417 1418
4 1396 1417 1418 1403
4 1417 1406 1418 1429
4 1418 1417 1429 1436
4 1418 1417 1436 1424
4 1417 1418 1403 1424
4 1429 1418 1436 1437
4 1418 1436 1437 1424
4 1436 1429 1437 1450
4 1437 1436 1450 1457
4 1437 1436 1457 1444
4 1437 1436 1444 1424
4 1450 1437 1457 1468
4 1437 1457 1468 1444
4 1457 1450 1468 1472
4 1468 1457 1472 1496
4 1457 1468 1444 1469
4 1468 1457 1496 1493
4 1079 1081 1091 1069
4 1079 1081 1069 1059
4 1091 1079 1069 1085
4 2758 2790 2781 2770
4 2781 2758 2770 2745
4 2853 2846 2826 2872
4 6150 6100 6101 6147
4 921 931 932 915
4 4522 4509 4537 4544
4 423 444 431 430
4 431 423 430 410
4 430 431 410 417
4 444 431 430 450
4 431 430 450 438
4 431 430 438 417
4 431 423 410 411
4 410 431 411 417
4 423 410 411 406
4 410 411 406 390
4 410 411 390 399
4 411 410 417 399
4 444 431 450 451
4 431 450 451 438
4 450 444 451 463
4 451 450 463 468
4 451 450 468 457
4 451 450 457 438
4 411 406 390 391
4 390 411 391 399
4 406 390 391 386
4 390 391 386 374
4 390 391 374 381
4 391 390 399 381
4 463 451 468 469
4 451 468 469 457
4 468 463 469 480
4 469 468 480 487
4 469 468 487 474
4 468 469 457 474
4 391 386 374 375
4 374 391 375 381
4 386 374 375 369
4 374 375 369 359
4 374 375 359 365
4 375 374 381 365
4 480 469 487 488
4 469 487 488 475
4 487 480 488 500
4 488 487 500 506
4 488 487 506 492
4 487 488 475 492
4 375 369 359 360
4 359 375 360 365
4 369 359 360 354
4 359 360 354 345
4 359 360 345 344
4 359 360 344 365
4 360 345 344 354
4 345 359 344 346
4 344 345 346 331
4 344 345 331 340
4 500 488 506 507
4 488 506 507 494
4 506 500 507 518
4 507 506 518 526
4 507 506 526 512
4 506 507 494 512
4 359 344 346 365
4 344 345 340 354
4 518 507 526 527
4 507 526 527 513
4 526 518 527 540
4 527 526 540 546
4 527 526 546 533
4 526 527 513 533
4 540 527 546 547
4 546 540 547 559
4 527 546 547 533
4 547 546 559 563
4 547 546 563 533
4 346 344 331 324
4 2022 2001 2004 1995
4 2022 2001 1995 2005
4 2001 2004 1995 1976
4 5305 5253 5284 5287
4 5305 5253 5287 5277
4 5284 5305 5287 5329
4 448 465 460 459
4 1064 1077 1079 1059
4 2583 2581 2539 2567
4 2583 2581 2567 2619
4 2581 2539 2567 2531
4 3298 3296 3277 3261
4 1074 1095 1085 1079
4 1074 1095 1079 1084
4 1085 1074 1079 1067
4 1079 1074 1084 1064
4 1079 1074 1064 1057
4 1095 1079 1084 1093
4 1079 1074 1057 1067
4 3256 3246 3230 3240
4 5765 5778 5723 5764
4 5765 5778 5764 5810
4 3710 3722 3719 3744
4 3722 3719 3744 3707
4 5315 5286 5259 5273
4 5286 5259 5273 5235
4 5259 5273 5235 5222
4 5259 5315 5273 5328
4 5259 5273 5222 5234
4 5273 5235 5222 5241
4 942 922 933 946
4 933 942 946 953
4 946 933 953 948
4 942 946 953 940
4 953 946 948 963
4 2958 2987 2965 2981
4 2965 2958 2981 2956
4 2981 2965 2956 2966
4 1855 1868 1883 1873
4 1883 1855 1873 1867
4 2156 2163 2188 2179
4 6142 6145 6139 6098
4 4494 4518 4512 4520
4 4518 4512 4520 4553
4 1953 1979 1978 1989
4 1979 1978 1989 1995
4 1978 1989 1995 1967
4 1978 1989 1967 1953
4 1995 1978 1967 1976
4 1995 1978 1976 1993
4 1978 1967 1976 1948
4 1979 1978 1995 1994
4 1967 1978 1953 1948
4 1978 1995 1994 1993
4 2505 2494 2483 2496
4 1002 994 980 990
4 1002 994 990 1009
4 5210 5247 5203 5266
4 3988 4035 4015 4029
4 4015 3988 4029 3989
4 4035 4015 4029 4059
4 4015 4029 4059 4046
4 4029 4015 3989 4046
4 3620 3591 3621 3628
4 5694 5714 5759 5740
4 5714 5759 5740 5795
4 2590 2633 2626 2627
4 5593 5615 5595 5548
4 757 773 772 769
4 757 773 769 771
4 773 769 771 790
4 773 772 769 780
4 769 773 780 790
4 769 771 790 780
4 224 214 216 223
4 3507 3535 3540 3575
4 1798 1809 1814 1825
4 1814 1798 1825 1796
4 3083 3063 3084 3077
4 3083 3063 3077 3068
4 3063 3084 3077 3064
4 3084 3083 3077 3109
4 3167 3193 3163 3174
4 4295 4263 4266 4253
4 922 942 940 946
4 919 934 929 946
4 1700 1688 1676 1666
4 5431 5403 5389 5413
4 5403 5389 5413 5352
4 5389 5431 5413 5407
4 295 299 308 301
4 308 295 301 304
4 5147 5151 5156 5209
4 1920 1894 1907 1906
4 1920 1894 1906 1903
4 1907 1920 1906 1934
4 1691 1717 1704 1701
4 1691 1717 1701 1688
4 1701 1691 1688 1680
4 1701 1691 1680 1682
4 1704 1691 1701 1682
4 1717 1704 1701 1723
4 1701 1717 1723 1733
4 1691 1688 1680 1667
4 2770 2763 2791 2745
4 884 871 863 865
4 1675 1671 1692 1680
4 1675 1671 1680 1654
4 1675 1671 1654 1641
4 1671 1654 1641 1657
4 1671 1680 1654 1664
4 1680 1654 1664 1667
4 1664 1680 1667 1691
4 1671 1680 1664 1683
4 1654 1671 1664 1657
4 1664 1680 1691 1682
4 2801 2806 2784 2793
4 5060 5044 5013 5057
4 800 811 817 806
4 1719 1705 1736 1723
4 3994 4042 4026 3998
4 2687 2653 2678 2691
4 5349 5393 5397 5364
4 4473 4502 4496 4494
4 4502 4496 4494 4527
4 4496 4494 4527 4469
4 765 783 770 782
4 3457 3461 3491 3462
4 3461 3491 3462 3492
4 3457 3461 3462 3437
4 3461 3462 3437 3438
4 3462 3461 3492 3463
4 3462 3457 3437 3441
4 3461 3462 3438 3463
4 3457 3437 3441 3443
4 976 969 975 974
4 969 975 974 959
4 975 976 974 991
4 2583 2585 2620 2599
4 2583 2585 2599 2544
4 2585 2620 2599 2623
4 298 297 293 307
4 5259 5238 5235 5286
4 5056 5028 5044 5009
4 5028 5044 5009 4984
4 4184 4144 4159 4161
4 1384 1394 1385 1402
4 4864 4846 4847 4819
4 643 626 646 647
4 5216 5235 5207 5175
4 5216 5235 5175 5222
4 5235 5207 5175 5224
4 1724 1710 1729 1731
4 1732 1744 1731 1724
4 4910 4886 4863 4889
4 4910 4886 4889 4929
4 4886 4863 4889 4851
4 4863 4910 4889 4893
4 3212 3245 3225 3210
4 1641 1621 1634 1635
4 2996 3002 3029 3023
4 2586 2589 2556 2568
4 2586 2589 2568 2624
4 2589 2556 2568 2558
4 2556 2586 2568 2549
4 1103 1114 1095 1093
4 602 620 606 599
4 620 606 599 614
4 2207 2205 2227 2213
4 4162 4205 4183 4182
4 4205 4183 4182 4217
4 4183 4182 4217 4203
4 4183 4162 4182 4143
4 4182 4183 4143 4157
4 4183 4182 4203 4157
4 1595 1593 1619 1608
4 1647 1656 1668 1658
4 1656 1668 1658 1682
4 1668 1647 1658 1663
4 1668 1647 1663 1660
4 2486 2477 2490 2529
4 6162 6160 6105 6152
4 510 493 504 499
4 2491 2464 2497 2471
4 2497 2491 2471 2493
4 2491 2464 2471 2478
4 2497 2491 2493 2531
4 1334 1318 1339 1335
4 4381 4366 4403 4389
4 4366 4403 4389 4388
4 4403 4381 4389 4426
4 5296 5311 5252 5246
4 237 241 234 242
4 4865 4875 4919 4902
4 4865 4875 4902 4886
4 4875 4902 4886 4929
4 4875 4919 4902 4929
4 4902 4886 4929 4889
4 4902 4886 4889 4851
4 5261 5245 5209 5276
4 906 913 921 915
4 202 212 209 206
4 422 427 414 424
4 5125 5074 5102 5105
4 5125 5074 5105 5101
4 5074 5102 5105 5052
4 5102 5125 5105 5154
4 3210 3182 3211 3225
4 1686 1689 1665 1662
4 1310 1331 1320 1319
4 1310 1331 1319 1337
4 1331 1319 1337 1342
4 1331 1320 1319 1342
4 1320 1310 1319 1302
4 2761 2752 2738 2768
4 2761 2752 2768 2793
4 4001 4006 4057 4023
4 4001 4006 4023 3955
4 4057 4001 4023 3998
4 4001 4023 3998 3955
4 2586 2584 2621 2596
4 2586 2584 2596 2549
4 2584 2621 2596 2618
4 2621 2586 2596 2624
4 2140 2121 2139 2096
4 2492 2528 2507 2501
4 2528 2507 2501 2553
4 2507 2492 2501 2476
4 2501 2507 2476 2509
4 2501 2507 2509 2553
4 5082 5083 5072 5120
4 5082 5083 5120 5142
4 5072 5082 5120 5121
4 5120 5082 5142 5121
4 1130 1139 1123 1133
4 1036 1035 1021 1032
4 4573 4542 4556 4557
4 4542 4556 4557 4527
4 2759 2768 2738 2731
4 5723 5749 5693 5702
4 5693 5723 5702 5662
4 1172 1164 1157 1177
4 1157 1172 1177 1168
4 1172 1177 1168 1187
4 1172 1177 1187 1181
4 1172 1177 1181 1164
4 1157 1172 1168 1154
4 1181 1172 1164 1169
4 1634 1609 1620 1623
4 1634 1609 1623 1621
4 1609 1620 1623 1603
4 2226 2252 2260 2245
4 3458 3429 3439 3445
4 4223 4208 4237 4201
4 4260 4281 4301 4298
4 4301 4260 4298 4277
4 4281 4301 4298 4316
4 4301 4298 4316 4338
4 4301 4298 4338 4310
4 4298 4301 4277 4310
4 688 705 704 689
4 2213 2241 2242 2227
4 3384 3409 3408 3410
4 2793 2786 2761 2752
4 5383 5353 5319 5351
4 3873 3837 3855 3831
4 1103 1119 1114 1113
4 1103 1119 1113 1125
4 1119 1113 1125 1130
4 1119 1114 1113 1130
4 1114 1103 1113 1099
4 2660 2685 2652 2686
4 2652 2660 2686 2679
4 2660 2685 2686 2700
4 4730 4732 4693 4718
4 3069 3044 3088 3077
4 3088 3069 3077 3079
4 3077 3088 3079 3128
4 5233 5227 5187 5244
4 2867 2836 2859 2869
4 2280 2257 2253 2259
4 2257 2253 2259 2236
4 2259 2257 2236 2282
4 5848 5801 5850 5838
4 5848 5801 5838 5799
4 5801 5850 5838 5804
4 5850 5848 5838 5890
4 2565 2575 2609 2588
4 5599 5635 5609 5643
4 314 326 318 316
4 326 318 316 331
4 318 314 316 305
4 316 318 305 310
4 318 316 331 324
4 316 318 310 324
4 5212 5199 5246 5270
4 5102 5052 5080 5081
4 5102 5052 5081 5105
4 5080 5102 5081 5127
4 5081 5102 5105 5146
4 621 600 607 611
4 607 621 611 629
4 611 607 629 616
4 611 607 616 595
4 611 607 595 586
4 629 611 616 638
4 616 611 595 613
4 611 607 586 588
4 607 586 588 600
4 586 588 600 578
4 586 588 578 563
4 586 588 563 572
4 586 588 572 595
4 586 588 595 611
4 611 607 588 600
4 4975 4992 5030 4969
4 1549 1527 1543 1540
4 1549 1527 1540 1529
4 1527 1543 1540 1512
4 1543 1549 1540 1564
4 1527 1540 1529 1514
4 1558 1556 1582 1570
4 2903 2905 2874 2896
4 2903 2905 2896 2926
4 2905 2874 2896 2892
4 1157 1168 1151 1154
4 5674 5643 5644 5624
4 5152 5137 5163 5148
4 5163 5152 5148 5200
4 5163 5152 5200 5176
4 3970 3977 4024 4020
4 3977 4024 4020 4028
4 4024 3970 4020 4022
4 4020 4024 4022 4049
4 4020 4024 4049 4068
4 4020 4024 4068 4028
4 3962 3944 3995 3974
4 3962 3944 3974 3923
4 3962 3944 3923 3900
4 2144 2132 2114 2115
4 2114 2144 2115 2129
4 2132 2114 2115 2102
4 2114 2115 2102 2084
4 2114 2115 2084 2101
4 2114 2115 2101 2129
4 3422 3443 3408 3382
4 5804 5806 5854 5827
4 5804 5806 5827 5747
4 5806 5854 5827 5855
4 5854 5804 5827 5850
4 5644 5668 5686 5674
4 1690 1714 1700 1692
4 2043 2026 2012 2016
4 5182 5195 5237 5181
4 4840 4860 4814 4858
4 1422 1428 1442 1438
4 2013 2023 1994 2006
4 3669 3670 3695 3680
4 3670 3695 3680 3697
4 3695 3669 3680 3704
4 3680 3695 3704 3726
4 2320 2334 2318 2292
4 3000 2978 2968 2987
4 3673 3694 3689 3661
4 4519 4517 4501 4483
4 4519 4517 4483 4473
4 4501 4519 4483 4461
4 4538 4501 4524 4519
4 4538 4501 4519 4550
4 4519 4538 4550 4560
4 981 976 966 977
4 981 976 977 995
4 3109 3129 3127 3128
4 1904 1916 1888 1891
4 4743 4773 4770 4787
4 519 510 504 508
4 504 519 508 512
4 2072 2061 2071 2044
4 1414 1433 1426 1419
4 1414 1433 1419 1422
4 1419 1414 1422 1399
4 4773 4808 4819 4795
4 3924 3927 3877 3890
4 675 667 651 676
4 675 667 676 684
4 651 675 676 662
4 676 675 684 700
4 675 676 662 698
4 667 651 676 652
4 651 676 652 662
4 667 651 652 642
4 651 652 642 629
4 651 652 629 638
4 652 651 662 638
4 676 675 700 698
4 652 642 629 630
4 629 652 630 638
4 642 629 630 621
4 629 630 621 611
4 629 630 611 638
4 2078 2090 2089 2063
4 1791 1817 1805 1804
4 1791 1817 1804 1800
4 1817 1805 1804 1834
4 979 988 997 989
4 2337 2349 2327 2351
4 2337 2349 2351 2377
4 3361 3355 3327 3321
4 5156 5143 5183 5170
4 2235 2213 2242 2212
4 2235 2213 2212 2199
4 2213 2212 2199 2185
4 2199 2213 2185 2219
4 1758 1783 1766 1771
4 1758 1783 1771 1767
4 5782 5798 5837 5780
4 5522 5538 5480 5514
4 5522 5538 5514 5567
4 5538 5480 5514 5506
4 5522 5538 5567 5585
4 5538 5514 5567 5556
4 5538 5567 5585 5556
4 1200 1185 1201 1197
4 4450 4449 4443 4473
4 4443 4450 4473 4412
4 4579 4591 4547 4557
4 4579 4591 4557 4589
4 4547 4579 4557 4534
4 4579 4591 4589 4614
4 4591 4557 4589 4555
4 4589 4591 4555 4593
4 3541 3515 3542 3533
4 3541 3515 3533 3514
4 3515 3542 3533 3517
4 5529 5517 5571 5583
4 5237 5195 5220 5225
4 5237 5195 5225 5209
4 3543 3523 3514 3541
4 347 361 356 353
4 3167 3186 3176 3128
4 2119 2141 2117 2126
4 2117 2119 2126 2094
4 4019 4022 4065 4037
4 4019 4022 4037 3979
4 4037 4019 3979 4014
4 4065 4019 4037 4072
4 4037 4019 4014 4072
4 1616 1638 1614 1621
4 3008 3034 3033 3024
4 3008 3034 3024 3011
4 3033 3008 3024 3023
4 3034 3033 3024 3063
4 3024 3033 3023 3044
4 3023 3024 3044 3029
4 1200 1192 1197 1206
4 1767 1740 1757 1756
4 1767 1740 1756 1758
4 1740 1757 1756 1744
4 1757 1767 1756 1778
4 1474 1485 1470 1495
4 1144 1156 1160 1147
4 630 652 636 638
4 636 630 638 611
4 652 636 638 662
4 636 638 662 646
4 636 638 646 615
4 259 271 266 269
4 5192 5211 5166 5207
4 2264 2254 2252 2227
4 2254 2252 2227 2242
4 2227 2254 2242 2234
4 3984 4005 3979 4037
4 4767 4784 4738 4724
4 2948 2943 2941 2965
4 2943 2941 2965 2933
4 833 846 852 839
4 3829 3859 3830 3836
4 3859 3830 3836 3843
4 2001 1998 2026 2016
4 2001 1998 2016 1985
4 2001 1998 1985 1973
4 1998 1985 1973 1987
4 1998 1985 1987 2016
4 1985 1973 1987 1961
4 5864 5816 5866 5844
4 5864 5816 5844 5814
4 5816 5866 5844 5819
4 5866 5864 5844 5906
4 459 442 453 460
4 1306 1301 1308 1318
4 1374 1384 1385 1363
4 5502 5454 5487 5488
4 5502 5454 5488 5476
4 5487 5502 5488 5539
4 3240 3213 3225 3214
4 3728 3764 3759 3749
4 3728 3764 3749 3747
4 3764 3759 3749 3785
4 3749 3764 3785 3783
4 1270 1279 1261 1274
4 2631 2610 2594 2616
4 3215 3234 3229 3245
4 3215 3234 3245 3208
4 3234 3229 3245 3264
4 3245 3234 3264 3262
4 1556 1560 1582 1584
4 1560 1582 1584 1573
4 2405 2377 2394 2410
4 2035 2036 2046 2020
4 2046 2035 2020 2025
4 3288 3263 3290 3280
4 3288 3263 3280 3262
4 3263 3290 3280 3265
4 4690 4706 4734 4748
4 4422 4426 4461 4438
4 4422 4426 4438 4381
4 4426 4461 4438 4445
4 5642 5620 5631 5684
4 5147 5163 5209 5198
4 4234 4228 4213 4199
4 1344 1351 1337 1339
4 2557 2590 2551 2568
4 4618 4619 4578 4594
4 4618 4619 4594 4636
4 4618 4619 4636 4670
4 4594 4618 4636 4632
4 4578 4618 4594 4584
4 4594 4578 4584 4537
4 4618 4594 4584 4632
4 4619 4594 4636 4582
4 2015 1990 1999 2000
4 1990 1999 2000 1977
4 1999 2000 1977 1996
4 1999 2000 1996 2028
4 1999 2000 2028 2015
4 1990 1999 1977 1975
4 1999 1977 1975 1981
4 1977 1990 1975 1963
4 1975 1977 1963 1945
4 1975 1977 1945 1955
4 1977 1975 1981 1955
4 2000 1977 1996 1983
4 1996 2000 1983 2009
4 1983 1996 2009 1980
4 1996 2000 2009 2028
4 1977 1999 1996 1981
4 1999 1996 1981 2008
4 1996 1981 2008 1980
4 1999 1996 2008 2028
4 2000 2028 2015 2030
4 2000 2028 2030 2009
4 2028 2015 2030 2045
4 2030 2028 2045 2056
4 2030 2028 2056 2039
4 2028 2030 2009 2039
4 2402 2405 2379 2416
4 852 863 859 853
4 852 863 853 860
4 3960 3931 3984 3965
4 3997 3996 4043 4027
4 1719 1714 1692 1706
4 1719 1714 1706 1733
4 1706 1719 1733 1723
4 1733 1706 1723 1701
4 1706 1723 1701 1705
4 1692 1719 1706 1705
4 1706 1719 1723 1705
4 1719 1733 1723 1736
4 1646 1667 1664 1654
4 1563 1572 1588 1576
4 1563 1572 1576 1548
4 1572 1588 1576 1595
4 1588 1563 1576 1574
4 1487 1485 1474 1503
4 1573 1564 1589 1576
4 3889 3927 3921 3877
4 957 974 959 969
4 1054 1035 1046 1059
4 5335 5386 5361 5355
4 5335 5386 5355 5350
4 5386 5361 5355 5409
4 5386 5355 5350 5425
4 5355 5335 5350 5303
4 3705 3692 3671 3675
4 3360 3362 3384 3372
4 3362 3384 3372 3385
4 3384 3360 3372 3374
4 3561 3544 3527 3517
4 5563 5549 5518 5544
4 5549 5518 5544 5505
4 5549 5518 5505 5486
4 5518 5505 5486 5494
4 5544 5549 5505 5546
4 5518 5563 5544 5494
4 5518 5544 5505 5494
4 2205 2212 2234 2227
4 5451 5426 5417 5467
4 1724 1745 1744 1731
4 1110 1094 1109 1098
4 1109 1110 1098 1120
4 1109 1110 1120 1127
4 4096 4131 4098 4107
4 4098 4096 4107 4069
4 4107 4098 4069 4071
4 4107 4098 4071 4109
4 4098 4071 4109 4059
4 4107 4098 4109 4150
4 4098 4071 4059 4082
4 4098 4069 4071 4096
4 2836 2812 2840 2824
4 2836 2812 2824 2810
4 2812 2840 2824 2811
4 2812 2840 2811 2815
4 2824 2812 2811 2795
4 2840 2811 2815 2861
4 2824 2812 2795 2810
4 2811 2824 2795 2820
4 4380 4384 4423 4394
4 4380 4384 4394 4354
4 4384 4423 4394 4376
4 4380 4384 4354 4348
4 4384 4394 4354 4376
4 6096 6136 6094 6110
4 6096 6136 6110 6139
4 6136 6094 6110 6128
4 6094 6096 6110 6051
4 2664 2694 2684 2668
4 2122 2124 2105 2136
4 2382 2371 2347 2369
4 2371 2347 2369 2364
4 2382 2371 2369 2396
4 2369 2371 2364 2396
4 2382 2371 2396 2409
4 2347 2369 2364 2355
4 5202 5154 5184 5185
4 5202 5154 5185 5178
4 5184 5202 5185 5232
4 325 339 335 334
4 2216 2209 2207 2195
4 2207 2216 2195 2217
4 2195 2207 2217 2180
4 2195 2207 2180 2209
4 2207 2217 2180 2200
4 2180 2207 2200 2185
4 2207 2217 2200 2227
4 2200 2207 2227 2213
4 2207 2217 2227 2216
4 2217 2200 2227 2226
4 5524 5558 5564 5509
4 5524 5558 5509 5542
4 3037 3004 3003 3014
4 3004 3003 3014 2971
4 3037 3004 3014 3018
4 1188 1204 1198 1193
4 1021 1020 1036 1032
4 5356 5342 5358 5308
4 5818 5815 5868 5834
4 5818 5815 5834 5758
4 4807 4824 4787 4819
4 4787 4807 4819 4773
4 1905 1918 1932 1921
4 1932 1905 1921 1917
4 266 253 259 258
4 5808 5810 5856 5830
4 5808 5810 5830 5778
4 5830 5808 5778 5827
4 5810 5856 5830 5860
4 5856 5808 5830 5855
4 1046 1044 1026 1034
4 5712 5684 5713 5677
4 5713 5712 5677 5735
4 5677 5713 5735 5704
4 5713 5712 5735 5732
4 5677 5713 5704 5671
4 5713 5735 5704 5719
4 2098 2083 2070 2085
4 2070 2098 2085 2072
4 2085 2070 2072 2048
4 2550 2574 2535 2577
4 2535 2550 2577 2578
4 2550 2574 2577 2594
4 2574 2577 2594 2616
4 2577 2550 2594 2578
4 2577 2594 2616 2578
4 1048 1054 1064 1059
4 5247 5266 5289 5272
4 1573 1560 1571 1584
4 3620 3642 3640 3628
4 3620 3642 3628 3621
4 3642 3628 3621 3658
4 2060 2046 2040 2063
4 2897 2913 2921 2911
4 2913 2921 2911 2940
4 2911 2913 2940 2930
4 2897 2913 2911 2881
4 2913 2911 2881 2898
4 2913 2911 2898 2930
4 2921 2897 2911 2920
4 2921 2897 2920 2904
4 2913 2921 2940 2942
4 2940 2913 2942 2930
4 2921 2940 2942 2957
4 2942 2940 2930 2963
4 2942 2940 2963 2977
4 2942 2940 2977 2957
4 2921 2911 2940 2920
4 2467 2458 2486 2494
4 4469 4491 4494 4527
4 5537 5476 5502 5511
4 5537 5476 5511 5481
4 5476 5511 5481 5488
4 5476 5502 5511 5488
4 5511 5537 5481 5531
4 5481 5511 5531 5499
4 5511 5537 5531 5554
4 5502 5511 5488 5547
4 5502 5537 5511 5554
4 5511 5481 5488 5499
4 4361 4352 4364 4412
4 3109 3084 3110 3077
4 3757 3787 3748 3795
4 4508 4542 4534 4527
4 857 870 868 851
4 5034 5001 4981 5008
4 5001 4981 5008 4956
4 4981 5034 5008 5003
4 4981 5034 5003 5005
4 308 312 322 315
4 5321 5274 5301 5291
4 1973 1942 1961 1960
4 1973 1942 1960 1976
4 3971 4016 4025 4012
4 3724 3757 3726 3720
4 4362 4338 4375 4339
4 4338 4375 4339 4357
4 4362 4338 4339 4316
4 4338 4339 4316 4301
4 4338 4339 4301 4310
4 4338 4339 4310 4357
4 5044 5029 5013 4984
4 5393 5377 5421 5416
4 4927 4938 4971 4954
4 4971 4927 4954 4955
4 4927 4938 4954 4907
4 4954 4927 4907 4908
4 5779 5733 5793 5795
4 5793 5779 5795 5825
4 1769 1759 1784 1771
4 4921 4913 4964 4935
4 4964 4921 4935 4975
4 4921 4913 4935 4890
4 4999 4988 5042 4969
4 5626 5606 5649 5671
4 3491 3515 3514 3501
4 3491 3515 3501 3492
4 3514 3491 3501 3494
4 3491 3501 3494 3486
4 3501 3494 3486 3523
4 3486 3501 3523 3503
4 3501 3494 3523 3514
4 3523 3501 3514 3533
4 3523 3501 3533 3522
4 3491 3501 3486 3462
4 3501 3486 3462 3490
4 3797 3829 3795 3819
4 5255 5235 5286 5273
4 5255 5235 5273 5224
4 997 1007 1006 996
4 1007 1006 996 1022
4 4861 4885 4822 4856
4 5255 5264 5290 5313
4 780 761 776 772
4 4804 4816 4822 4784
4 4152 4134 4135 4171
4 4135 4152 4171 4192
4 2954 2959 2935 2936
4 224 220 231 226
4 220 231 226 232
4 224 220 226 216
4 231 224 226 228
4 5635 5683 5675 5674
4 5683 5675 5674 5731
4 3092 3088 3101 3118
4 4022 4075 4065 4061
4 122 111 105 94
4 5601 5592 5558 5624
4 5601 5592 5624 5643
4 5592 5558 5624 5587
4 5624 5592 5587 5609
4 1692 1671 1683 1680
4 5461 5464 5509 5475
4 5461 5464 5475 5448
4 5464 5475 5448 5498
4 760 765 748 755
4 1935 1926 1937 1953
4 2573 2609 2611 2601
4 2573 2609 2601 2565
4 2601 2573 2565 2559
4 2609 2611 2601 2625
4 2611 2573 2601 2595
4 2601 2611 2595 2625
4 2595 2601 2625 2631
4 2573 2601 2595 2559
4 2601 2625 2631 2643
4 2601 2595 2559 2597
4 2601 2595 2597 2631
4 2597 2601 2631 2594
4 2595 2559 2597 2572
4 5093 5108 5124 5097
4 5093 5108 5097 5049
4 5108 5124 5097 5157
4 5097 5108 5157 5173
4 5819 5821 5869 5835
4 5819 5821 5835 5770
4 5821 5869 5835 5875
4 5869 5819 5835 5866
4 361 347 355 353
4 2020 2023 2022 2004
4 2022 2020 2004 2025
4 2101 2115 2123 2129
4 2123 2101 2129 2108
4 2115 2123 2129 2146
4 2123 2129 2146 2155
4 2123 2129 2155 2130
4 2123 2129 2130 2108
4 1462 1464 1456 1442
4 1464 1456 1442 1439
4 5608 5554 5588 5589
4 5608 5554 5589 5582
4 5588 5608 5589 5634
4 1215 1231 1214 1220
4 2094 2121 2126 2090
4 3779 3790 3751 3777
4 5694 5716 5642 5717
4 2716 2706 2745 2741
4 5476 5481 5428 5454
4 1302 1320 1311 1312
4 1302 1320 1312 1319
4 1320 1311 1312 1336
4 1311 1302 1312 1295
4 1320 1312 1319 1338
4 5162 5135 5123 5175
4 5162 5135 5175 5139
4 5135 5123 5175 5158
4 5123 5162 5175 5188
4 5033 4973 5001 5013
4 5033 4973 5013 5029
4 5013 5033 5029 5060
4 5033 5029 5060 5074
4 5060 5033 5074 5052
4 5013 5033 5060 5052
4 5074 5060 5052 5105
4 5074 5060 5105 5087
4 4682 4677 4657 4703
4 3210 3237 3208 3245
4 1666 1667 1646 1654
4 3837 3805 3845 3878
4 4839 4851 4795 4815
4 3935 3924 3979 3926
4 3935 3924 3926 3915
4 3979 3935 3926 3915
4 2242 2234 2212 2227
4 3889 3882 3839 3862
4 3889 3882 3862 3925
4 3839 3889 3862 3877
4 3882 3839 3862 3821
4 3839 3862 3821 3812
4 3862 3889 3925 3921
4 3882 3839 3821 3844
4 4851 4839 4863 4815
4 5260 5274 5276 5245
4 5276 5260 5245 5209
4 2860 2861 2886 2859
4 2575 2545 2536 2576
4 2545 2536 2576 2579
4 2575 2545 2576 2588
4 2576 2575 2588 2617
4 2545 2576 2588 2579
4 1751 1741 1769 1756
4 1633 1640 1656 1643
4 1633 1640 1643 1619
4 1640 1656 1643 1664
4 1656 1633 1643 1647
4 3967 3968 3979 4013
4 1350 1367 1348 1352
4 1348 1350 1352 1335
4 1350 1367 1352 1357
4 1350 1352 1335 1339
4 3927 3969 3921 3968
4 1683 1657 1670 1658
4 2850 2855 2882 2888
4 4710 4696 4726 4691
4 3564 3574 3561 3595
4 1616 1598 1614 1612
4 3966 3961 3915 3984
4 251 240 241 247
4 2719 2689 2709 2706
4 195 201 193 187
4 195 201 187 204
4 1391 1368 1381 1384
4 1391 1368 1384 1378
4 5618 5628 5569 5590
4 5618 5628 5590 5616
4 5590 5618 5616 5549
4 5569 5618 5590 5549
4 5616 5590 5549 5620
4 4798 4812 4814 4777
4 2933 2935 2956 2936
4 462 471 473 479
4 334 321 329 325
4 3963 3947 4002 3949
4 1640 1646 1669 1664
4 1669 1640 1664 1656
4 1664 1669 1656 1682
4 4726 4763 4741 4759
4 4726 4763 4759 4769
4 4763 4759 4769 4789
4 5001 4973 4956 4978
4 5001 4973 4978 5013
4 4973 4956 4978 4929
4 4956 5001 4978 5008
4 5001 4978 5008 5013
4 4713 4720 4754 4722
4 4713 4720 4722 4667
4 4754 4713 4722 4728
4 4713 4722 4728 4685
4 4722 4728 4685 4716
4 4722 4754 4728 4771
4 4728 4722 4771 4758
4 2595 2615 2570 2569
4 2580 2582 2543 2566
4 2580 2582 2566 2614
4 2582 2543 2566 2546
4 2543 2580 2566 2532
4 1130 1151 1139 1140
4 1130 1151 1140 1138
4 1151 1139 1140 1155
4 1139 1130 1140 1133
4 1130 1140 1133 1125
4 4292 4278 4295 4322
4 3959 3961 4012 3971
4 3543 3565 3541 3570
4 3543 3565 3570 3575
4 3565 3570 3575 3590
4 3565 3541 3570 3572
4 3565 3570 3590 3572
4 2117 2120 2150 2126
4 2117 2120 2126 2141
4 5220 5195 5170 5225
4 3274 3266 3246 3273
4 3266 3246 3273 3249
4 3246 3274 3273 3252
4 2730 2752 2764 2747
4 4222 4202 4245 4226
4 4202 4245 4226 4225
4 5237 5274 5258 5291
4 5237 5274 5291 5263
4 2550 2564 2594 2562
4 3695 3720 3723 3725
4 3720 3723 3725 3757
4 3723 3725 3757 3777
4 3723 3695 3725 3702
4 3912 3962 3937 3923
4 3013 2995 3001 2978
4 4381 4361 4364 4412
4 5277 5228 5253 5257
4 5277 5228 5257 5220
4 5228 5257 5220 5202
4 5228 5253 5257 5202
4 5253 5277 5257 5287
4 5277 5228 5220 5263
4 5228 5220 5263 5221
4 5220 5263 5221 5237
4 5257 5253 5287 5230
4 1354 1344 1335 1339
4 1354 1344 1339 1351
4 3156 3158 3179 3160
4 3787 3777 3790 3779
4 3928 3958 3978 3956
4 116 112 94 105
4 116 112 105 122
4 112 94 105 90
4 94 105 90 92
4 90 94 92 72
4 94 105 92 111
4 112 94 90 101
4 261 256 268 265
4 256 268 265 262
4 268 265 262 275
4 3956 3936 3996 3978
4 3956 3936 3978 3928
4 2584 2582 2618 2592
4 2584 2582 2592 2546
4 2582 2618 2592 2614
4 2618 2584 2592 2596
4 2584 2592 2596 2554
4 2170 2139 2158 2153
4 5163 5120 5148 5083
4 2678 2653 2645 2643
4 722 709 733 708
4 3173 3186 3146 3141
4 912 900 894 892
4 4971 4991 5032 5000
4 1871 1856 1884 1873
4 267 255 261 265
4 5022 5048 4998 5047
4 817 833 821 827
4 216 209 214 212
4 1948 1939 1940 1941
4 1939 1940 1941 1918
4 1940 1941 1918 1932
4 2647 2681 2667 2649
4 2667 2647 2649 2639
4 2649 2667 2639 2680
4 2647 2649 2639 2602
4 2649 2639 2602 2598
4 2649 2667 2680 2692
4 2649 2667 2692 2681
4 2639 2649 2680 2634
4 2639 2649 2634 2598
4 307 321 311 312
4 4090 4045 4110 4067
4 5692 5632 5667 5670
4 5692 5632 5670 5694
4 5670 5692 5694 5727
4 5632 5667 5670 5608
4 5667 5692 5670 5727
4 5632 5670 5694 5642
4 5694 5670 5727 5705
4 5670 5694 5642 5705
4 4042 4036 4026 4085
4 673 653 669 664
4 2641 2609 2643 2625
4 360 375 362 365
4 362 360 365 344
4 375 362 365 380
4 362 365 380 366
4 362 365 366 351
4 362 365 351 344
4 4039 4090 4070 4081
4 3836 3817 3787 3813
4 3836 3817 3813 3829
4 3817 3787 3813 3795
4 3787 3813 3795 3790
4 3945 3933 3963 3989
4 281 267 274 277
4 4998 5019 4970 5021
4 164 149 148 136
4 5369 5383 5326 5345
4 3875 3896 3843 3939
4 2839 2826 2846 2872
4 3635 3612 3648 3625
4 3635 3612 3625 3593
4 3612 3625 3593 3613
4 3612 3648 3625 3643
4 3648 3635 3625 3659
4 3625 3648 3659 3643
4 5036 5049 4991 5038
4 5036 5049 5038 5108
4 5383 5369 5397 5345
4 326 340 330 331
4 340 330 331 344
4 330 331 344 324
4 330 326 331 318
4 331 330 318 324
4 2299 2308 2306 2321
4 2698 2732 2714 2725
4 2714 2698 2725 2684
4 3133 3165 3159 3151
4 3133 3165 3151 3147
4 3165 3159 3151 3189
4 5360 5350 5408 5386
4 3934 3950 3994 3983
4 3934 3950 3983 3899
4 3950 3994 3983 3998
4 3983 3950 3998 3948
4 3998 3983 3948 3955
4 3983 3948 3955 3888
4 3983 3950 3948 3899
4 3998 3983 3955 4023
4 3998 3983 4023 4026
4 3948 3998 3955 4001
4 1909 1890 1913 1937
4 2651 2683 2660 2643
4 5577 5630 5597 5574
4 1425 1411 1402 1413
4 1411 1402 1413 1391
4 1402 1425 1413 1416
4 5298 5274 5304 5271
4 3298 3288 3314 3280
4 3298 3288 3280 3262
4 4550 4538 4583 4560
4 2186 2162 2165 2134
4 4935 4950 4982 4999
4 428 443 424 427
4 1592 1584 1598 1614
4 2546 2549 2518 2554
4 2546 2549 2554 2584
4 1733 1741 1751 1756
4 3667 3691 3674 3678
4 3667 3691 3678 3680
4 3667 3691 3680 3704
4 3691 3680 3704 3726
4 3680 3667 3704 3688
4 3704 3680 3688 3669
4 3691 3674 3678 3707
4 3678 3667 3680 3642
4 3680 3667 3688 3662
4 3688 3680 3662 3669
4 3691 3678 3680 3726
4 3612 3623 3648 3605
4 4013 4011 4061 4037
4 4312 4308 4274 4307
4 1301 1289 1308 1284
4 1308 1301 1284 1297
4 1597 1575 1587 1583
4 1575 1587 1583 1557
4 1587 1583 1557 1580
4 1587 1597 1583 1607
4 1583 1587 1607 1580
4 3931 3971 3984 3961
4 4097 4142 4106 4047
4 4233 4217 4259 4232
4 4373 4385 4346 4372
4 4346 4373 4372 4340
4 741 723 750 744
4 4929 4973 4952 4962
4 4929 4973 4962 4978
4 4973 4952 4962 5013
4 4952 4929 4962 4937
4 4962 4952 4937 5013
4 4973 4962 4978 5013
4 5337 5349 5295 5304
4 593 608 594 613
4 5620 5613 5563 5549
4 4959 4939 4993 4964
4 5342 5358 5378 5376
4 3568 3539 3523 3533
4 3539 3523 3533 3522
4 3568 3539 3533 3559
4 4477 4522 4495 4499
4 4016 4000 4025 4051
4 4000 4025 4051 4005
4 4000 4025 4005 3971
4 4025 4051 4005 4044
4 2253 2225 2233 2234
4 2394 2421 2416 2410
4 2587 2585 2548 2596
4 187 178 183 177
4 178 183 177 171
4 183 187 177 192
4 177 183 192 191
4 183 177 171 158
4 5321 5338 5375 5394
4 3092 3099 3071 3090
4 4967 4948 4926 4943
4 4948 4926 4943 4900
4 4926 4967 4943 4932
4 4926 4967 4932 4940
4 4967 4943 4932 4980
4 4943 4926 4932 4894
4 5425 5408 5381 5350
4 1883 1893 1905 1896
4 1905 1883 1896 1898
4 4297 4295 4286 4313
4 4295 4286 4313 4278
4 6150 6154 6147 6101
4 1161 1153 1143 1157
4 467 462 459 465
4 3456 3490 3472 3462
4 3611 3620 3640 3604
4 4770 4742 4787 4786
4 3869 3862 3821 3882
4 3869 3862 3882 3925
4 3821 3869 3882 3844
4 3869 3882 3844 3916
4 3869 3882 3916 3925
4 3821 3869 3844 3848
4 3869 3844 3848 3916
4 3844 3821 3848 3810
4 3848 3844 3810 3833
4 3848 3844 3833 3879
4 3848 3844 3879 3916
4 3864 3906 3878 3887
4 825 840 836 834
4 3563 3548 3562 3546
4 3562 3563 3546 3578
4 3546 3562 3578 3567
4 3961 4014 4012 3984
4 2684 2688 2709 2694
4 2709 2684 2694 2689
4 3072 3064 3038 3059
4 3072 3064 3059 3089
4 3064 3038 3059 3034
4 3072 3064 3089 3084
4 3064 3089 3084 3077
4 3059 3072 3089 3085
4 3089 3084 3077 3110
4 3089 3084 3110 3072
4 3038 3072 3059 3056
4 3064 3059 3089 3079
4 3059 3089 3079 3085
4 4346 4341 4340 4280
4 4390 4419 4417 4399
4 3138 3126 3101 3131
4 952 970 963 966
4 1700 1699 1724 1712
4 339 350 335 341
4 1717 1740 1734 1723
4 4425 4423 4460 4435
4 4425 4423 4435 4394
4 4460 4425 4435 4444
4 4425 4435 4444 4402
4 4435 4444 4402 4427
4 4423 4435 4394 4431
4 4435 4460 4444 4495
4 4425 4423 4394 4380
4 4435 4425 4394 4402
4 4394 4435 4402 4416
4 2346 2333 2347 2299
4 1841 1871 1869 1860
4 1871 1869 1860 1894
4 1841 1871 1860 1856
4 2486 2478 2506 2483
4 1704 1717 1734 1723
4 248 241 242 247
4 729 731 733 750
4 4434 4469 4441 4401
4 2529 2515 2542 2506
4 2529 2515 2506 2488
4 2585 2587 2623 2596
4 1824 1825 1846 1833
4 1824 1825 1833 1800
4 1846 1824 1833 1840
4 1824 1833 1840 1817
4 1824 1833 1817 1800
4 1833 1840 1817 1834
4 1833 1846 1840 1860
4 2403 2414 2408 2401
4 2414 2408 2401 2432
4 4303 4264 4284 4285
4 4303 4264 4285 4297
4 4264 4284 4285 4245
4 4806 4816 4769 4789
4 5100 5118 5072 5087
4 5100 5118 5087 5156
4 5118 5072 5087 5107
4 5072 5100 5087 5056
4 5118 5072 5107 5120
4 626 608 613 612
4 626 608 612 627
4 4199 4192 4213 4227
4 4883 4900 4903 4860
4 205 191 192 183
4 228 223 227 224
4 5408 5425 5435 5386
4 5408 5425 5386 5350
4 5425 5435 5386 5409
4 4474 4470 4512 4520
4 2879 2870 2846 2872
4 4358 4332 4340 4333
4 4358 4332 4333 4359
4 4332 4333 4359 4300
4 4358 4332 4359 4379
4 4332 4333 4300 4292
4 4332 4359 4379 4300
4 2237 2245 2261 2247
4 2261 2237 2247 2249
4 2261 2237 2249 2251
4 2237 2245 2247 2218
4 2245 2261 2247 2275
4 2237 2247 2249 2220
4 2247 2261 2249 2278
4 493 477 486 481
4 5200 5214 5256 5271
4 5439 5428 5481 5450
4 5481 5439 5450 5499
4 5439 5428 5450 5378
4 3751 3755 3779 3757
4 3779 3751 3757 3777
4 5456 5442 5494 5505
4 1616 1630 1615 1612
4 247 259 253 251
4 4006 4001 3946 3955
4 4036 4043 4027 4085
4 4714 4665 4686 4688
4 4714 4665 4688 4660
4 4665 4686 4688 4647
4 4686 4714 4688 4729
4 4665 4688 4660 4647
4 3210 3238 3237 3245
4 5464 5443 5406 5422
4 1991 2001 1976 1973
4 3369 3355 3361 3339
4 2379 2364 2402 2396
4 2634 2591 2627 2633
4 1544 1531 1556 1547
4 5397 5412 5446 5468
4 4913 4921 4870 4890
4 3784 3817 3845 3795
4 1546 1550 1524 1531
4 912 914 933 928
4 1608 1633 1618 1623
4 4937 4952 4984 5013
4 5486 5453 5421 5416
4 5453 5421 5416 5440
4 5246 5199 5215 5223
4 5199 5215 5223 5173
4 3674 3691 3719 3707
4 1641 1634 1657 1643
4 5240 5290 5267 5255
4 407 405 422 414
4 2731 2725 2719 2746
4 2731 2725 2746 2768
4 3408 3409 3437 3410
4 3437 3408 3410 3441
4 3959 3957 3907 3938
4 3959 3957 3938 4007
4 3957 3907 3938 3905
4 3907 3959 3938 3909
4 1274 1281 1290 1289
4 1274 1281 1289 1269
4 1289 1274 1269 1284
4 1516 1513 1491 1510
4 1516 1513 1510 1538
4 1084 1103 1095 1093
4 4959 4993 4977 4975
4 2252 2264 2260 2274
4 4280 4276 4240 4257
4 5052 5033 5001 5013
4 4550 4533 4519 4560
4 1596 1573 1589 1576
4 2652 2616 2642 2660
4 2642 2652 2660 2666
4 2660 2642 2666 2651
4 2652 2616 2660 2648
4 2660 2652 2648 2679
4 552 551 545 550
4 4006 3962 3995 3974
4 2084 2074 2056 2057
4 2056 2084 2057 2067
4 2074 2056 2057 2045
4 2056 2057 2045 2030
4 2056 2057 2030 2039
4 2057 2056 2067 2039
4 5522 5509 5564 5567
4 5564 5522 5567 5585
4 5567 5564 5585 5592
4 5567 5564 5592 5509
4 5585 5567 5592 5609
4 5567 5592 5609 5587
4 5585 5567 5609 5556
4 5567 5592 5587 5509
4 678 671 693 682
4 2128 2111 2098 2113
4 2098 2128 2113 2116
4 4869 4885 4831 4822
4 5747 5804 5745 5775
4 5804 5745 5775 5801
4 5745 5747 5775 5699
4 4198 4213 4165 4167
4 3695 3697 3720 3726
4 2126 2142 2141 2136
4 2126 2142 2136 2161
4 2136 2126 2161 2135
4 2141 2126 2136 2134
4 3309 3330 3301 3339
4 419 407 422 414
4 3912 3900 3962 3923
4 4475 4509 4477 4522
4 3158 3129 3159 3128
4 3964 4009 4008 4010
4 4008 3964 4010 3941
4 1354 1361 1351 1374
4 4968 4995 4998 4951
4 4471 4449 4473 4443
4 4473 4471 4443 4470
4 4471 4449 4443 4469
4 504 493 486 495
4 486 504 495 492
4 3910 3913 3858 3893
4 3910 3913 3893 3936
4 3893 3910 3936 3880
4 3913 3858 3893 3874
4 3858 3910 3893 3866
4 5358 5325 5352 5305
4 2139 2111 2128 2113
4 4222 4264 4239 4245
4 3725 3704 3695 3720
4 1783 1791 1805 1804
4 1077 1068 1059 1064
4 1841 1835 1856 1844
4 1841 1835 1844 1819
4 1835 1856 1844 1848
4 5272 5278 5227 5244
4 4190 4221 4168 4212
4 1143 1137 1118 1125
4 1143 1137 1125 1138
4 5451 5430 5426 5474
4 1900 1916 1925 1891
4 1900 1916 1891 1888
4 1351 1331 1337 1342
4 3971 3928 3978 3938
4 3971 3928 3938 3909
4 3928 3978 3938 3936
4 1432 1439 1419 1413
4 1630 1649 1626 1640
4 3061 3068 3033 3063
4 3008 3033 3006 3023
4 4907 4884 4867 4859
4 4907 4884 4859 4908
4 4884 4867 4859 4838
4 4859 4884 4838 4862
4 4867 4859 4838 4821
4 4859 4838 4821 4813
4 539 525 543 545
4 1524 1517 1504 1522
4 1517 1504 1522 1519
4 1517 1504 1519 1499
4 1522 1517 1519 1531
4 1517 1519 1531 1499
4 1519 1522 1531 1547
4 1522 1517 1531 1524
4 1605 1614 1619 1593
4 1605 1614 1593 1584
4 5207 5159 5175 5158
4 5088 5114 5070 5109
4 111 99 92 93
4 99 92 93 72
4 92 93 72 94
4 92 93 94 111
4 1819 1792 1806 1804
4 4090 4039 4063 4081
4 5261 5271 5214 5209
4 4748 4720 4690 4687
4 4720 4690 4687 4667
4 4720 4690 4667 4664
4 3864 3892 3914 3884
4 2422 2416 2437 2421
4 6104 6158 6102 6152
4 1373 1357 1368 1354
4 1373 1357 1354 1352
4 1357 1354 1352 1350
4 1357 1354 1350 1339
4 1357 1354 1339 1347
4 1354 1352 1350 1339
4 1357 1354 1347 1368
4 1354 1339 1347 1351
4 1354 1352 1339 1335
4 2858 2843 2850 2825
4 2858 2843 2825 2863
4 2850 2858 2825 2861
4 5454 5428 5403 5450
4 5454 5428 5450 5481
4 914 912 907 928
4 3011 3005 3038 3016
4 3011 3005 3016 2983
4 3011 3005 2983 2982
4 3005 3038 3016 3020
4 3005 3016 2983 2991
4 3016 3011 2983 3015
4 2983 3011 2982 2988
4 3016 3011 3015 3034
4 2983 3016 3015 2998
4 2982 2983 2988 2966
4 2983 2988 2966 2967
4 2982 2983 2966 2954
4 2988 2982 2966 2981
4 2983 2966 2954 2967
4 2653 2674 2645 2632
4 2674 2645 2632 2669
4 2735 2716 2745 2741
4 991 985 999 995
4 4795 4755 4774 4779
4 4795 4755 4779 4773
4 4755 4774 4779 4729
4 4774 4795 4779 4815
4 1519 1523 1547 1529
4 1519 1523 1529 1502
4 1523 1547 1529 1549
4 3288 3290 3314 3280
4 1214 1232 1226 1225
4 1214 1232 1225 1231
4 1232 1226 1225 1243
4 1226 1214 1225 1204
4 2533 2505 2529 2506
4 2533 2505 2506 2562
4 2529 2533 2506 2565
4 1939 1925 1940 1918
4 465 476 460 470
4 476 460 470 474
4 1337 1325 1339 1318
4 1337 1325 1318 1310
4 1339 1337 1318 1326
4 1339 1337 1326 1347
4 1337 1318 1326 1319
4 1326 1337 1319 1338
4 1339 1337 1347 1351
4 1337 1326 1347 1338
4 1337 1318 1319 1310
4 1319 1326 1338 1317
4 1319 1326 1317 1308
4 1319 1326 1308 1318
4 2551 2587 2548 2568
4 2551 2587 2568 2590
4 2587 2568 2590 2626
4 3649 3667 3674 3678
4 2302 2281 2303 2292
4 3995 3974 4032 4053
4 5744 5728 5686 5674
4 1598 1615 1604 1612
4 4496 4514 4542 4556
4 5666 5642 5632 5694
4 5666 5642 5694 5685
4 580 576 574 560
4 576 574 560 561
4 4997 4993 4975 5030
4 4218 4260 4233 4259
4 4218 4260 4259 4243
4 4260 4233 4259 4277
4 4260 4259 4243 4281
4 4260 4259 4281 4298
4 4260 4259 4298 4277
4 3699 3710 3719 3674
4 3384 3385 3409 3393
4 3385 3409 3393 3417
4 3409 3384 3393 3392
4 1047 1058 1061 1070
4 3970 3968 3921 3969
4 3970 3968 3969 4013
4 473 484 481 477
4 5319 5326 5365 5383
4 1109 1101 1092 1098
4 2836 2840 2859 2824
4 5860 5812 5861 5841
4 5860 5812 5841 5810
4 5812 5861 5841 5814
4 5861 5860 5841 5907
4 5151 5163 5148 5209
4 2105 2091 2080 2089
4 4208 4168 4221 4212
4 3071 3037 3054 3051
4 3071 3037 3051 3055
4 3037 3054 3051 3029
4 3054 3071 3051 3069
4 3051 3054 3069 3029
4 5379 5391 5429 5399
4 5379 5391 5399 5347
4 5429 5379 5399 5405
4 5399 5379 5347 5354
4 5399 5429 5405 5457
4 5379 5391 5347 5327
4 5347 5379 5327 5354
4 5327 5347 5354 5306
4 5379 5399 5405 5354
4 5399 5405 5354 5380
4 5391 5399 5347 5385
4 5405 5399 5457 5432
4 5347 5399 5354 5362
4 3953 3957 4003 3973
4 3953 3957 3973 3905
4 3957 4003 3973 4007
4 4003 3953 3973 3999
4 3369 3378 3373 3390
4 3369 3378 3390 3405
4 3373 3369 3390 3344
4 3390 3369 3405 3392
4 3390 3369 3392 3344
4 5517 5542 5516 5573
4 6160 6158 6104 6152
4 707 710 689 705
4 1521 1515 1497 1493
4 2070 2043 2061 2072
4 5729 5711 5738 5774
4 5250 5266 5210 5197
4 4732 4730 4777 4739
4 4732 4730 4739 4718
4 3640 3642 3670 3680
4 4307 4296 4290 4354
4 3164 3147 3140 3150
4 3140 3164 3150 3155
4 3140 3164 3155 3154
4 2927 2917 2895 2918
4 3906 3947 3963 3914
4 4477 4460 4437 4423
4 3109 3110 3129 3128
4 3176 3193 3174 3214
4 3174 3176 3214 3189
4 3174 3176 3189 3151
4 3174 3176 3151 3114
4 4257 4221 4242 4237
4 4608 4617 4575 4583
4 4229 4253 4246 4213
4 2625 2650 2643 2641
4 2650 2643 2641 2662
4 3977 3980 3929 3981
4 3980 3929 3981 3930
4 3977 3980 3981 4028
4 3980 3981 4028 4038
4 3980 3981 4038 3987
4 3980 3981 3987 3930
4 3981 3977 4028 4041
4 4028 3981 4041 4038
4 3977 4028 4041 4024
4 4041 4028 4038 4089
4 4028 4041 4024 4068
4 4028 4041 4068 4089
4 2083 2053 2070 2085
4 5098 5056 5072 5068
4 5098 5056 5068 5043
4 5072 5098 5068 5121
4 5098 5068 5121 5043
4 1767 1791 1783 1782
4 1767 1791 1782 1778
4 1791 1783 1782 1804
4 1782 1791 1804 1796
4 2337 2352 2377 2369
4 5412 5397 5393 5440
4 4395 4375 4413 4377
4 4375 4413 4377 4392
4 4395 4375 4377 4362
4 4377 4375 4392 4357
4 4375 4377 4362 4339
4 4375 4377 4339 4357
4 1942 1973 1944 1976
4 4787 4824 4789 4830
4 5252 5212 5246 5270
4 5246 5252 5270 5311
4 5270 5246 5311 5285
4 1485 1466 1470 1452
4 1466 1470 1452 1440
4 1492 1471 1493 1491
4 1493 1492 1491 1513
4 1492 1471 1491 1467
4 1471 1493 1491 1469
4 1471 1493 1469 1468
4 1491 1471 1469 1467
4 1471 1469 1467 1448
4 1471 1469 1448 1468
4 1492 1491 1513 1509
4 1491 1492 1467 1489
4 1491 1492 1489 1509
4 3905 3953 3902 3922
4 3905 3953 3922 3973
4 3953 3902 3922 3951
4 3902 3905 3922 3847
4 3953 3922 3973 3951
4 2178 2205 2180 2185
4 2178 2205 2185 2212
4 2180 2178 2185 2160
4 2741 2719 2746 2731
4 2746 2741 2731 2735
4 2731 2746 2735 2759
4 4163 4140 4144 4161
4 1738 1740 1717 1733
4 1612 1614 1592 1598
4 5290 5312 5267 5281
4 5312 5267 5281 5288
4 5267 5290 5281 5255
4 5728 5744 5731 5674
4 1769 1741 1759 1756
4 1301 1290 1289 1284
4 4689 4730 4693 4699
4 4693 4689 4699 4652
4 4689 4730 4699 4712
4 4730 4699 4712 4739
4 4699 4689 4712 4659
4 4699 4712 4739 4700
4 4699 4689 4659 4652
4 4712 4699 4659 4700
4 3860 3859 3829 3878
4 4690 4658 4667 4636
4 4658 4667 4636 4632
4 5806 5808 5855 5827
4 307 293 301 299
4 2414 2427 2408 2432
4 2979 2973 2943 2965
4 2973 2943 2965 2966
4 2550 2535 2496 2532
4 2209 2179 2188 2189
4 3210 3208 3179 3191
4 3208 3179 3191 3196
4 2515 2489 2506 2488
4 1290 1302 1279 1291
4 1290 1302 1291 1301
4 1291 1290 1301 1284
4 1301 1291 1284 1297
4 1291 1284 1297 1276
4 1302 1279 1291 1295
4 1301 1291 1297 1312
4 1291 1297 1312 1295
4 1297 1291 1276 1295
4 1279 1290 1291 1284
4 1291 1284 1276 1279
4 3376 3369 3361 3392
4 228 234 237 227
4 3237 3263 3262 3245
4 5653 5671 5656 5677
4 2033 2006 2023 2040
4 2023 2033 2040 2032
4 1654 1651 1641 1635
4 1641 1654 1635 1643
4 1654 1635 1643 1640
4 1635 1643 1640 1619
4 1640 1635 1619 1630
4 2627 2624 2657 2638
4 2627 2624 2638 2626
4 2657 2627 2638 2671
4 647 628 627 626
4 2560 2593 2557 2561
4 2560 2593 2561 2598
4 2557 2560 2561 2512
4 2561 2560 2598 2555
4 2373 2387 2403 2408
4 2102 2074 2084 2086
4 2074 2084 2086 2057
4 2084 2086 2057 2067
4 2084 2102 2086 2115
4 2086 2084 2115 2101
4 2086 2084 2101 2067
4 2520 2497 2536 2545
4 2536 2520 2545 2542
4 2520 2545 2542 2506
4 2497 2536 2545 2531
4 2380 2354 2373 2355
4 1502 1527 1523 1529
4 1527 1523 1529 1549
4 4999 5042 4992 5027
4 4999 5042 5027 4969
4 2354 2330 2334 2355
4 4152 4190 4171 4192
4 1692 1683 1705 1695
4 1692 1683 1695 1680
4 1683 1705 1695 1698
4 1705 1692 1695 1701
4 3872 3895 3923 3871
4 871 873 854 865
4 770 755 765 760
4 976 977 960 966
4 2600 2603 2639 2598
4 2600 2603 2598 2555
4 514 524 510 505
4 743 726 742 744
4 612 594 608 613
4 2910 2932 2918 2917
4 388 376 370 377
4 2089 2094 2117 2126
4 2117 2089 2126 2105
4 5100 5087 5143 5156
4 4956 4929 4910 4933
4 4956 4929 4933 4978
4 4929 4910 4933 4889
4 4910 4956 4933 4931
4 4933 4956 4978 4965
4 4910 4933 4889 4893
4 4822 4831 4802 4821
4 4822 4831 4821 4885
4 4831 4802 4821 4838
4 2591 2598 2561 2593
4 2238 2225 2209 2233
4 3866 3854 3880 3832
4 3866 3854 3832 3814
4 3854 3880 3832 3840
4 3880 3866 3832 3893
4 3832 3866 3814 3858
4 961 942 953 940
4 1554 1563 1574 1565
4 1563 1574 1565 1576
4 1574 1554 1565 1568
4 1565 1563 1576 1540
4 5303 5255 5273 5281
4 5455 5471 5478 5435
4 1489 1509 1506 1510
4 1509 1506 1510 1535
4 1093 1079 1091 1095
4 4303 4284 4320 4285
4 1316 1300 1318 1310
4 4816 4854 4861 4830
4 3720 3721 3755 3726
4 3720 3721 3726 3697
4 3721 3755 3726 3759
4 3755 3720 3726 3757
4 3721 3726 3697 3689
4 3428 3439 3453 3458
4 3369 3376 3405 3392
4 4439 4440 4442 4470
4 5178 5125 5154 5170
4 5178 5125 5170 5183
4 5170 5178 5183 5220
4 5170 5178 5220 5185
4 253 241 247 251
4 3182 3158 3159 3166
4 3182 3158 3166 3179
4 3159 3182 3166 3189
4 3158 3159 3166 3128
4 3159 3182 3189 3198
4 3182 3166 3189 3225
4 3166 3159 3189 3151
4 5187 5157 5173 5097
4 453 442 436 443
4 436 453 443 456
4 3984 3979 3926 3915
4 3924 3919 3926 3890
4 3926 3924 3890 3915
4 3890 3926 3915 3851
4 1651 1654 1649 1635
4 2591 2589 2627 2590
4 449 447 427 459
4 1584 1592 1605 1614
4 1521 1528 1545 1518
4 1521 1528 1518 1497
4 1261 1271 1254 1263
4 1271 1254 1263 1268
4 1261 1271 1263 1279
4 1892 1891 1914 1893
4 571 589 573 583
4 922 918 933 946
4 4793 4821 4838 4813
4 1834 1840 1855 1844
4 2530 2547 2559 2569
4 2725 2709 2719 2690
4 2364 2380 2402 2403
4 2380 2402 2403 2414
4 4207 4240 4221 4242
4 5472 5492 5440 5468
4 5440 5472 5468 5424
4 3590 3572 3591 3589
4 4434 4424 4417 4399
4 4434 4424 4399 4401
4 4417 4434 4399 4443
4 4399 4434 4401 4443
4 2619 2583 2620 2599
4 2529 2514 2488 2485
4 4007 3959 4012 3992
4 4007 3959 3992 3938
4 3959 4012 3992 3971
4 4012 4007 3992 4039
4 3959 3992 3938 3971
4 4007 3992 4039 3938
4 3992 3938 3971 3978
4 3971 3992 3978 4016
4 3971 3992 4016 4012
4 3992 3978 4016 4039
4 3978 3971 4016 3997
4 4016 3978 3997 4027
4 4016 3992 4039 4012
4 4825 4816 4789 4830
4 397 396 409 389
4 1529 1544 1548 1547
4 5210 5203 5160 5197
4 5210 5203 5197 5266
4 5203 5160 5197 5173
4 5642 5615 5632 5595
4 1725 1714 1700 1712
4 532 525 528 545
4 525 528 545 539
4 2593 2590 2557 2591
4 5313 5303 5350 5335
4 5313 5303 5335 5290
4 5313 5303 5290 5255
4 5303 5335 5290 5281
4 5303 5290 5255 5281
4 3118 3141 3128 3111
4 1467 1489 1463 1465
4 1463 1467 1465 1435
4 1467 1489 1465 1491
4 1465 1467 1491 1469
4 1465 1467 1469 1448
4 4638 4642 4606 4617
4 3336 3314 3338 3344
4 4369 4379 4399 4390
4 3485 3471 3507 3443
4 261 274 267 268
4 2178 2164 2185 2153
4 4725 4709 4727 4682
4 4725 4709 4682 4703
4 2556 2558 2525 2537
4 2556 2558 2537 2568
4 2558 2525 2537 2513
4 2525 2556 2537 2508
4 2537 2556 2568 2534
4 1967 1947 1944 1948
4 4093 4053 4083 4077
4 827 846 833 830
4 2353 2319 2346 2336
4 1852 1849 1845 1863
4 1651 1649 1638 1635
4 4584 4578 4544 4537
4 2083 2096 2078 2066
4 2083 2096 2066 2085
4 2083 2096 2085 2098
4 2096 2066 2085 2091
4 4150 4139 4107 4131
4 4150 4139 4131 4176
4 4131 4150 4176 4192
4 4150 4176 4192 4167
4 594 604 598 584
4 4035 3991 4015 4009
4 4035 3991 4009 4047
4 5593 5620 5563 5559
4 5563 5593 5559 5548
4 5593 5559 5548 5595
4 5593 5620 5559 5595
4 5559 5548 5595 5531
4 5559 5548 5531 5494
4 5620 5559 5595 5631
4 5595 5559 5531 5499
4 1058 1044 1061 1054
4 1061 1058 1054 1073
4 2781 2790 2810 2794
4 2790 2810 2794 2795
4 2781 2790 2794 2770
4 2810 2781 2794 2801
4 2794 2810 2801 2822
4 2801 2794 2822 2793
4 2781 2794 2801 2770
4 2794 2801 2770 2768
4 2810 2801 2822 2781
4 2794 2810 2822 2824
4 2801 2794 2793 2768
4 2770 2794 2768 2790
4 2794 2790 2795 2768
4 2801 2781 2770 2791
4 2801 2822 2781 2791
4 2794 2793 2768 2795
4 280 266 271 269
4 6101 6100 6056 6076
4 6101 6100 6076 6147
4 6100 6056 6076 6050
4 4192 4207 4213 4248
4 2169 2160 2168 2180
4 4583 4565 4598 4587
4 4583 4565 4587 4538
4 4565 4598 4587 4580
4 4598 4583 4587 4621
4 2026 2022 2048 2053
4 2048 2026 2053 2043
4 2053 2048 2043 2070
4 3044 3023 3068 3033
4 4976 4993 4939 4964
4 3965 3924 3926 3979
4 5216 5190 5162 5175
4 5190 5162 5175 5139
4 5162 5216 5175 5222
4 5430 5425 5381 5426
4 5430 5425 5426 5474
4 5245 5271 5209 5215
4 6162 6164 6156 6106
4 1169 1161 1182 1172
4 5778 5749 5723 5737
4 1942 1934 1961 1960
4 68 72 74 90
4 3933 3904 3878 3903
4 5760 5732 5786 5735
4 1979 1969 1978 1994
4 1979 1969 1994 1984
4 1969 1978 1994 1993
4 2623 2587 2626 2613
4 2626 2623 2613 2670
4 3861 3864 3878 3819
4 3813 3797 3795 3790
4 791 807 802 794
4 5582 5537 5554 5531
4 1810 1831 1825 1813
4 1810 1831 1813 1819
4 1831 1813 1819 1833
4 1831 1825 1813 1833
4 1825 1810 1813 1796
4 1810 1813 1796 1790
4 1810 1813 1790 1819
4 1813 1796 1790 1782
4 3146 3167 3138 3186
4 1048 1064 1057 1051
4 1713 1700 1724 1725
4 1713 1700 1725 1717
4 1894 1871 1884 1873
4 805 790 794 807
4 3763 3727 3732 3746
4 3727 3732 3746 3713
4 3732 3746 3713 3733
4 1819 1841 1831 1833
4 4947 4934 4958 4899
4 1736 1705 1718 1721
4 1736 1705 1721 1723
4 1705 1718 1721 1698
4 1705 1721 1723 1704
4 1721 1736 1723 1748
4 1723 1721 1748 1734
4 3378 3364 3348 3380
4 3508 3522 3525 3548
4 3525 3508 3548 3511
4 3508 3522 3548 3520
4 2590 2593 2633 2591
4 5216 5259 5222 5234
4 1825 1814 1823 1809
4 4347 4303 4320 4321
4 4347 4303 4321 4297
4 4303 4320 4321 4285
4 4321 4303 4285 4297
4 4035 4029 4071 4059
4 4029 4071 4059 4066
4 370 361 355 363
4 4035 4071 4055 4059
4 248 261 255 256
4 2486 2490 2505 2529
4 5442 5458 5494 5481
4 2589 2591 2558 2590
4 2597 2610 2564 2594
4 2564 2597 2594 2565
4 4763 4784 4724 4741
4 2087 2097 2110 2100
4 2110 2087 2100 2104
4 2110 2087 2104 2107
4 2087 2097 2100 2068
4 2097 2110 2100 2127
4 2087 2100 2104 2073
4 2100 2110 2104 2131
4 3809 3837 3841 3831
4 3809 3837 3831 3782
4 6158 6154 6102 6152
4 376 361 370 368
4 2489 2478 2506 2488
4 1579 1555 1567 1565
4 4426 4403 4445 4429
4 4403 4445 4429 4421
4 4445 4426 4429 4438
4 4426 4429 4438 4389
4 2211 2205 2234 2225
4 3720 3755 3751 3757
4 4851 4819 4808 4795
4 4711 4727 4709 4682
4 3210 3211 3238 3225
4 3238 3210 3225 3245
4 5418 5464 5406 5422
4 1995 1991 1976 1967
4 996 981 989 971
4 3623 3608 3617 3588
4 4641 4606 4617 4638
4 4934 4937 4969 4953
4 4934 4937 4953 4897
4 4969 4934 4953 4935
4 3933 3906 3963 3937
4 1090 1087 1071 1072
4 1071 1090 1072 1082
4 1072 1071 1082 1056
4 1072 1071 1056 1066
4 1087 1071 1072 1066
4 1071 1090 1082 1080
4 1090 1072 1082 1100
4 870 858 857 847
4 5119 5162 5123 5133
4 1546 1558 1550 1553
4 1608 1619 1633 1623
4 3326 3320 3298 3322
4 1700 1701 1680 1692
4 3409 3411 3438 3417
4 534 545 536 532
4 573 567 561 576
4 2256 2253 2234 2254
4 2790 2792 2795 2760
4 2886 2875 2908 2890
4 2886 2875 2890 2861
4 2875 2890 2861 2864
4 2875 2908 2890 2893
4 6132 6092 6094 6128
4 2814 2803 2820 2825
4 2803 2820 2825 2811
4 2814 2803 2825 2798
4 2371 2345 2364 2373
4 2779 2809 2803 2786
4 2809 2803 2786 2793
4 4213 4198 4229 4195
4 4213 4198 4195 4167
4 4198 4195 4167 4200
4 4195 4167 4200 4156
4 4198 4229 4195 4200
4 4195 4167 4156 4192
4 4229 4195 4200 4230
4 4195 4200 4230 4239
4 3951 3953 3999 3973
4 3955 3962 4006 3937
4 4545 4575 4556 4533
4 4556 4545 4533 4514
4 2184 2170 2158 2172
4 2158 2184 2172 2176
4 1125 1117 1102 1101
4 5749 5806 5747 5737
4 5747 5749 5737 5702
4 2023 2014 1994 1995
4 2337 2351 2369 2377
4 1414 1426 1405 1413
4 1426 1405 1413 1416
4 1414 1426 1413 1419
4 1413 1414 1419 1394
4 1405 1414 1413 1394
4 2427 2403 2408 2395
4 5378 5358 5352 5403
4 3127 3129 3158 3128
4 793 811 800 798
4 4264 4230 4239 4266
4 2674 2687 2678 2708
4 248 243 256 252
4 243 256 252 262
4 3917 3919 3865 3883
4 2371 2358 2346 2353
4 2026 1998 2012 2016
4 1033 1040 1049 1039
4 1040 1049 1039 1051
4 1049 1033 1039 1045
4 1039 1040 1051 1032
4 1051 1039 1032 1053
4 1051 1039 1053 1067
4 1039 1032 1053 1045
4 1033 1040 1039 1022
4 1049 1039 1051 1067
4 1032 1051 1053 1036
4 1051 1053 1036 1059
4 1051 1053 1059 1079
4 1036 1051 1059 1035
4 1036 1051 1035 1032
4 5042 5031 5043 4988
4 5141 5156 5181 5147
4 5181 5141 5147 5121
4 5141 5147 5121 5118
4 5147 5181 5121 5198
4 5147 5181 5198 5209
4 5181 5198 5209 5237
4 2615 2611 2570 2622
4 327 328 334 321
4 1819 1806 1835 1822
4 1819 1806 1822 1804
4 1806 1835 1822 1818
4 3420 3390 3417 3406
4 2178 2189 2163 2179
4 3167 3176 3174 3114
4 4045 4090 4063 4067
4 4063 4045 4067 4012
4 2458 2457 2486 2478
4 5200 5246 5215 5271
4 708 707 693 682
4 529 508 519 512
4 2052 2025 2035 2046
4 1014 1003 1021 999
4 388 396 377 389
4 5814 5864 5861 5842
4 5814 5864 5842 5844
4 5864 5842 5844 5895
4 5864 5861 5842 5895
4 5861 5814 5842 5841
4 5842 5861 5841 5895
4 5842 5844 5895 5853
4 347 334 341 339
4 2211 2233 2209 2225
4 2448 2425 2421 2437
4 3441 3442 3410 3437
4 4501 4484 4524 4505
4 4484 4524 4505 4498
4 4524 4501 4505 4519
4 4501 4505 4519 4461
4 1164 1150 1145 1160
4 918 927 934 946
4 3786 3819 3797 3795
4 1296 1294 1304 1282
4 3936 3934 3990 3954
4 5671 5653 5704 5677
4 367 371 368 361
4 3919 3881 3865 3886
4 3919 3881 3886 3890
4 3865 3919 3886 3883
4 3881 3886 3890 3835
4 3886 3865 3883 3834
4 499 508 495 504
4 508 495 504 512
4 2022 2032 2005 2023
4 2585 2544 2548 2554
4 1367 1388 1369 1373
4 1369 1367 1373 1352
4 1369 1367 1352 1348
4 2591 2561 2558 2557
4 4039 4045 4063 4012
4 4599 4600 4595 4563
4 4508 4496 4542 4527
4 1581 1586 1584 1598
4 1581 1586 1598 1604
4 4233 4203 4232 4215
4 1596 1589 1609 1599
4 1596 1589 1599 1576
4 1589 1609 1599 1603
4 1609 1596 1599 1621
4 4658 4618 4632 4636
4 4658 4618 4636 4670
4 3722 3705 3707 3732
4 3722 3705 3732 3692
4 3705 3707 3732 3717
4 3705 3732 3692 3713
4 3705 3732 3713 3717
4 2306 2289 2295 2319
4 5779 5732 5759 5773
4 5759 5779 5773 5825
4 3343 3353 3360 3322
4 4988 4999 4950 4969
4 1094 1101 1109 1098
4 2822 2810 2836 2824
4 2650 2651 2643 2662
4 4925 4948 4951 4903
4 6142 6096 6098 6139
4 4621 4598 4647 4626
4 4621 4598 4626 4587
4 4598 4647 4626 4625
4 4647 4621 4626 4660
4 4598 4626 4587 4609
4 2631 2651 2642 2660
4 2642 2631 2660 2616
4 3699 3671 3659 3648
4 3671 3659 3648 3643
4 4805 4787 4789 4786
4 5809 5807 5859 5829
4 5809 5807 5829 5752
4 791 773 790 780
4 4591 4631 4628 4593
4 1304 1315 1327 1316
4 5684 5732 5713 5717
4 1969 1953 1978 1957
4 768 750 761 757
4 750 761 757 744
4 3070 3056 3043 3060
4 3043 3070 3060 3058
4 3043 3070 3058 3065
4 3060 3043 3058 3019
4 3904 3861 3878 3860
4 3878 3904 3860 3903
4 4501 4461 4484 4505
4 1466 1487 1474 1463
4 3083 3109 3108 3111
4 2300 2284 2282 2280
4 1433 1456 1447 1439
4 1433 1456 1439 1442
4 1439 1433 1442 1422
4 2290 2303 2292 2320
4 2082 2070 2072 2098
4 285 280 287 281
4 4931 4910 4893 4933
4 325 335 322 329
4 4418 4440 4423 4385
4 1942 1920 1934 1933
4 1942 1920 1933 1944
4 1934 1942 1933 1960
4 1942 1933 1960 1976
4 1734 1740 1758 1748
4 4369 4373 4340 4378
4 5429 5441 5480 5461
4 1236 1220 1222 1231
4 274 287 281 282
4 1784 1759 1768 1771
4 3989 3972 3933 3963
4 5730 5744 5686 5711
4 4165 4197 4176 4213
4 4861 4870 4909 4921
4 4381 4347 4366 4364
4 5397 5418 5395 5448
4 3008 2981 2982 2988
4 1464 1473 1490 1455
4 4107 4109 4138 4150
4 341 334 329 335
4 5635 5585 5609 5611
4 5044 5060 5087 5057
4 2089 2093 2063 2088
4 5313 5360 5335 5350
4 5360 5335 5350 5386
4 628 612 626 615
4 3860 3903 3859 3878
4 477 459 470 465
4 3661 3673 3658 3689
4 3673 3658 3689 3678
4 3658 3661 3689 3672
4 3689 3658 3672 3707
4 3186 3173 3212 3180
4 3186 3173 3180 3141
4 3212 3186 3180 3195
4 3212 3186 3195 3225
4 3186 3180 3195 3166
4 3180 3212 3195 3210
4 3195 3212 3225 3210
4 3225 3195 3210 3182
4 3195 3210 3182 3179
4 3195 3210 3179 3180
4 3182 3195 3179 3166
4 3182 3195 3166 3225
4 4461 4445 4484 4465
4 4445 4484 4465 4463
4 4484 4461 4465 4505
4 4465 4484 4505 4498
4 1181 1197 1194 1185
4 1473 1478 1490 1499
4 3873 3841 3837 3831
4 3263 3238 3265 3251
4 3263 3238 3251 3237
4 3238 3265 3251 3236
4 3265 3263 3251 3280
4 3238 3265 3236 3235
4 3251 3238 3236 3225
4 3251 3238 3225 3245
4 3263 3251 3280 3264
4 3236 3251 3225 3252
4 3236 3251 3252 3265
4 3251 3225 3252 3240
4 3225 3251 3245 3264
4 3251 3280 3264 3274
4 3251 3252 3265 3300
4 3251 3245 3264 3263
4 5135 5119 5123 5077
4 5135 5119 5077 5109
4 5671 5700 5697 5711
4 4851 4865 4819 4852
4 1270 1290 1279 1274
4 4185 4168 4208 4178
4 4168 4208 4178 4212
4 4208 4185 4178 4201
4 2627 2589 2624 2612
4 2627 2589 2612 2590
4 2589 2624 2612 2568
4 2624 2627 2612 2626
4 2612 2589 2568 2590
4 2568 2612 2590 2626
4 2612 2590 2626 2627
4 1487 1489 1506 1488
4 2895 2900 2918 2872
4 2253 2238 2236 2233
4 4049 4013 4061 4022
4 1641 1638 1621 1635
4 2996 2980 2967 2971
4 5093 5049 5053 5108
4 5326 5319 5311 5383
4 3961 3959 3909 3971
4 136 131 116 135
4 5808 5806 5749 5778
4 3809 3796 3782 3831
4 3809 3796 3831 3841
4 4890 4854 4825 4830
4 999 996 1011 1020
4 3757 3748 3726 3795
4 2458 2446 2457 2434
4 2458 2446 2434 2438
4 4803 4822 4802 4783
4 3961 3966 4014 3984
4 2502 2546 2518 2526
4 2546 2518 2526 2554
4 2518 2502 2526 2480
4 2526 2546 2554 2566
4 5277 5308 5263 5220
4 2478 2463 2445 2437
4 3138 3118 3128 3114
4 5551 5523 5512 5561
4 614 599 604 619
4 4854 4870 4861 4921
4 3721 3697 3700 3689
4 3688 3662 3702 3669
4 5032 4991 5049 5038
4 3936 3910 3934 3880
4 1351 1374 1363 1360
4 1351 1374 1360 1354
4 1374 1363 1360 1384
4 1360 1374 1384 1373
4 1363 1351 1360 1342
4 1020 1021 999 996
4 3896 3875 3920 3939
4 470 459 453 460
4 453 470 460 456
4 3088 3087 3118 3128
4 1868 1893 1883 1873
4 906 898 893 913
4 3035 3068 3023 3033
4 693 695 709 694
4 1244 1251 1257 1248
4 1068 1061 1046 1054
4 1894 1884 1907 1906
4 3979 3968 4019 4022
4 2683 2700 2660 2682
4 2345 2316 2347 2329
4 5298 5276 5271 5295
4 5298 5276 5295 5337
4 5632 5582 5608 5617
4 5632 5582 5617 5595
4 5582 5617 5595 5589
4 5582 5608 5617 5589
4 5608 5632 5617 5670
4 5617 5595 5589 5627
4 5608 5617 5589 5670
4 5632 5617 5670 5642
4 3439 3429 3420 3406
4 2956 2959 2966 2936
4 5574 5597 5565 5621
4 2870 2895 2888 2869
4 2870 2895 2869 2872
4 2888 2870 2869 2850
4 4590 4610 4622 4603
4 4622 4590 4603 4602
4 4622 4590 4602 4601
4 312 325 322 321
4 2160 2138 2147 2157
4 4885 4920 4906 4921
4 3253 3264 3229 3234
4 561 574 573 576
4 5856 5860 5898 5877
4 5856 5860 5877 5830
4 5860 5898 5877 5907
4 5877 5856 5830 5855
4 3222 3205 3214 3246
4 3214 3222 3246 3240
4 3222 3205 3246 3218
4 4538 4524 4565 4546
4 4538 4524 4546 4519
4 4524 4565 4546 4541
4 4565 4538 4546 4587
4 4546 4565 4587 4580
4 2464 2478 2445 2451
4 2464 2478 2451 2471
4 2451 2464 2471 2439
4 2445 2464 2451 2439
4 2471 2451 2439 2455
4 3548 3576 3562 3561
4 5274 5321 5304 5291
4 5555 5574 5519 5533
4 3313 3314 3336 3320
4 1751 1744 1725 1756
4 2005 2033 2023 2032
4 2697 2691 2714 2682
4 2714 2697 2682 2683
4 1194 1214 1204 1202
4 1194 1214 1202 1215
4 1214 1204 1202 1225
4 1204 1194 1202 1187
4 1202 1214 1225 1220
4 1194 1202 1187 1201
4 1202 1187 1201 1193
4 1201 1202 1193 1213
4 1201 1202 1213 1222
4 1201 1202 1222 1220
4 1194 1202 1201 1197
4 1103 1101 1116 1125
4 414 424 409 415
4 424 409 415 417
4 5426 5411 5417 5370
4 5426 5411 5370 5381
4 2283 2258 2262 2292
4 2079 2091 2081 2062
4 2079 2091 2062 2080
4 2081 2079 2062 2052
4 2062 2081 2052 2068
4 1542 1548 1563 1540
4 5042 5041 4992 5027
4 5042 5041 5027 5072
4 5027 5042 5072 5056
4 2609 2644 2643 2617
4 3362 3363 3385 3371
4 3363 3385 3371 3389
4 3385 3362 3371 3372
4 3363 3385 3389 3396
4 3385 3371 3389 3417
4 3362 3371 3372 3344
4 3371 3372 3344 3392
4 3362 3371 3344 3363
4 3372 3362 3344 3360
4 3296 3264 3261 3298
4 3296 3264 3298 3280
4 3296 3264 3280 3274
4 3298 3296 3280 3314
4 3883 3874 3928 3893
4 3854 3908 3880 3899
4 1138 1157 1151 1143
4 3989 3988 3972 4015
4 3988 3972 4015 3964
4 3972 3989 4015 4046
4 2425 2434 2409 2396
4 4500 4495 4523 4482
4 4495 4523 4482 4504
4 4500 4495 4482 4460
4 5507 5551 5512 5526
4 5551 5512 5526 5561
4 5308 5277 5305 5287
4 3163 3131 3152 3138
4 1021 1016 999 1003
4 4651 4623 4659 4622
4 1654 1666 1649 1646
4 6164 6165 6157 6097
4 1473 1453 1449 1464
4 1419 1411 1432 1413
4 1419 1411 1413 1391
4 3222 3230 3233 3246
4 3233 3222 3246 3218
4 3222 3230 3246 3240
4 3642 3621 3644 3658
4 2494 2486 2483 2458
4 2486 2483 2458 2478
4 3716 3743 3730 3750
4 3716 3743 3750 3731
4 3743 3730 3750 3778
4 3750 3743 3778 3772
4 3750 3743 3772 3731
4 3716 3743 3731 3734
4 3743 3731 3734 3772
4 3731 3734 3772 3760
4 3731 3734 3760 3718
4 3731 3716 3734 3701
4 3734 3731 3701 3718
4 3734 3743 3772 3773
4 3772 3734 3773 3760
4 3743 3772 3773 3778
4 3773 3772 3760 3789
4 3773 3772 3789 3810
4 3773 3772 3810 3778
4 4627 4658 4632 4661
4 3906 3933 3878 3937
4 3087 3078 3111 3081
4 2541 2533 2529 2559
4 2541 2533 2559 2564
4 2533 2529 2559 2565
4 2529 2541 2559 2521
4 2533 2559 2564 2565
4 2335 2318 2334 2292
4 2329 2345 2355 2347
4 543 560 554 556
4 543 560 556 545
4 4694 4724 4748 4687
4 2273 2256 2253 2280
4 1704 1734 1716 1721
4 3419 3442 3456 3417
4 3796 3776 3782 3774
4 3796 3776 3774 3781
4 3782 3796 3774 3798
4 3774 3796 3781 3798
4 3776 3782 3774 3742
4 3782 3774 3742 3749
4 1256 1242 1264 1261
4 1741 1736 1759 1748
4 713 708 709 692
4 547 563 553 533
4 3515 3492 3517 3506
4 3515 3492 3506 3501
4 3492 3517 3506 3489
4 3506 3515 3501 3533
4 3501 3506 3533 3522
4 3506 3492 3489 3472
4 3515 3501 3533 3514
4 3489 3506 3472 3520
4 3492 3517 3489 3496
4 3506 3515 3533 3517
4 1625 1615 1637 1630
4 1825 1837 1846 1852
4 356 357 353 368
4 2995 2981 3008 2993
4 355 347 341 350
4 4696 4674 4691 4710
4 1744 1751 1774 1756
4 2364 2373 2403 2371
4 4206 4192 4227 4248
4 1526 1548 1542 1540
4 1027 1034 1026 1044
4 4819 4865 4864 4830
4 5551 5528 5523 5576
4 6136 6132 6094 6128
4 2046 2020 2022 2025
4 1657 1648 1670 1658
4 2022 2016 2048 2025
4 3779 3755 3797 3795
4 3797 3779 3795 3790
4 2967 2971 2938 2953
4 5774 5798 5782 5780
4 255 247 253 248
4 4665 4621 4647 4660
4 5523 5507 5512 5467
4 2284 2273 2253 2280
4 1522 1546 1524 1531
4 912 911 892 907
4 4899 4915 4868 4918
4 1671 1657 1683 1664
4 2674 2678 2645 2677
4 4696 4715 4726 4759
4 3409 3438 3437 3427
4 3409 3438 3427 3417
4 3437 3409 3427 3410
4 312 319 325 321
4 1274 1264 1284 1279
4 1489 1487 1463 1488
4 2910 2885 2906 2899
4 2910 2885 2899 2895
4 2885 2906 2899 2886
4 2885 2899 2895 2869
4 2885 2899 2869 2886
4 2899 2895 2869 2888
4 2899 2910 2895 2917
4 2895 2899 2917 2888
4 6162 6105 6106 6156
4 2565 2545 2588 2562
4 2545 2588 2562 2579
4 2588 2565 2562 2594
4 2413 2426 2438 2434
4 5786 5793 5791 5858
4 1439 1432 1455 1443
4 1439 1432 1443 1413
4 1432 1455 1443 1452
4 1573 1549 1564 1576
4 3894 3875 3843 3939
4 5744 5774 5780 5711
4 3604 3589 3606 3611
4 2414 2439 2427 2432
4 2150 2136 2117 2126
4 2136 2117 2126 2105
4 2150 2136 2126 2134
4 6142 6136 6096 6139
4 2158 2139 2128 2143
4 2128 2158 2143 2149
4 4885 4867 4831 4821
4 4184 4159 4202 4187
4 4159 4202 4187 4188
4 1389 1369 1372 1388
4 1389 1369 1388 1373
4 1394 1405 1385 1413
4 3946 3912 3955 3948
4 3955 3946 3948 4001
4 5411 5451 5417 5427
4 5451 5417 5427 5467
4 3127 3158 3156 3160
4 4471 4473 4496 4494
4 873 877 894 892
4 486 477 470 476
4 470 486 476 474
4 4949 4937 4984 4969
4 2598 2591 2634 2593
4 1840 1868 1855 1873
4 1377 1397 1379 1392
4 1891 1892 1865 1885
4 1891 1892 1885 1893
4 1892 1885 1893 1868
4 1885 1893 1868 1873
4 1892 1865 1885 1868
4 1868 1885 1873 1860
4 1865 1885 1868 1860
4 1093 1099 1103 1114
4 1102 1099 1118 1113
4 1102 1099 1113 1103
4 1099 1118 1113 1112
4 1118 1113 1112 1133
4 1118 1102 1113 1125
4 1113 1118 1125 1133
4 1113 1099 1112 1114
4 5177 5187 5227 5201
4 5704 5719 5671 5713
4 3541 3542 3572 3533
4 1925 1914 1900 1891
4 3915 3961 3909 3931
4 361 376 371 368
4 3422 3407 3382 3408
4 5716 5694 5759 5717
4 1021 1031 1022 1032
4 3063 3034 3064 3047
4 3063 3034 3047 3024
4 3034 3064 3047 3059
4 3034 3047 3024 3015
4 3047 3024 3015 3069
4 3064 3063 3047 3077
4 3063 3047 3077 3044
4 3064 3047 3059 3079
4 3024 3034 3015 3011
4 3047 3059 3079 3051
4 4052 4039 4070 4003
4 3639 3617 3628 3649
4 2386 2353 2383 2395
4 2383 2386 2395 2413
4 2386 2395 2413 2400
4 1625 1604 1615 1612
4 1615 1625 1612 1630
4 1792 1769 1784 1782
4 4748 4784 4775 4741
4 2665 2662 2690 2684
4 6160 6104 6105 6152
4 2468 2458 2494 2483
4 2468 2458 2483 2438
4 2494 2468 2483 2496
4 3110 3103 3133 3116
4 3110 3103 3116 3089
4 3110 3103 3089 3072
4 3103 3133 3116 3120
4 3103 3116 3089 3085
4 3116 3110 3089 3128
4 3103 3089 3072 3085
4 4314 4278 4280 4333
4 1250 1261 1243 1242
4 4240 4207 4248 4253
4 5812 5810 5754 5764
4 3314 3290 3315 3300
4 4553 4555 4595 4593
4 1232 1250 1243 1242
4 1449 1439 1455 1464
4 448 460 443 427
4 5779 5793 5786 5825
4 2147 2135 2153 2113
4 2164 2163 2142 2161
4 4544 4520 4553 4535
4 4544 4520 4535 4522
4 1588 1595 1608 1576
4 4772 4812 4777 4782
4 4777 4772 4782 4739
4 4772 4812 4782 4788
4 1028 1046 1026 1034
4 3409 3385 3411 3417
4 3920 3941 3895 3923
4 1432 1411 1425 1413
4 3080 3088 3052 3044
4 2839 2836 2867 2846
4 2867 2839 2846 2872
4 6154 6101 6102 6147
4 2080 2079 2060 2062
4 2079 2060 2062 2052
4 811 827 817 814
4 2938 2905 2903 2926
4 1195 1178 1183 1186
4 1178 1183 1186 1165
4 1183 1186 1165 1175
4 1183 1195 1186 1199
4 1186 1183 1199 1175
4 3965 3984 3926 3931
4 3984 3926 3931 3915
4 3926 3931 3915 3851
4 3968 3970 4022 4013
4 5363 5349 5304 5364
4 2570 2538 2559 2530
4 154 160 167 177
4 6150 6145 6100 6139
4 396 405 414 409
4 4727 4745 4773 4737
4 4727 4745 4737 4714
4 2012 1998 1987 2016
4 5668 5646 5697 5671
4 3640 3670 3669 3680
4 1433 1447 1426 1439
4 4361 4360 4352 4378
4 4360 4352 4378 4340
4 4352 4378 4340 4372
4 4352 4378 4372 4412
4 4378 4340 4372 4373
4 4340 4352 4372 4318
4 4378 4372 4412 4401
4 5428 5378 5403 5450
4 3108 3109 3127 3111
4 4621 4608 4583 4617
4 237 231 243 238
4 231 243 238 245
4 237 231 238 228
4 2082 2072 2071 2099
4 5391 5422 5429 5399
4 5391 5422 5399 5385
4 3766 3777 3757 3725
4 4272 4307 4290 4312
4 3990 3994 4027 4026
4 4027 3990 4026 4017
4 3990 3994 4026 3983
4 4027 3990 4017 3973
4 3990 4026 4017 3983
4 2328 2337 2327 2304
4 946 944 929 948
4 5698 5683 5743 5731
4 1220 1200 1201 1209
4 1200 1201 1209 1197
4 1220 1200 1209 1215
4 1209 1200 1197 1215
4 1197 1209 1215 1202
4 1209 1220 1215 1202
4 1201 1220 1209 1202
4 1209 1201 1202 1197
4 1792 1784 1806 1795
4 1792 1784 1795 1782
4 1784 1806 1795 1799
4 1806 1792 1795 1804
4 3542 3517 3544 3561
4 4628 4627 4632 4661
4 2156 2165 2194 2188
4 1466 1474 1470 1458
4 3320 3343 3321 3344
4 3320 3343 3344 3336
4 3321 3320 3344 3314
4 3343 3344 3336 3360
4 3336 3343 3360 3322
4 4167 4163 4200 4156
4 870 872 868 892
4 3299 3298 3291 3322
4 2346 2335 2336 2295
4 4864 4873 4824 4825
4 4824 4864 4825 4830
4 2943 2948 2979 2965
4 2946 2916 2926 2938
4 2519 2505 2490 2529
4 2653 2644 2617 2643
4 3766 3757 3724 3725
4 3757 3724 3725 3720
4 1075 1094 1078 1092
4 1250 1270 1261 1274
4 1259 1269 1275 1266
4 2583 2539 2544 2567
4 5446 5466 5418 5397
4 5765 5723 5693 5754
4 1600 1596 1621 1593
4 1600 1596 1593 1573
4 5349 5333 5295 5304
4 2063 2040 2050 2046
4 5671 5628 5656 5659
4 5671 5628 5659 5626
4 3131 3099 3114 3119
4 2533 2540 2505 2550
4 4222 4184 4202 4226
4 4677 4648 4657 4703
4 2354 2387 2373 2366
4 3576 3563 3562 3578
4 4029 3989 4031 4046
4 293 287 301 295
4 287 301 295 296
4 5087 5101 5143 5132
4 5087 5101 5132 5105
4 5101 5143 5132 5125
4 5132 5101 5125 5105
4 5125 5132 5105 5154
4 4720 4760 4754 4722
4 4720 4760 4722 4731
4 4760 4754 4722 4771
4 3003 2996 3029 3014
4 3003 2996 3014 2971
4 2209 2215 2238 2233
4 1031 1035 1040 1032
4 1602 1608 1618 1623
4 2489 2491 2497 2520
4 2491 2497 2520 2545
4 2489 2491 2520 2506
4 5276 5271 5245 5274
4 1503 1487 1506 1507
4 4347 4320 4366 4321
4 1979 1989 1984 2006
4 1979 1989 2006 1995
4 4304 4265 4272 4296
4 1997 2004 2025 2011
4 2439 2424 2427 2451
4 2427 2439 2451 2442
4 2424 2427 2451 2437
4 2439 2451 2442 2455
4 2451 2427 2442 2440
4 3786 3759 3785 3775
4 3786 3759 3775 3795
4 3785 3786 3775 3795
4 2234 2242 2256 2254
4 5494 5458 5496 5481
4 673 688 680 689
4 1995 2005 2006 2023
4 1995 2005 2023 2022
4 3919 3965 3926 3931
4 3926 3919 3931 3886
4 3931 3926 3886 3851
4 3926 3919 3886 3890
4 3886 3926 3890 3851
4 3919 3931 3886 3883
4 3931 3886 3883 3851
4 1893 1918 1905 1896
4 1204 1219 1198 1207
4 1219 1198 1207 1203
4 1198 1204 1207 1193
4 195 186 187 193
4 5411 5381 5357 5370
4 5357 5411 5370 5417
4 682 691 678 690
4 1059 1068 1046 1054
4 4951 4998 4970 4943
4 3623 3612 3588 3605
4 3906 3864 3914 3887
4 5233 5272 5254 5266
4 3061 3063 3083 3068
4 3083 3061 3068 3081
4 931 922 940 927
4 3872 3873 3855 3887
4 3873 3855 3887 3831
4 3087 3080 3068 3044
4 4167 4140 4156 4138
4 4604 4589 4606 4631
4 2795 2792 2811 2775
4 6100 6145 6098 6139
4 465 481 476 477
4 2004 1993 2014 1995
4 1741 1733 1736 1748
4 4330 4307 4354 4348
4 5435 5478 5465 5447
4 5435 5478 5447 5471
4 5478 5447 5471 5520
4 5478 5465 5447 5501
4 1402 1391 1381 1384
4 3338 3314 3315 3300
4 2090 2066 2091 2063
4 1550 1562 1558 1581
4 1562 1558 1581 1570
4 343 346 332 336
4 332 343 336 335
4 343 346 336 351
4 343 346 351 358
4 336 343 351 341
4 351 343 358 350
4 4783 4760 4775 4790
4 4783 4760 4790 4793
4 3966 3979 4014 3984
4 3966 3979 3984 3915
4 1935 1947 1948 1944
4 611 616 638 636
4 616 638 636 615
4 611 616 636 613
4 4041 4024 4068 4086
4 4068 4041 4086 4102
4 4086 4068 4102 4120
4 4024 4068 4086 4049
4 4068 4086 4049 4120
4 4068 4041 4102 4089
4 3989 4031 4046 4002
4 1941 1971 1959 1958
4 1941 1971 1958 1957
4 2144 2115 2129 2146
4 2144 2115 2146 2132
4 2146 2144 2132 2159
4 2146 2144 2159 2173
4 2146 2144 2173 2155
4 2129 2144 2146 2155
4 2159 2146 2173 2174
4 2146 2173 2174 2155
4 2173 2159 2174 2193
4 2174 2173 2193 2201
4 2174 2173 2201 2181
4 2174 2173 2181 2155
4 5039 5055 5078 5083
4 5868 5818 5834 5873
4 3420 3390 3406 3378
4 3390 3406 3378 3373
4 3390 3406 3373 3417
4 3127 3108 3111 3130
4 3406 3378 3373 3348
4 5816 5814 5756 5787
4 5816 5814 5787 5844
4 5787 5816 5844 5819
4 5756 5816 5787 5736
4 4804 4784 4763 4816
4 4784 4763 4816 4791
4 4784 4763 4791 4741
4 2004 1997 1971 1986
4 2568 2612 2626 2613
4 2612 2626 2613 2624
4 2613 2612 2624 2568
4 3614 3595 3579 3596
4 3579 3614 3596 3602
4 3614 3595 3596 3627
4 3595 3579 3596 3564
4 1505 1504 1477 1499
4 3390 3419 3417 3392
4 3390 3419 3392 3405
4 3419 3417 3392 3409
4 3973 4003 3999 4070
4 1160 1153 1164 1150
4 4633 4631 4591 4589
4 4631 4591 4589 4593
4 3990 3994 3983 3934
4 2400 2413 2431 2415
4 2400 2413 2415 2395
4 2413 2431 2415 2438
4 2431 2400 2415 2418
4 2413 2415 2395 2434
4 4909 4885 4861 4921
4 3388 3421 3401 3399
4 3401 3388 3399 3370
4 3399 3401 3370 3386
4 3399 3401 3386 3414
4 3421 3401 3399 3436
4 3401 3399 3436 3414
4 3386 3399 3414 3415
4 3414 3386 3415 3395
4 3399 3414 3415 3435
4 3414 3415 3435 3449
4 3414 3415 3449 3444
4 3414 3415 3444 3395
4 3415 3449 3444 3435
4 3449 3414 3444 3459
4 3370 3399 3386 3368
4 3370 3399 3368 3388
4 3386 3370 3368 3350
4 3368 3370 3388 3358
4 3368 3370 3358 3341
4 3368 3370 3341 3350
4 3399 3386 3368 3379
4 3386 3399 3415 3379
4 3415 3386 3379 3395
4 3435 3414 3449 3436
4 3449 3435 3436 3466
4 3435 3436 3466 3452
4 3435 3436 3452 3421
4 3435 3414 3436 3399
4 3436 3435 3399 3421
4 3449 3435 3466 3444
4 3436 3449 3466 3468
4 3466 3436 3468 3452
4 3449 3466 3468 3482
4 3468 3466 3452 3488
4 3468 3466 3488 3500
4 3468 3466 3500 3482
4 3449 3466 3482 3483
4 3482 3449 3483 3459
4 3466 3482 3483 3499
4 3482 3483 3499 3518
4 3482 3483 3518 3509
4 3482 3483 3509 3459
4 3483 3518 3509 3499
4 3518 3482 3509 3526
4 3466 3449 3444 3483
4 3449 3444 3483 3459
4 3499 3482 3518 3500
4 3518 3499 3500 3534
4 3499 3500 3534 3521
4 3499 3500 3521 3488
4 3499 3482 3500 3466
4 3500 3499 3466 3488
4 3518 3499 3534 3509
4 3500 3518 3534 3537
4 3534 3500 3537 3521
4 3518 3534 3537 3549
4 3537 3534 3521 3554
4 3537 3534 3554 3573
4 3537 3534 3573 3549
4 3518 3534 3549 3550
4 3549 3518 3550 3526
4 3534 3549 3550 3571
4 3549 3550 3571 3585
4 3549 3550 3585 3577
4 3549 3550 3577 3526
4 3550 3585 3577 3571
4 3585 3549 3577 3594
4 3534 3518 3509 3550
4 3518 3509 3550 3526
4 3571 3549 3585 3573
4 3585 3571 3573 3598
4 3571 3573 3598 3586
4 3571 3573 3586 3554
4 3571 3549 3573 3534
4 3573 3571 3534 3554
4 3585 3571 3598 3577
4 3573 3585 3598 3601
4 3598 3573 3601 3586
4 3585 3598 3601 3615
4 3601 3598 3586 3622
4 3601 3598 3622 3636
4 3601 3598 3636 3615
4 3585 3598 3615 3577
4 3615 3585 3577 3594
4 3368 3386 3350 3379
4 3386 3350 3379 3395
4 4185 4145 4168 4178
4 4185 4145 4178 4158
4 1340 1341 1329 1362
4 2442 2439 2455 2432
4 2455 2442 2432 2459
4 2442 2439 2432 2427
4 2246 2228 2219 2241
4 4419 4390 4378 4399
4 3649 3667 3678 3628
4 3572 3541 3533 3565
4 3147 3120 3140 3150
4 3824 3845 3805 3784
4 3141 3138 3128 3186
4 5078 5055 5110 5083
4 5110 5078 5083 5095
4 5083 5110 5095 5148
4 5083 5110 5148 5137
4 5110 5078 5095 5160
4 5110 5095 5148 5160
4 4890 4877 4868 4825
4 4824 4787 4819 4830
4 4819 4824 4830 4864
4 4899 4915 4918 4958
4 4915 4918 4958 4868
4 1488 1486 1507 1487
4 4168 4134 4171 4178
4 3949 3947 3892 3914
4 3949 3947 3914 3963
4 4522 4509 4544 4520
4 2364 2369 2396 2379
4 4025 4051 4044 4063
4 4060 4084 4018 4050
4 4060 4084 4050 4108
4 4018 4060 4050 3999
4 4926 4932 4894 4876
4 4894 4926 4876 4900
4 4033 4055 4059 4035
4 3047 3063 3024 3044
4 3024 3047 3044 3069
4 3295 3311 3276 3307
4 3311 3276 3307 3289
4 3295 3311 3307 3325
4 3311 3307 3325 3341
4 3311 3307 3341 3323
4 3311 3307 3323 3289
4 3307 3341 3323 3337
4 3307 3341 3337 3325
4 3341 3323 3337 3350
4 3341 3337 3325 3358
4 3341 3337 3358 3368
4 3341 3337 3368 3350
4 3323 3307 3337 3317
4 3323 3337 3350 3351
4 3350 3323 3351 3332
4 3337 3350 3351 3368
4 3350 3351 3368 3379
4 3350 3351 3379 3332
4 3307 3323 3289 3317
4 3323 3289 3317 3332
4 3337 3323 3317 3351
4 3323 3317 3351 3332
4 794 780 776 791
4 1916 1904 1903 1891
4 4318 4312 4346 4340
4 5820 5818 5873 5836
4 5820 5818 5836 5768
4 5873 5820 5836 5875
4 5820 5818 5768 5742
4 5768 5820 5742 5763
4 4631 4642 4674 4661
4 3936 3934 3954 3880
4 2184 2170 2172 2185
4 2170 2172 2185 2153
4 2172 2184 2185 2208
4 2172 2185 2153 2160
4 2185 2172 2208 2200
4 1795 1806 1804 1822
4 1804 1795 1822 1805
4 1795 1806 1822 1818
4 1804 1795 1805 1783
4 1822 1804 1805 1834
4 3028 3067 3042 3041
4 3042 3028 3041 3012
4 3041 3042 3012 3021
4 3067 3042 3041 3076
4 3042 3041 3076 3057
4 3042 3041 3057 3021
4 3028 3041 3012 3010
4 3041 3012 3010 3021
4 3012 3028 3010 2997
4 3010 3012 2997 2977
4 3010 3012 2977 2985
4 3010 3012 2985 3021
4 2997 3010 2977 2976
4 3010 2977 2976 2985
4 2977 2976 2985 2957
4 2977 2997 2976 2963
4 2976 2977 2963 2940
4 2976 2977 2940 2957
4 2976 3010 2985 2986
4 2976 2985 2957 2986
4 2985 2957 2986 2969
4 3010 2985 2986 3021
4 2985 2986 3021 2969
4 3314 3338 3344 3300
4 4426 4403 4429 4389
4 4403 4429 4389 4421
4 4777 4772 4739 4730
4 5261 5214 5198 5209
4 5214 5198 5209 5163
4 2512 2557 2516 2513
4 2516 2512 2513 2465
4 4754 4760 4793 4771
4 3666 3679 3650 3664
4 3650 3666 3664 3631
4 3666 3664 3631 3651
4 3666 3664 3651 3686
4 3666 3664 3686 3703
4 3666 3664 3703 3679
4 3664 3650 3631 3641
4 3679 3650 3664 3681
4 3679 3650 3681 3660
4 3664 3679 3681 3701
4 3679 3681 3701 3716
4 3679 3681 3716 3730
4 3650 3666 3631 3636
4 3666 3631 3636 3651
4 3631 3650 3636 3615
4 3631 3636 3651 3622
4 3636 3631 3615 3598
4 3636 3631 3598 3622
4 3664 3650 3641 3681
4 3650 3641 3681 3660
4 3664 3679 3701 3703
4 3701 3664 3703 3686
4 3679 3701 3703 3716
4 3703 3701 3686 3718
4 3703 3701 3718 3734
4 3703 3701 3734 3716
4 3631 3615 3598 3616
4 3631 3615 3616 3650
4 3615 3616 3650 3641
4 3615 3616 3641 3594
4 3616 3650 3641 3631
4 3650 3615 3641 3660
4 3615 3598 3616 3577
4 3616 3615 3577 3594
4 363 377 372 370
4 1125 1138 1130 1140
4 1680 1675 1690 1692
4 2375 2344 2356 2360
4 2344 2356 2360 2324
4 2356 2360 2324 2343
4 2356 2360 2343 2363
4 2356 2375 2360 2390
4 2360 2356 2390 2363
4 2344 2356 2324 2323
4 2356 2324 2323 2343
4 2324 2344 2323 2312
4 2323 2324 2312 2296
4 2323 2324 2296 2305
4 2324 2323 2343 2305
4 2343 2356 2363 2338
4 2363 2343 2338 2350
4 2323 2356 2343 2338
4 2343 2323 2338 2305
4 2338 2343 2305 2350
4 2375 2360 2390 2391
4 2360 2390 2391 2363
4 2390 2375 2391 2407
4 2391 2390 2407 2417
4 2391 2390 2417 2406
4 2391 2390 2406 2363
4 2407 2391 2417 2419
4 2391 2417 2419 2406
4 2417 2407 2419 2435
4 2417 2419 2406 2430
4 2419 2417 2435 2441
4 2419 2417 2441 2430
4 2390 2417 2406 2398
4 2406 2417 2430 2428
4 2430 2406 2428 2411
4 2417 2406 2398 2428
4 2406 2398 2428 2411
4 2417 2430 2428 2441
4 2430 2428 2441 2452
4 2430 2428 2452 2411
4 2312 2323 2296 2293
4 2323 2296 2293 2305
4 2296 2312 2293 2279
4 2293 2296 2279 2268
4 2293 2296 2268 2277
4 2293 2296 2277 2305
4 2279 2293 2268 2267
4 2293 2268 2267 2277
4 2268 2279 2267 2250
4 2267 2268 2250 2231
4 2267 2268 2231 2244
4 2268 2267 2277 2244
4 2277 2293 2305 2272
4 2305 2277 2272 2288
4 2267 2293 2277 2272
4 2250 2267 2231 2229
4 2267 2231 2229 2244
4 2231 2250 2229 2222
4 2229 2231 2222 2202
4 2229 2231 2202 2221
4 2229 2231 2221 2244
4 2277 2267 2272 2244
4 2272 2277 2244 2288
4 2222 2229 2202 2201
4 2229 2202 2201 2221
4 2202 2222 2201 2193
4 2201 2202 2193 2174
4 2201 2202 2174 2181
4 2202 2201 2221 2181
4 2201 2229 2221 2214
4 2229 2221 2214 2248
4 2221 2214 2248 2224
4 2221 2201 2214 2181
4 2214 2221 2181 2224
4 2435 2419 2441 2444
4 2419 2441 2444 2430
4 2441 2435 2444 2460
4 2444 2441 2460 2473
4 2444 2441 2473 2452
4 2441 2444 2430 2452
4 2460 2444 2473 2476
4 2444 2473 2476 2472
4 2473 2476 2472 2501
4 2473 2476 2501 2492
4 2473 2460 2476 2492
4 2406 2390 2398 2363
4 2398 2406 2363 2411
4 2221 2229 2244 2248
4 2244 2221 2248 2224
4 2229 2244 2248 2267
4 2244 2248 2267 2272
4 2244 2248 2272 2224
4 5047 4995 5021 4998
4 2700 2683 2714 2682
4 2112 2109 2081 2097
4 5675 5698 5669 5721
4 5675 5698 5721 5731
4 5698 5721 5731 5743
4 5721 5731 5743 5805
4 5721 5675 5731 5709
4 5698 5721 5743 5734
4 5698 5721 5734 5669
4 5721 5743 5734 5805
4 274 266 267 271
4 2347 2321 2318 2292
4 1317 1319 1308 1312
4 1317 1319 1312 1338
4 1308 1317 1312 1297
4 1317 1312 1297 1309
4 1319 1308 1312 1301
4 1319 1308 1301 1318
4 1312 1317 1338 1328
4 1312 1308 1297 1301
4 1312 1319 1301 1302
4 2811 2795 2775 2803
4 4152 4136 4169 4192
4 1425 1413 1416 1443
4 770 765 782 760
4 2910 2895 2917 2918
4 5270 5311 5319 5285
4 709 708 693 692
4 3101 3131 3114 3138
4 3131 3114 3138 3163
4 5651 5629 5600 5623
4 5600 5651 5623 5603
4 5651 5629 5623 5680
4 5629 5600 5623 5576
4 334 347 338 339
4 1489 1509 1510 1491
4 1509 1510 1491 1513
4 1509 1510 1513 1538
4 3882 3916 3925 3929
4 3882 3916 3929 3879
4 3916 3925 3929 3977
4 3929 3916 3977 3981
4 3929 3916 3981 3930
4 3929 3916 3930 3879
4 4992 4999 5027 4969
4 2724 2687 2708 2704
4 2724 2687 2704 2691
4 2687 2708 2704 2678
4 2704 2687 2678 2691
4 2708 2724 2704 2737
4 3522 3503 3539 3523
4 5674 5643 5624 5609
4 5749 5737 5702 5723
4 2945 2953 2970 2952
4 2970 2945 2952 2960
4 2970 2945 2960 2961
4 2945 2953 2952 2922
4 2953 2970 2952 2989
4 2945 2952 2960 2919
4 2952 2970 2960 2992
4 1531 1553 1546 1550
4 1984 1979 2006 1994
4 3921 3876 3862 3889
4 3876 3862 3889 3877
4 1073 1064 1054 1068
4 1571 1572 1548 1576
4 1571 1572 1576 1595
4 4555 4591 4595 4593
4 4591 4595 4593 4628
4 4595 4593 4628 4632
4 4375 4338 4353 4357
4 261 253 255 259
4 5199 5246 5270 5223
4 5246 5270 5223 5285
4 2011 2025 2042 2027
4 2042 2011 2027 2029
4 2011 2025 2027 2016
4 2042 2011 2029 2024
4 2011 2029 2024 2002
4 2029 2024 2002 2018
4 2029 2042 2024 2058
4 2024 2029 2058 2018
4 2027 2042 2029 2048
4 2025 2042 2027 2052
4 2011 2027 2029 2016
4 2260 2252 2274 2295
4 2252 2274 2295 2292
4 1141 1121 1128 1129
4 1121 1128 1129 1111
4 1128 1129 1111 1131
4 1128 1129 1131 1148
4 1128 1129 1148 1141
4 3768 3784 3805 3744
4 4667 4690 4636 4664
4 4636 4667 4664 4646
4 4320 4306 4345 4323
4 4306 4345 4323 4337
4 4345 4320 4323 4366
4 4306 4345 4337 4326
4 4345 4323 4337 4388
4 1016 1009 1003 1018
4 2138 2147 2157 2127
4 2138 2147 2127 2112
4 2147 2157 2127 2131
4 2991 2972 2955 2974
4 2991 2972 2974 2983
4 2972 2974 2983 2954
4 2983 2972 2954 2982
4 2974 2983 2954 2998
4 2972 2974 2954 2955
4 2983 2972 2982 3005
4 2983 2972 3005 2991
4 2955 2991 2974 2975
4 1276 1264 1255 1263
4 1255 1276 1263 1268
4 1264 1255 1263 1242
4 4266 4253 4230 4239
4 2917 2943 2936 2933
4 2359 2365 2385 2367
4 2385 2359 2367 2378
4 2385 2359 2378 2376
4 5108 5097 5049 5038
4 261 256 265 255
4 806 798 800 811
4 5602 5622 5630 5577
4 3825 3802 3783 3803
4 3802 3783 3803 3785
4 3803 3802 3785 3864
4 3783 3825 3803 3804
4 1850 1831 1841 1833
4 3659 3671 3675 3643
4 6135 6129 6130 6085
4 3441 3462 3486 3442
4 3441 3462 3442 3437
4 3462 3486 3442 3456
4 3442 3462 3456 3417
4 5464 5484 5509 5498
4 5509 5464 5498 5475
4 3890 3881 3835 3828
4 3881 3835 3828 3865
4 1075 1061 1073 1058
4 1075 1061 1058 1070
4 3006 2995 3008 3023
4 2690 2697 2725 2684
4 1254 1261 1263 1243
4 4128 4089 4111 4102
4 4111 4128 4102 4143
4 4102 4111 4143 4120
4 4089 4111 4102 4068
4 4111 4102 4068 4120
4 4111 4143 4120 4101
4 4207 4240 4242 4253
4 341 355 350 351
4 2169 2198 2183 2182
4 2169 2198 2182 2200
4 2198 2182 2200 2218
4 2198 2183 2182 2218
4 2183 2169 2182 2157
4 2182 2169 2200 2160
4 2182 2169 2160 2157
4 2200 2182 2160 2172
4 3972 3988 3940 3964
4 5474 5471 5425 5426
4 5471 5425 5426 5447
4 5471 5425 5447 5435
4 5425 5447 5435 5409
4 2622 2636 2646 2668
4 2213 2242 2212 2227
4 3881 3865 3886 3835
4 5440 5472 5424 5416
4 2346 2353 2336 2362
4 3565 3568 3523 3533
4 3565 3568 3533 3572
4 3523 3565 3533 3541
4 3533 3523 3541 3514
4 3699 3671 3648 3707
4 3313 3298 3314 3320
4 3313 3298 3320 3322
4 1025 1027 1044 1047
4 1933 1942 1944 1976
4 5032 5051 5000 5035
4 5051 5000 5035 5025
4 353 339 348 347
4 847 850 832 857
4 2323 2293 2311 2305
4 2311 2323 2305 2338
4 2305 2311 2338 2315
4 2293 2311 2305 2272
4 2311 2305 2272 2315
4 3891 3841 3888 3899
4 3888 3891 3899 3948
4 3899 3888 3948 3983
4 3691 3709 3724 3704
4 3724 3691 3704 3726
4 1113 1103 1125 1102
4 1576 1588 1574 1602
4 2829 2843 2863 2825
4 771 758 770 760
4 2241 2242 2227 2252
4 3176 3214 3189 3225
4 1414 1394 1399 1419
4 5348 5363 5298 5321
4 5327 5347 5306 5272
4 3420 3439 3406 3417
4 422 405 415 414
4 1959 1986 1970 1974
4 1959 1986 1974 1971
4 1986 1970 1974 2002
4 1970 1959 1974 1949
4 5551 5523 5561 5576
4 2651 2631 2643 2660
4 1648 1670 1658 1663
4 5240 5267 5211 5224
4 1231 1240 1236 1229
4 3855 3887 3831 3864
4 3855 3887 3864 3878
4 3864 3855 3878 3819
4 3855 3887 3878 3923
4 2804 2821 2789 2818
4 2821 2789 2818 2800
4 2804 2821 2818 2838
4 2821 2818 2838 2851
4 2821 2818 2851 2831
4 2821 2818 2831 2800
4 2789 2804 2818 2787
4 2818 2789 2787 2800
4 2789 2804 2787 2774
4 2787 2789 2774 2757
4 2787 2789 2757 2773
4 2787 2789 2773 2800
4 2774 2787 2757 2754
4 2787 2757 2754 2773
4 2757 2774 2754 2744
4 2754 2757 2744 2728
4 2754 2757 2728 2743
4 2757 2754 2773 2743
4 2773 2787 2800 2796
4 2800 2773 2796 2788
4 2754 2787 2773 2771
4 2787 2773 2771 2796
4 2773 2771 2796 2788
4 2773 2754 2771 2743
4 2771 2773 2743 2788
4 2744 2754 2728 2727
4 2754 2728 2727 2743
4 2728 2744 2727 2713
4 2727 2728 2713 2695
4 2727 2728 2695 2707
4 2727 2728 2707 2743
4 2787 2800 2796 2818
4 2800 2796 2818 2832
4 2800 2796 2832 2788
4 1161 1143 1154 1157
4 1527 1540 1514 1512
4 5735 5713 5732 5786
4 5862 5859 5899 5880
4 5862 5859 5880 5829
4 5859 5880 5829 5867
4 5859 5899 5880 5902
4 5899 5862 5880 5911
4 2840 2824 2811 2861
4 3437 3408 3441 3443
4 1797 1805 1816 1807
4 1816 1797 1807 1815
4 1816 1797 1815 1811
4 1805 1816 1807 1834
4 1797 1807 1815 1799
4 1807 1816 1815 1839
4 370 388 377 382
4 3095 3123 3107 3106
4 3107 3095 3106 3076
4 3106 3107 3076 3093
4 3123 3107 3106 3139
4 3107 3106 3139 3121
4 3107 3106 3121 3093
4 2445 2424 2439 2451
4 2445 2424 2451 2437
4 3955 3912 3937 3887
4 3912 3937 3887 3923
4 3176 3189 3151 3166
4 3176 3189 3166 3225
4 3151 3176 3166 3128
4 3176 3166 3128 3186
4 3176 3166 3186 3225
4 5716 5684 5642 5717
4 2273 2300 2281 2280
4 2337 2352 2369 2355
4 2937 2924 2912 2925
4 2912 2937 2925 2934
4 2912 2937 2934 2929
4 3732 3727 3692 3713
4 2968 3000 2987 3022
4 322 308 315 317
4 5278 5327 5306 5272
4 1455 1481 1479 1490
4 1481 1479 1490 1502
4 1490 1481 1502 1495
4 1455 1481 1490 1459
4 1455 1481 1459 1483
4 1481 1459 1483 1470
4 1459 1483 1470 1452
4 1470 1459 1452 1443
4 1459 1452 1443 1455
4 1459 1483 1452 1455
4 1452 1470 1443 1440
4 1443 1459 1455 1464
4 1470 1459 1443 1447
4 1483 1470 1452 1485
4 1483 1470 1485 1495
4 1459 1443 1447 1464
4 3700 3721 3689 3728
4 2564 2533 2565 2562
4 2565 2564 2562 2594
4 5582 5615 5548 5595
4 4044 4037 4005 4025
4 2509 2501 2553 2524
4 2509 2501 2524 2484
4 2524 2509 2484 2512
4 2524 2509 2512 2560
4 2553 2509 2524 2560
4 2509 2501 2484 2472
4 2484 2509 2472 2512
4 335 322 329 332
4 420 408 402 419
4 3533 3539 3522 3559
4 2815 2844 2840 2861
4 839 830 833 846
4 3349 3333 3319 3334
4 3319 3349 3334 3342
4 958 940 961 953
4 3410 3392 3374 3372
4 3410 3392 3372 3384
4 3392 3374 3372 3361
4 3372 3392 3361 3344
4 3361 3372 3344 3343
4 3361 3372 3343 3374
4 3344 3361 3343 3321
4 3372 3344 3343 3360
4 3343 3372 3360 3374
4 3392 3372 3384 3393
4 3392 3372 3393 3371
4 3372 3393 3371 3385
4 3372 3384 3393 3385
4 3393 3371 3385 3417
4 3393 3392 3371 3417
4 3393 3392 3417 3409
4 5119 5085 5063 5109
4 4618 4584 4595 4632
4 4286 4295 4253 4278
4 4253 4286 4278 4280
4 2524 2484 2513 2512
4 2513 2524 2512 2561
4 5574 5597 5621 5630
4 2939 2908 2924 2923
4 2939 2908 2923 2935
4 2908 2924 2923 2893
4 2924 2939 2923 2955
4 1071 1065 1055 1056
4 1055 1071 1056 1082
4 1065 1055 1056 1052
4 1055 1056 1052 1038
4 1055 1056 1038 1063
4 1055 1056 1063 1082
4 4969 4990 4988 5042
4 1021 1020 1032 1011
4 1021 1020 1011 996
4 989 996 971 988
4 989 996 988 997
4 3060 3043 3019 3020
4 3905 3847 3849 3868
4 3847 3849 3868 3811
4 3191 3160 3156 3179
4 3156 3191 3179 3171
4 2533 2564 2550 2562
4 325 339 334 327
4 4772 4730 4752 4739
4 400 388 382 389
4 382 400 389 398
4 388 382 389 377
4 3639 3617 3649 3634
4 1421 1438 1428 1422
4 2290 2292 2262 2276
4 5629 5622 5570 5623
4 5629 5622 5623 5672
4 5622 5623 5672 5625
4 855 838 842 845
4 838 842 845 824
4 842 845 824 836
4 842 855 845 861
4 845 842 861 836
4 838 842 824 823
4 842 824 823 836
4 824 838 823 819
4 823 824 819 804
4 823 824 804 808
4 823 824 808 836
4 2186 2194 2188 2209
4 2023 2014 1995 2004
4 5814 5842 5841 5787
4 5814 5842 5787 5844
4 5842 5787 5844 5853
4 1885 1893 1873 1896
4 1885 1893 1896 1925
4 1873 1885 1896 1894
4 2799 2767 2778 2782
4 2799 2767 2782 2780
4 2767 2778 2782 2755
4 1173 1161 1154 1172
4 4057 4006 4053 4077
4 1478 1490 1499 1501
4 3999 4003 4062 4070
4 4684 4682 4642 4661
4 3714 3694 3677 3672
4 893 884 903 891
4 3928 3913 3956 3936
4 274 280 271 281
4 5078 5053 5036 5108
4 2408 2401 2432 2420
4 4819 4865 4830 4852
4 4830 4819 4852 4791
4 363 372 358 366
4 372 358 366 365
4 358 366 365 351
4 358 366 351 355
4 366 372 365 380
4 365 358 351 346
4 358 366 355 363
4 351 358 355 350
4 3604 3628 3589 3591
4 2591 2634 2593 2633
4 1204 1219 1207 1226
4 546 538 563 533
4 546 538 533 526
4 538 533 526 512
4 538 533 512 529
4 3994 3983 3998 4026
4 346 336 351 344
4 346 336 344 324
4 351 346 344 365
4 5260 5237 5245 5209
4 5237 5245 5209 5258
4 3995 4006 3974 4053
4 5723 5778 5737 5741
4 1039 1040 1032 1022
4 2933 2906 2935 2936
4 3991 3988 4015 3964
4 5738 5729 5774 5796
4 5729 5774 5796 5798
4 5774 5796 5798 5851
4 4150 4138 4167 4156
4 1187 1201 1193 1182
4 1187 1201 1182 1185
4 1182 1187 1185 1172
4 1182 1187 1172 1173
4 1193 1187 1182 1173
4 1187 1185 1172 1181
4 1193 1187 1173 1180
4 2207 2205 2213 2185
4 5617 5632 5595 5642
4 5595 5617 5642 5631
4 5201 5227 5251 5244
4 5227 5251 5244 5278
4 5251 5201 5244 5231
4 4626 4587 4609 4611
4 2365 2386 2400 2388
4 2365 2386 2388 2353
4 2386 2400 2388 2395
4 2388 2386 2395 2353
4 2400 2365 2388 2385
4 4441 4442 4469 4478
4 2568 2537 2534 2548
4 5162 5123 5133 5188
4 5123 5133 5188 5144
4 2686 2723 2705 2702
4 2686 2723 2702 2700
4 2401 2387 2366 2389
4 2366 2401 2389 2392
4 2401 2387 2389 2408
4 2389 2401 2408 2399
4 2387 2389 2408 2373
4 2389 2408 2373 2395
4 2387 2389 2373 2366
4 2408 2389 2399 2388
4 2401 2387 2408 2403
4 2401 2408 2399 2420
4 2389 2373 2366 2362
4 2389 2373 2362 2395
4 2408 2389 2388 2395
4 1869 1841 1860 1850
4 3091 3072 3056 3085
4 3091 3072 3085 3103
4 3085 3091 3103 3120
4 5130 5110 5160 5078
4 3695 3669 3704 3702
4 3705 3707 3717 3672
4 5813 5815 5757 5784
4 5813 5815 5784 5872
4 5815 5757 5784 5758
4 5757 5813 5784 5750
4 4237 4208 4212 4178
4 5520 5500 5478 5533
4 5478 5520 5533 5519
4 3912 3900 3923 3872
4 1320 1342 1336 1338
4 5458 5442 5439 5481
4 5442 5439 5481 5499
4 3680 3667 3662 3640
4 3164 3147 3150 3187
4 1176 1169 1181 1164
4 1871 1860 1856 1873
4 912 894 907 892
4 3453 3456 3473 3439
4 3453 3456 3439 3420
4 2302 2316 2281 2292
4 5034 5008 5003 5058
4 5813 5811 5871 5833
4 5813 5811 5833 5750
4 5811 5871 5833 5862
4 5871 5813 5833 5872
4 311 319 312 321
4 3336 3314 3344 3320
4 3235 3198 3220 3219
4 3235 3198 3219 3236
4 3219 3235 3236 3268
4 3235 3236 3268 3265
4 3235 3198 3236 3211
4 3236 3235 3211 3238
4 3211 3236 3238 3225
4 3236 3268 3265 3252
4 3198 3236 3211 3189
4 3211 3198 3189 3182
4 3189 3211 3182 3225
4 3211 3236 3225 3189
4 2936 2946 2926 2967
4 556 574 560 580
4 1806 1799 1818 1795
4 1117 1127 1116 1132
4 4037 4065 4072 4105
4 4291 4300 4292 4262
4 1469 1465 1448 1444
4 1448 1469 1444 1468
4 1444 1448 1468 1437
4 1444 1448 1437 1424
4 1444 1448 1424 1431
4 2684 2709 2725 2690
4 5347 5391 5385 5353
4 4999 4992 4935 4969
4 773 791 772 780
4 5223 5266 5197 5203
4 5197 5223 5203 5173
4 5223 5266 5203 5254
4 5197 5223 5173 5199
4 5197 5223 5199 5270
4 5223 5203 5173 5254
4 5807 5859 5829 5867
4 3776 3782 3742 3744
4 3782 3742 3744 3726
4 5812 5754 5753 5764
4 5754 5753 5764 5689
4 2549 2554 2584 2596
4 3315 3302 3333 3316
4 3302 3333 3316 3319
4 3047 3064 3077 3079
4 3077 3047 3079 3069
4 3047 3079 3069 3051
4 3079 3069 3051 3092
4 3069 3051 3092 3071
4 3051 3092 3071 3090
4 5403 5454 5450 5431
4 3290 3314 3280 3300
4 3280 3290 3300 3265
4 5696 5691 5636 5676
4 5636 5696 5676 5669
4 5696 5691 5676 5752
4 5691 5636 5676 5633
4 5559 5563 5548 5494
4 2500 2543 2502 2523
4 2502 2500 2523 2474
4 3264 3282 3274 3296
4 1188 1198 1180 1193
4 4401 4442 4398 4440
4 4730 4693 4699 4718
4 1526 1548 1540 1529
4 1540 1526 1529 1514
4 1548 1540 1529 1549
4 1526 1529 1514 1501
4 1514 1526 1501 1511
4 1501 1514 1511 1495
4 1514 1511 1495 1512
4 5476 5481 5454 5488
4 560 554 556 580
4 3847 3902 3846 3863
4 3846 3847 3863 3804
4 3355 3361 3339 3321
4 1455 1449 1464 1473
4 1738 1724 1744 1725
4 1744 1738 1725 1739
4 1725 1744 1739 1756
4 1744 1739 1756 1740
4 1739 1756 1740 1748
4 1739 1725 1756 1733
4 1739 1725 1733 1738
4 1756 1739 1733 1748
4 1744 1738 1739 1740
4 1738 1739 1740 1733
4 1739 1740 1733 1748
4 1725 1756 1733 1751
4 1725 1733 1738 1717
4 5162 5175 5188 5222
4 5175 5188 5222 5144
4 2097 2109 2127 2112
4 1302 1291 1301 1312
4 1302 1291 1312 1295
4 3909 3907 3850 3883
4 5296 5311 5246 5271
4 4202 4184 4187 4226
4 4187 4202 4226 4211
4 1198 1207 1203 1193
4 1207 1203 1193 1213
4 1193 1207 1213 1202
4 1207 1213 1202 1225
4 1207 1203 1213 1227
4 1193 1207 1202 1204
4 1213 1202 1225 1222
4 1202 1225 1222 1220
4 1225 1222 1220 1231
4 1225 1213 1222 1234
4 1222 1225 1234 1242
4 1222 1225 1242 1236
4 1213 1207 1227 1225
4 1225 1213 1234 1227
4 1222 1225 1236 1231
4 1207 1203 1227 1219
4 1207 1202 1204 1225
4 4647 4625 4662 4650
4 4625 4662 4650 4654
4 4662 4647 4650 4686
4 4625 4662 4654 4649
4 4662 4650 4654 4717
4 4020 4013 4022 3970
4 3748 3784 3744 3795
4 2864 2844 2830 2845
4 2864 2844 2845 2861
4 2844 2845 2861 2815
4 2844 2830 2845 2815
4 2830 2864 2845 2849
4 712 742 726 744
4 5656 5628 5616 5590
4 5616 5656 5590 5620
4 5656 5628 5590 5659
4 5677 5656 5661 5684
4 4144 4103 4122 4123
4 4144 4103 4123 4140
4 4103 4122 4123 4084
4 4122 4144 4123 4159
4 297 299 293 307
4 5509 5461 5475 5514
4 5509 5461 5514 5480
4 4371 4330 4346 4318
4 4371 4330 4318 4354
4 4371 4330 4354 4348
4 3747 3728 3714 3729
4 3714 3747 3729 3735
4 3747 3728 3729 3749
4 3728 3714 3729 3694
4 3728 3729 3749 3689
4 248 242 243 252
4 4494 4470 4469 4471
4 2289 2295 2319 2307
4 6156 6164 6157 6106
4 3364 3369 3348 3339
4 3369 3348 3339 3373
4 1052 1030 1037 1038
4 1718 1736 1721 1747
4 847 854 873 865
4 847 854 865 859
4 4512 4494 4520 4470
4 4967 4943 4980 4995
4 3588 3576 3548 3559
4 5105 5081 5146 5113
4 5049 5032 5038 5035
4 5049 5032 5035 5051
4 5038 5049 5035 5097
4 1479 1473 1449 1455
4 4005 3984 3971 4025
4 4005 3984 4025 4037
4 3984 3971 4025 4012
4 510 504 508 499
4 3225 3236 3252 3214
4 4284 4245 4261 4267
4 4284 4245 4267 4285
4 4245 4261 4267 4225
4 4267 4284 4285 4323
4 3983 3955 4023 3937
4 5512 5507 5526 5451
4 2645 2674 2677 2669
4 2674 2677 2669 2708
4 3481 3460 3446 3464
4 3481 3460 3464 3496
4 3460 3446 3464 3430
4 3446 3481 3464 3469
4 329 341 335 336
4 5512 5526 5561 5510
4 5512 5526 5510 5427
4 4763 4769 4816 4789
4 5531 5481 5499 5494
4 5694 5692 5740 5727
4 5692 5740 5727 5722
4 2868 2898 2881 2878
4 2881 2868 2878 2851
4 2878 2881 2851 2865
4 2898 2881 2878 2911
4 2881 2878 2911 2897
4 2881 2878 2897 2865
4 2878 2911 2897 2891
4 2868 2878 2851 2848
4 2878 2851 2848 2865
4 2851 2868 2848 2838
4 2848 2851 2838 2818
4 2848 2851 2818 2831
4 2851 2848 2865 2831
4 2911 2897 2891 2920
4 2897 2891 2920 2904
4 2897 2878 2891 2865
4 2891 2897 2865 2904
4 1363 1377 1356 1365
4 1377 1356 1365 1371
4 4610 4622 4603 4623
4 4622 4603 4623 4602
4 2679 2686 2705 2702
4 2478 2491 2506 2483
4 2071 2082 2099 2116
4 2082 2099 2116 2098
4 3169 3192 3207 3204
4 3207 3169 3204 3188
4 3192 3207 3204 3226
4 3207 3204 3226 3244
4 3207 3204 3244 3221
4 3204 3207 3188 3221
4 3188 3204 3221 3216
4 3221 3188 3216 3170
4 3204 3221 3216 3243
4 3204 3221 3243 3244
4 3243 3204 3244 3226
4 3244 3243 3226 3260
4 3244 3243 3260 3276
4 3244 3243 3276 3255
4 3244 3243 3255 3221
4 3221 3216 3243 3248
4 3221 3216 3248 3267
4 3243 3276 3255 3275
4 3243 3276 3275 3260
4 3276 3255 3275 3289
4 3276 3275 3260 3295
4 3276 3275 3295 3307
4 3276 3275 3307 3289
4 3255 3243 3275 3248
4 3255 3275 3289 3248
4 3289 3255 3248 3267
4 3243 3255 3221 3248
4 3255 3221 3248 3267
4 3275 3307 3289 3292
4 3307 3289 3292 3317
4 3289 3292 3317 3267
4 3289 3275 3292 3248
4 3292 3289 3248 3267
4 1191 1190 1170 1176
4 2377 2379 2394 2369
4 2394 2377 2369 2368
4 2549 2518 2554 2534
4 2554 2549 2534 2596
4 2110 2104 2131 2148
4 2131 2110 2148 2127
4 1986 1997 2011 2004
4 1961 1973 1960 1985
4 1973 1960 1985 1976
4 1960 1985 1976 1958
4 1960 1985 1958 1974
4 1958 1960 1974 1921
4 1976 1960 1958 1940
4 1960 1958 1940 1921
4 1960 1961 1985 1974
4 1985 1973 1976 2001
4 1985 1958 1974 2004
4 1976 1985 2001 2004
4 3661 3627 3646 3645
4 3661 3627 3645 3658
4 3645 3661 3658 3672
4 3658 3645 3672 3671
4 3645 3661 3672 3646
4 3627 3646 3645 3614
4 3672 3645 3646 3647
4 857 872 867 868
4 4443 4449 4417 4434
4 4449 4417 4434 4459
4 1978 1953 1948 1957
4 5702 5747 5699 5737
4 4360 4378 4358 4340
4 5624 5668 5674 5639
4 5492 5546 5517 5505
4 3674 3649 3678 3658
4 3731 3716 3701 3711
4 3731 3716 3711 3750
4 3716 3711 3750 3730
4 3716 3711 3730 3681
4 3716 3711 3681 3701
4 3711 3750 3730 3761
4 5903 5868 5901 5891
4 5868 5901 5891 5872
4 5901 5903 5891 5934
4 4059 4098 4082 4135
4 2306 2299 2321 2333
4 2306 2299 2333 2346
4 1647 1656 1658 1643
4 1656 1658 1643 1664
4 5383 5353 5351 5385
4 2237 2247 2220 2218
4 5796 5794 5849 5826
4 5796 5794 5826 5738
4 5794 5849 5826 5870
4 5849 5796 5826 5851
4 3111 3097 3130 3108
4 3111 3097 3108 3081
4 3649 3634 3667 3639
4 3667 3649 3639 3628
4 5553 5570 5577 5533
4 268 261 265 267
4 2908 2886 2890 2915
4 2886 2890 2915 2887
4 2890 2908 2915 2923
4 2890 2908 2923 2893
4 4927 4954 4955 4908
4 1643 1640 1664 1654
4 1664 1643 1654 1657
4 4550 4533 4560 4575
4 5850 5848 5890 5908
4 5848 5890 5908 5888
4 1426 1447 1441 1443
4 1426 1447 1443 1439
4 5577 5630 5574 5622
4 2624 2638 2626 2613
4 2638 2626 2613 2659
4 2638 2626 2659 2676
4 2624 2638 2613 2659
4 4003 4052 4062 4070
4 4052 4062 4070 4110
4 633 641 639 634
4 4522 4495 4499 4536
4 5454 5487 5488 5431
4 4096 4131 4107 4139
4 5810 5830 5778 5764
4 5830 5778 5764 5741
4 334 321 325 327
4 2462 2447 2457 2450
4 2158 2139 2143 2153
4 2139 2143 2153 2113
4 2143 2153 2113 2147
4 2143 2153 2147 2172
4 2143 2153 2172 2158
4 2172 2143 2158 2149
4 5442 5416 5424 5472
4 1575 1583 1559 1557
4 1583 1559 1557 1569
4 1559 1575 1557 1551
4 1557 1559 1551 1537
4 1557 1559 1537 1539
4 1557 1559 1539 1569
4 5421 5416 5440 5393
4 5837 5782 5780 5823
4 5837 5782 5823 5802
4 5782 5780 5823 5731
4 3910 3893 3866 3880
4 3854 3832 3814 3818
4 2793 2768 2795 2775
4 3909 3850 3851 3883
4 703 684 700 701
4 700 703 701 724
4 684 700 701 676
4 701 700 724 725
4 701 700 725 699
4 701 700 699 676
4 3997 3978 3996 4027
4 2316 2302 2318 2292
4 5611 5635 5669 5641
4 5669 5611 5641 5636
4 5611 5635 5641 5609
4 5635 5641 5609 5675
4 5635 5641 5675 5669
4 5641 5609 5675 5645
4 5641 5611 5609 5584
4 5609 5635 5675 5674
4 5641 5675 5669 5721
4 5675 5609 5674 5645
4 382 380 398 389
4 382 380 389 372
4 389 382 372 377
4 382 380 372 366
4 372 382 366 370
4 372 382 370 377
4 366 372 370 363
4 2537 2556 2534 2508
4 2245 2260 2275 2265
4 2275 2245 2265 2247
4 2245 2265 2247 2218
4 2245 2260 2265 2252
4 2260 2265 2252 2295
4 2260 2275 2265 2289
4 854 847 852 859
4 5034 5001 5008 5052
4 4900 4903 4860 4880
4 4900 4903 4880 4943
4 4903 4860 4880 4881
4 4880 4903 4881 4922
4 2493 2471 2455 2475
4 2493 2471 2475 2491
4 2471 2455 2475 2451
4 2455 2493 2475 2481
4 2471 2475 2491 2451
4 2491 2471 2451 2478
4 4255 4272 4223 4221
4 2080 2060 2063 2062
4 3972 4015 3964 4010
4 3972 4015 4010 4046
4 3056 3020 3043 3060
4 953 948 965 963
4 261 266 259 267
4 2345 2334 2355 2373
4 682 672 671 666
4 682 672 666 694
4 2752 2764 2747 2775
4 4480 4449 4469 4459
4 1007 996 1014 1021
4 1796 1800 1791 1804
4 4071 4066 4109 4059
4 3539 3568 3558 3559
4 4652 4651 4659 4622
4 5072 5087 5107 5057
4 2916 2903 2888 2896
4 2916 2903 2896 2926
4 2903 2888 2896 2874
4 2867 2836 2869 2846
4 2869 2867 2846 2872
4 1976 1991 1973 1967
4 5684 5661 5620 5656
4 5319 5266 5285 5272
4 4257 4272 4221 4237
4 4257 4272 4237 4242
4 4272 4221 4237 4223
4 2867 2889 2872 2869
4 5253 5287 5230 5284
4 2840 2859 2824 2861
4 4196 4192 4213 4195
4 4213 4196 4195 4229
4 4196 4192 4195 4156
4 4195 4196 4156 4161
4 2752 2768 2793 2775
4 2597 2601 2594 2565
4 2597 2601 2565 2559
4 1554 1563 1565 1542
4 348 356 353 347
4 4352 4360 4313 4340
4 4313 4352 4340 4318
4 5391 5347 5327 5353
4 2307 2319 2339 2336
4 2339 2307 2336 2317
4 2319 2339 2336 2353
4 2339 2336 2353 2365
4 2339 2336 2365 2359
4 2336 2339 2317 2359
4 2307 2319 2336 2295
4 1548 1544 1556 1547
4 3396 3365 3383 3381
4 3396 3365 3381 3389
4 3381 3396 3389 3430
4 3396 3365 3389 3363
4 696 694 711 695
4 696 694 695 677
4 696 694 677 666
4 3442 3419 3410 3427
4 3442 3419 3427 3417
4 3419 3427 3417 3409
4 3419 3410 3427 3409
4 3410 3442 3427 3437
4 3427 3442 3417 3462
4 3427 3442 3462 3437
4 3462 3427 3437 3438
4 1256 1274 1250 1261
4 2814 2843 2829 2825
4 2814 2843 2825 2820
4 2404 2425 2396 2416
4 5087 5118 5107 5151
4 5118 5107 5151 5148
4 1438 1453 1445 1442
4 5465 5435 5447 5409
4 4051 4040 4100 4063
4 2587 2548 2568 2596
4 2568 2587 2596 2613
4 2568 2587 2613 2626
4 2596 2568 2613 2586
4 2613 2596 2586 2624
4 2586 2613 2624 2568
4 2587 2596 2613 2623
4 2596 2568 2586 2549
4 2613 2596 2624 2661
4 2596 2613 2623 2661
4 1486 1484 1508 1474
4 1486 1484 1474 1458
4 1474 1486 1458 1463
4 1484 1474 1458 1470
4 1508 1486 1474 1487
4 1486 1474 1487 1463
4 1484 1474 1470 1495
4 1484 1474 1495 1508
4 3842 3802 3825 3803
4 1301 1310 1302 1319
4 1301 1310 1319 1318
4 3246 3274 3252 3240
4 1822 1819 1804 1833
4 1804 1822 1833 1834
4 4014 4072 4067 4025
4 5542 5516 5573 5509
4 5381 5357 5370 5350
4 1589 1599 1576 1590
4 5811 5809 5862 5832
4 5811 5809 5832 5751
4 5809 5862 5832 5829
4 5832 5809 5829 5752
4 5862 5811 5832 5833
4 5811 5832 5833 5767
4 5862 5832 5829 5880
4 5832 5829 5880 5843
4 5832 5862 5833 5883
4 5832 5833 5767 5843
4 5862 5832 5880 5883
4 5832 5880 5883 5843
4 5880 5862 5883 5911
4 5833 5832 5883 5843
4 5880 5883 5843 5913
4 3759 3728 3749 3721
4 1530 1534 1508 1532
4 3796 3801 3781 3818
4 3781 3796 3818 3832
4 3796 3801 3818 3841
4 4954 4959 4971 4991
4 4971 4954 4991 5000
4 4954 4959 4991 4977
4 4991 4954 4977 5035
4 2588 2576 2617 2579
4 4398 4385 4373 4401
4 4385 4373 4401 4372
4 4398 4385 4401 4440
4 4373 4401 4372 4378
4 1721 1723 1704 1734
4 2564 2597 2565 2559
4 4131 4098 4107 4150
4 4131 4098 4150 4135
4 5347 5354 5306 5362
4 1456 1480 1482 1470
4 1215 1224 1220 1211
4 5271 5295 5333 5304
4 5271 5295 5304 5298
4 3195 3186 3166 3225
4 1574 1565 1576 1590
4 1574 1565 1590 1568
4 1565 1576 1590 1589
4 2194 2179 2156 2188
4 1564 1589 1576 1565
4 1576 1564 1565 1540
4 3413 3396 3383 3381
4 5029 5013 4984 4973
4 2603 2639 2598 2602
4 2603 2639 2602 2647
4 2598 2603 2602 2555
4 2603 2602 2555 2563
4 2603 2602 2563 2606
4 2603 2602 2606 2647
4 5600 5576 5551 5561
4 5551 5600 5561 5603
4 5498 5517 5516 5448
4 1507 1486 1508 1487
4 1241 1233 1221 1223
4 1221 1241 1223 1239
4 1233 1221 1223 1216
4 1221 1223 1216 1205
4 1221 1223 1205 1212
4 1221 1223 1212 1239
4 4460 4477 4495 4435
4 4460 4477 4435 4423
4 4860 4814 4858 4834
4 4858 4860 4834 4880
4 4860 4814 4834 4836
4 4834 4860 4836 4880
4 4836 4834 4880 4848
4 94 116 105 122
4 4739 4732 4718 4757
4 4718 4739 4757 4701
4 4739 4732 4757 4777
4 4757 4739 4777 4782
4 4757 4739 4782 4756
4 5498 5466 5517 5448
4 1593 1595 1571 1576
4 1571 1593 1576 1573
4 1576 1571 1573 1549
4 4381 4366 4389 4364
4 4389 4381 4364 4438
4 2709 2684 2689 2690
4 2042 2052 2068 2054
4 2068 2042 2054 2058
4 2042 2052 2054 2048
4 2052 2068 2054 2062
4 2054 2052 2062 2048
4 5303 5273 5315 5322
4 329 321 315 322
4 315 329 322 332
4 2954 2966 2936 2967
4 1082 1071 1080 1055
4 4484 4463 4498 4465
4 2135 2147 2112 2113
4 5554 5588 5589 5547
4 5589 5554 5547 5531
4 5588 5589 5547 5591
4 5589 5547 5591 5627
4 5747 5804 5775 5827
4 5804 5775 5827 5838
4 2893 2875 2864 2890
4 1185 1169 1172 1181
4 4956 4978 4965 5008
4 4978 4965 5008 4985
4 2214 2201 2187 2181
4 2187 2214 2181 2197
4 2201 2187 2181 2173
4 2187 2181 2173 2154
4 2187 2181 2154 2197
4 5592 5558 5587 5509
4 1978 1969 1957 1993
4 3783 3764 3747 3749
4 2609 2601 2565 2588
4 3038 3011 3016 3034
4 3371 3363 3389 3373
4 3389 3371 3373 3417
4 6116 6113 6115 6077
4 5464 5418 5448 5422
4 2764 2752 2786 2793
4 293 299 295 301
4 5301 5291 5342 5321
4 3620 3604 3591 3628
4 3620 3604 3628 3640
4 1095 1085 1079 1091
4 2965 2958 2956 2933
4 3689 3673 3678 3697
4 5272 5244 5254 5307
4 4037 4011 4005 3979
4 4037 4011 3979 4013
4 5475 5461 5448 5422
4 5472 5492 5468 5517
4 4159 4122 4149 4148
4 4159 4122 4148 4123
4 4122 4149 4148 4108
4 4149 4159 4148 4188
4 4122 4148 4123 4092
4 3907 3938 3905 3868
4 4058 4046 4002 4050
4 2053 2083 2078 2066
4 2053 2083 2066 2085
4 5719 5739 5738 5777
4 5719 5739 5777 5735
4 5739 5738 5777 5794
4 5738 5777 5794 5826
4 5777 5794 5826 5870
4 5777 5739 5794 5792
4 5794 5777 5792 5870
4 5777 5739 5792 5735
4 3501 3523 3503 3522
4 3744 3742 3707 3726
4 5810 5754 5764 5765
4 5754 5764 5765 5723
4 1385 1397 1377 1386
4 1397 1377 1386 1392
4 3768 3776 3744 3805
4 2736 2749 2766 2748
4 2766 2736 2748 2753
4 2477 2466 2490 2485
4 4394 4425 4380 4402
4 4380 4394 4402 4365
4 4394 4402 4365 4416
4 1214 1202 1215 1220
4 5838 5850 5890 5827
4 5052 5080 5081 5034
4 3694 3661 3677 3672
4 4992 5041 5030 5027
4 5041 5030 5027 5072
4 1833 1840 1834 1844
4 5048 5070 5019 5021
4 5019 5048 5021 4998
4 5048 5021 4998 5047
4 3885 3903 3920 3911
4 3920 3885 3911 3923
4 3885 3903 3911 3878
4 3911 3885 3878 3923
4 2955 2924 2937 2925
4 1358 1347 1338 1360
4 1358 1347 1360 1368
4 1347 1360 1368 1354
4 1360 1358 1368 1381
4 1368 1360 1381 1384
4 1368 1360 1384 1373
4 584 573 599 598
4 346 332 336 324
4 332 336 324 329
4 332 336 329 335
4 4109 4098 4059 4135
4 2091 2080 2089 2063
4 2080 2089 2063 2088
4 1898 1905 1917 1908
4 1917 1898 1908 1915
4 1905 1917 1908 1921
4 1917 1898 1915 1911
4 1908 1917 1915 1949
4 1908 1905 1921 1896
4 1921 1908 1896 1906
4 1896 1921 1906 1918
4 1905 1921 1896 1918
4 1908 1905 1896 1898
4 1921 1908 1906 1934
4 1908 1896 1906 1884
4 5524 5509 5498 5542
4 3157 3192 3169 3168
4 3169 3157 3168 3139
4 3168 3169 3139 3148
4 3192 3169 3168 3204
4 3169 3168 3204 3188
4 3168 3169 3148 3188
4 3168 3204 3188 3181
4 3204 3188 3181 3216
4 3188 3181 3216 3170
4 3188 3181 3170 3143
4 3188 3181 3143 3168
4 3181 3170 3143 3177
4 1877 1891 1865 1885
4 1877 1891 1885 1903
4 2561 2591 2593 2557
4 3320 3343 3336 3322
4 1647 1658 1663 1648
4 2213 2212 2185 2205
4 2213 2212 2205 2227
4 5108 5078 5130 5160
4 231 238 228 226
4 231 238 226 235
4 3180 3160 3179 3158
4 353 368 361 356
4 2061 2071 2044 2031
4 2044 2061 2031 2043
4 1813 1790 1819 1792
4 1819 1813 1792 1804
4 1813 1790 1792 1782
4 1819 1813 1804 1833
4 1813 1804 1833 1800
4 1502 1481 1483 1495
4 3008 3024 3023 2988
4 5431 5403 5413 5450
4 4787 4789 4786 4759
4 4787 4789 4759 4791
4 4570 4551 4581 4548
4 258 269 259 266
4 2111 2096 2098 2113
4 2111 2096 2113 2139
4 2096 2098 2113 2085
4 2113 2096 2085 2112
4 2098 2113 2085 2099
4 1813 1825 1796 1800
4 1796 1813 1800 1804
4 1796 1813 1804 1782
4 2815 2780 2799 2797
4 2815 2780 2797 2811
4 2797 2815 2811 2845
4 2815 2780 2811 2792
4 2780 2799 2797 2782
4 2780 2797 2811 2775
4 2780 2797 2775 2782
4 2797 2811 2775 2803
4 2799 2797 2782 2823
4 2811 2780 2775 2792
4 2780 2775 2792 2750
4 2780 2775 2750 2782
4 2799 2815 2797 2830
4 1783 1766 1771 1797
4 2082 2072 2099 2098
4 1464 1456 1439 1447
4 1464 1456 1447 1470
4 2292 2290 2320 2309
4 3034 3047 3015 3059
4 3907 3849 3850 3870
4 3849 3850 3870 3815
4 3849 3850 3815 3811
4 3815 3849 3811 3868
4 712 726 723 744
4 4131 4150 4192 4135
4 5565 5574 5621 5560
4 5752 5809 5751 5832
4 985 981 996 995
4 2697 2690 2662 2684
4 3527 3496 3513 3512
4 3527 3496 3512 3517
4 3496 3513 3512 3481
4 3513 3527 3512 3547
4 5528 5520 5471 5523
4 5528 5520 5523 5570
4 5520 5523 5570 5525
4 5778 5723 5764 5741
4 5361 5335 5355 5312
4 1934 1907 1919 1908
4 3732 3742 3774 3717
4 2645 2653 2632 2617
4 2632 2645 2617 2579
4 2645 2653 2617 2643
4 4012 4014 4067 4025
4 4713 4722 4685 4664
4 3963 3906 3914 3937
4 4934 4937 4897 4865
4 3677 3661 3646 3672
4 1137 1144 1132 1150
4 995 996 977 981
4 2714 2697 2683 2684
4 2697 2683 2684 2662
4 2869 2885 2889 2895
4 1505 1519 1499 1490
4 4059 4029 4066 4046
4 304 308 317 315
4 4055 4082 4059 4071
4 3612 3625 3613 3643
4 5802 5805 5743 5823
4 1051 1057 1049 1067
4 912 911 907 929
4 1885 1873 1860 1894
4 4391 4361 4381 4412
4 338 327 334 339
4 4134 4168 4145 4178
4 1918 1932 1921 1940
4 1921 1918 1940 1925
4 5417 5426 5370 5404
4 5051 5073 5099 5097
4 5617 5670 5642 5631
4 2431 2438 2454 2440
4 3658 3689 3678 3707
4 1015 1022 1033 1032
4 4156 4140 4161 4119
4 4156 4140 4119 4109
4 4161 4156 4119 4135
4 4156 4119 4135 4109
4 4061 4013 4037 4022
4 2340 2320 2309 2322
4 2309 2340 2322 2325
4 2340 2320 2322 2334
4 2320 2322 2334 2292
4 2320 2309 2322 2292
4 2322 2340 2334 2362
4 3855 3872 3887 3923
4 3865 3883 3834 3816
4 442 422 436 443
4 2810 2794 2795 2824
4 1932 1941 1959 1958
4 2792 2795 2760 2775
4 3088 3092 3079 3128
4 2664 2684 2650 2668
4 5569 5546 5549 5590
4 5569 5546 5590 5628
4 1977 1996 1983 1981
4 1996 1983 1981 1980
4 1983 1977 1981 1955
4 1981 1983 1955 1980
4 5209 5200 5215 5271
4 5511 5488 5547 5521
4 3817 3845 3795 3829
4 1161 1182 1172 1173
4 5563 5549 5544 5620
4 1697 1704 1716 1721
4 2488 2477 2478 2506
4 4991 5036 5038 4977
4 3164 3150 3155 3190
4 3164 3150 3190 3187
4 1907 1899 1919 1908
4 4475 4477 4437 4423
4 3116 3089 3085 3079
4 3116 3089 3079 3128
4 1015 1006 1022 1011
4 1015 1006 1011 1004
4 676 652 662 663
4 652 662 663 636
4 662 663 636 646
4 662 676 663 679
4 663 662 679 646
4 3623 3649 3638 3628
4 3623 3649 3628 3617
4 3649 3638 3628 3658
4 3542 3572 3533 3559
4 1689 1712 1710 1699
4 3103 3116 3085 3120
4 1488 1491 1465 1489
4 1488 1491 1489 1510
4 1465 1488 1489 1463
4 1489 1488 1510 1506
4 3522 3490 3503 3501
4 4075 4024 4086 4049
4 4075 4024 4049 4022
4 4086 4075 4049 4120
4 814 806 817 811
4 1733 1741 1756 1748
4 2142 2140 2139 2164
4 2142 2140 2164 2161
4 2140 2139 2164 2153
4 2140 2139 2153 2113
4 2164 2140 2153 2161
4 4338 4311 4353 4310
4 4311 4353 4310 4327
4 4311 4353 4327 4328
4 3617 3632 3604 3606
4 4461 4445 4465 4438
4 4465 4461 4438 4473
4 2500 2487 2532 2504
4 2500 2487 2504 2474
4 2532 2500 2504 2523
4 2500 2504 2523 2474
4 2780 2750 2767 2782
4 886 873 894 900
4 5815 5868 5834 5872
4 4440 4474 4475 4470
4 4474 4475 4470 4520
4 4369 4340 4358 4378
4 742 743 744 761
4 3804 3846 3825 3827
4 3804 3846 3827 3863
4 3846 3825 3827 3884
4 3846 3827 3863 3884
4 2170 2158 2172 2153
4 2674 2678 2677 2708
4 2004 1993 1995 1976
4 4900 4858 4876 4880
4 436 422 415 424
4 415 436 424 437
4 422 415 424 414
4 5626 5668 5639 5671
4 2218 2226 2245 2252
4 2371 2396 2409 2395
4 2371 2396 2395 2403
4 2396 2409 2395 2434
4 4720 4713 4664 4667
4 1096 1105 1111 1108
4 1111 1096 1108 1100
4 1105 1111 1108 1121
4 1111 1108 1121 1128
4 1111 1108 1128 1131
4 1108 1111 1100 1131
4 1825 1813 1833 1800
4 5756 5703 5736 5726
4 5756 5703 5726 5753
4 5736 5756 5726 5787
4 5756 5726 5787 5753
4 2557 2551 2516 2537
4 2557 2551 2537 2568
4 2551 2537 2568 2548
4 2551 2516 2537 2503
4 2516 2557 2537 2513
4 2551 2537 2548 2503
4 2767 2750 2737 2751
4 2737 2767 2751 2755
4 2767 2750 2751 2782
4 2750 2737 2751 2724
4 2751 2767 2782 2755
4 2434 2425 2448 2437
4 3343 3361 3327 3321
4 5797 5740 5799 5783
4 5797 5740 5783 5759
4 5799 5797 5783 5857
4 5797 5740 5759 5795
4 5740 5783 5759 5727
4 5759 5797 5795 5825
4 5740 5783 5727 5722
4 5759 5740 5727 5694
4 5821 5835 5770 5822
4 338 348 339 347
4 5042 5027 4969 5009
4 5042 5027 5009 5056
4 5027 4969 5009 4937
4 5027 5009 5056 5044
4 5027 5009 5044 5013
4 3992 3938 3978 4039
4 6105 6104 6059 6078
4 6105 6104 6078 6152
4 6059 6105 6078 6046
4 1592 1586 1604 1598
4 4633 4614 4589 4591
4 481 495 476 486
4 495 476 486 492
4 1384 1390 1394 1419
4 3166 3159 3151 3128
4 4104 4057 4093 4077
4 5356 5376 5420 5358
4 4073 4115 4083 4082
4 2468 2470 2438 2483
4 2468 2470 2483 2496
4 2470 2483 2496 2487
4 1869 1877 1852 1860
4 1869 1877 1860 1894
4 3508 3522 3520 3472
4 1795 1792 1782 1804
4 1782 1795 1804 1783
4 1782 1795 1783 1771
4 1782 1795 1771 1784
4 1783 1782 1771 1767
4 3644 3621 3627 3658
4 657 647 627 626
4 4954 4971 4955 5000
4 4553 4555 4593 4556
4 2136 2126 2135 2124
4 2295 2306 2319 2346
4 1102 1101 1103 1125
4 4684 4678 4660 4642
4 2794 2793 2795 2824
4 2654 2693 2656 2672
4 2654 2693 2672 2679
4 2656 2654 2672 2614
4 1976 1978 1948 1957
4 1996 2008 2028 2009
4 1996 2008 2009 1980
4 2008 2028 2009 2038
4 2009 2008 2038 2021
4 5565 5555 5519 5501
4 5555 5519 5501 5533
4 2199 2185 2184 2219
4 4298 4259 4271 4277
4 307 301 315 308
4 301 315 308 304
4 4617 4606 4575 4556
4 2104 2087 2073 2058
4 2087 2073 2058 2068
4 336 343 341 335
4 4724 4691 4741 4687
4 1245 1252 1260 1262
4 1260 1245 1262 1249
4 1252 1260 1262 1272
4 1262 1260 1249 1288
4 1260 1262 1272 1278
4 1260 1262 1278 1288
4 4188 4149 4173 4172
4 4188 4149 4172 4148
4 4173 4188 4172 4214
4 4149 4172 4148 4108
4 4173 4188 4214 4225
4 4188 4172 4214 4211
4 4188 4172 4211 4148
4 4214 4188 4211 4225
4 4188 4211 4225 4202
4 4211 4214 4225 4267
4 4172 4214 4211 4209
4 4470 4442 4478 4469
4 5565 5597 5578 5621
4 5578 5565 5621 5560
4 4171 4190 4212 4196
4 4212 4171 4196 4161
4 4171 4190 4196 4192
4 5397 5393 5440 5424
4 5393 5440 5424 5416
4 4730 4699 4739 4718
4 4699 4739 4718 4700
4 2297 2307 2317 2310
4 2317 2297 2310 2314
4 2307 2317 2310 2336
4 2317 2297 2314 2313
4 776 780 772 791
4 2593 2629 2633 2634
4 2593 2629 2634 2598
4 2629 2634 2598 2639
4 2629 2634 2639 2680
4 2629 2633 2634 2671
4 4010 4015 4059 4046
4 5277 5257 5287 5308
4 5277 5257 5308 5220
4 5257 5287 5308 5294
4 3251 3225 3240 3264
4 3240 3251 3264 3274
4 6086 6087 6045 6070
4 6086 6087 6070 6122
4 6045 6086 6070 6035
4 2542 2565 2538 2529
4 1758 1734 1748 1746
4 4533 4502 4473 4506
4 4533 4502 4506 4556
4 4533 4502 4556 4514
4 4502 4473 4506 4494
4 2725 2720 2739 2714
4 5143 5183 5170 5132
4 5183 5170 5132 5125
4 5170 5132 5125 5154
4 5143 5183 5132 5125
4 5170 5143 5132 5156
4 5143 5132 5156 5087
4 5132 5170 5156 5149
4 4838 4859 4862 4813
4 1920 1934 1933 1906
4 1933 1920 1906 1925
4 1457 1468 1469 1493
4 5426 5417 5467 5404
4 2371 2364 2396 2403
4 4060 4062 4108 4080
4 4060 4062 4080 3999
4 4108 4060 4080 4050
4 4060 4080 4050 4017
4 1940 1941 1932 1958
4 1940 1941 1958 1948
4 3287 3268 3250 3270
4 3250 3287 3270 3278
4 695 697 712 711
4 697 712 711 716
4 712 711 716 742
4 711 697 716 698
4 4867 4831 4821 4838
4 4730 4712 4752 4739
4 4712 4752 4739 4700
4 5514 5522 5567 5509
4 5514 5522 5509 5480
4 5567 5514 5509 5545
4 5514 5509 5545 5475
4 4248 4227 4213 4192
4 2016 2026 2048 2043
4 5779 5773 5825 5786
4 3913 3928 3874 3893
4 3913 3928 3893 3936
4 4538 4583 4560 4587
4 4583 4560 4587 4617
4 3880 3832 3840 3827
4 2271 2274 2242 2292
4 2561 2560 2555 2524
4 2561 2560 2524 2512
4 5466 5418 5397 5448
4 5506 5556 5530 5540
4 5506 5556 5540 5514
4 5530 5506 5540 5482
4 2732 2714 2725 2752
4 2275 2289 2307 2291
4 2307 2275 2291 2310
4 2275 2289 2291 2265
4 2291 2275 2265 2278
4 2289 2307 2291 2295
4 2291 2307 2310 2336
4 2291 2289 2295 2265
4 2457 2458 2434 2437
4 2457 2458 2437 2478
4 2458 2434 2437 2451
4 2434 2457 2437 2448
4 2457 2437 2448 2450
4 1052 1037 1055 1038
4 1037 1055 1038 1043
4 5123 5135 5077 5115
4 2276 2262 2246 2266
4 2246 2276 2266 2269
4 2276 2262 2266 2292
4 2262 2246 2266 2241
4 2266 2262 2241 2292
4 4962 4929 4978 4933
4 4978 4962 4933 4985
4 4962 4929 4933 4902
4 4962 4929 4902 4937
4 4929 4933 4902 4889
4 4933 4962 4902 4928
4 4902 4962 4937 4928
4 4933 4902 4889 4928
4 3176 3193 3214 3186
4 3491 3501 3462 3492
4 4003 3973 4007 4039
4 4793 4783 4821 4790
4 4783 4821 4790 4775
4 4245 4222 4226 4239
4 4222 4226 4239 4161
4 4861 4885 4856 4921
4 5333 5349 5311 5304
4 4642 4604 4606 4631
4 2093 2089 2103 2088
4 1289 1274 1284 1290
4 256 252 262 265
4 256 252 265 255
4 252 262 265 263
4 262 265 263 275
4 263 262 275 272
4 252 262 263 245
4 262 263 245 260
4 262 263 260 272
4 1480 1501 1482 1495
4 1482 1480 1495 1470
4 1390 1384 1391 1419
4 3264 3298 3280 3262
4 588 572 595 585
4 572 595 585 580
4 595 585 580 615
4 585 572 580 554
4 4440 4442 4470 4452
4 4442 4470 4452 4443
4 4772 4782 4739 4752
4 4772 4782 4752 4788
4 4782 4739 4752 4756
4 4782 4752 4788 4756
4 2169 2160 2180 2200
4 2160 2180 2200 2185
4 5054 5039 5078 5036
4 4058 4066 4046 4103
4 2185 2178 2153 2160
4 6056 6101 6076 6052
4 4477 4475 4522 4499
4 4276 4280 4317 4293
4 4276 4280 4293 4257
4 1197 1181 1192 1185
4 4607 4610 4581 4603
4 4607 4610 4603 4623
4 4581 4607 4603 4623
4 4603 4581 4623 4602
4 2846 2834 2822 2824
4 892 911 901 907
4 2247 2261 2278 2275
4 4053 4093 4057 4077
4 1614 1635 1619 1593
4 4068 4049 4101 4120
4 952 960 966 953
4 966 952 953 963
4 3213 3225 3214 3186
4 2299 2295 2292 2335
4 1363 1385 1377 1365
4 5412 5397 5440 5468
4 4546 4538 4519 4560
4 4546 4538 4560 4587
4 4560 4546 4587 4611
4 2451 2427 2440 2434
4 1883 1893 1896 1873
4 1896 1883 1873 1867
4 2652 2648 2679 2628
4 5187 5177 5124 5153
4 3250 3235 3220 3219
4 4182 4217 4203 4194
4 4217 4203 4194 4232
4 4203 4182 4194 4157
4 4194 4203 4157 4215
4 4203 4194 4232 4215
4 5807 5805 5867 5831
4 5807 5805 5831 5734
4 5805 5867 5831 5863
4 3208 3237 3234 3245
4 3237 3234 3245 3262
4 1530 1554 1534 1541
4 1530 1554 1541 1542
4 1534 1530 1541 1532
4 1530 1541 1532 1512
4 1541 1534 1532 1568
4 5451 5426 5467 5474
4 3198 3165 3187 3184
4 3198 3165 3184 3189
4 3184 3198 3189 3219
4 3198 3165 3189 3159
4 3165 3184 3189 3151
4 3184 3189 3151 3174
4 3151 3184 3174 3150
4 3184 3189 3174 3214
4 3184 3198 3219 3187
4 3198 3189 3219 3236
4 3189 3184 3219 3214
4 3165 3184 3151 3147
4 1000 992 983 984
4 983 1000 984 982
4 992 983 984 973
4 983 984 973 964
4 983 984 964 956
4 2544 2499 2511 2526
4 5244 5233 5254 5193
4 1315 1327 1316 1335
4 3630 3614 3602 3618
4 3602 3630 3618 3609
4 3602 3630 3609 3619
4 350 363 358 355
4 4419 4443 4417 4399
4 2691 2697 2662 2682
4 2652 2616 2648 2628
4 3873 3841 3831 3888
4 2091 2112 2081 2085
4 5148 5163 5200 5215
4 4184 4222 4200 4161
4 1756 1757 1778 1774
4 1413 1402 1416 1385
4 5399 5347 5385 5362
4 4978 4933 4965 4985
4 243 237 238 242
4 1472 1498 1497 1496
4 1498 1497 1496 1518
4 1497 1472 1496 1468
4 1496 1497 1468 1493
4 1496 1497 1493 1521
4 1496 1497 1521 1518
4 2091 2105 2124 2126
4 669 678 689 673
4 5542 5517 5583 5573
4 1712 1731 1710 1724
4 4533 4519 4560 4506
4 1279 1295 1271 1276
4 4861 4822 4841 4816
4 4861 4822 4816 4856
4 3522 3539 3558 3559
4 3844 3810 3833 3807
4 3844 3810 3807 3821
4 3810 3833 3807 3789
4 3807 3810 3789 3772
4 3807 3810 3772 3778
4 3810 3807 3821 3778
4 3807 3844 3821 3839
4 3861 3878 3860 3819
4 4451 4413 4430 4432
4 2447 2422 2437 2450
4 1118 1143 1125 1133
4 160 158 171 177
4 3907 3905 3849 3868
4 1620 1634 1623 1648
4 5118 5072 5120 5121
4 4403 4388 4421 4389
4 4026 4027 4017 4085
4 1255 1242 1234 1225
4 4907 4885 4906 4859
4 4907 4885 4859 4867
4 4885 4859 4867 4821
4 256 248 252 255
4 2170 2185 2164 2153
4 5592 5624 5643 5609
4 1825 1810 1796 1798
4 6125 6120 6122 6087
4 4371 4376 4354 4318
4 2502 2546 2526 2543
4 5291 5308 5342 5356
4 3611 3590 3589 3565
4 3590 3589 3565 3572
4 946 933 948 929
4 1048 1064 1051 1059
4 1868 1840 1846 1860
4 3640 3611 3604 3639
4 4006 3962 3974 3937
4 1635 1641 1643 1634
4 3234 3206 3196 3208
4 3290 3315 3300 3302
4 5700 5719 5738 5711
4 2522 2505 2550 2496
4 3138 3118 3114 3101
4 4743 4727 4773 4787
4 3268 3235 3250 3219
4 3719 3691 3724 3726
4 1382 1383 1370 1400
4 2814 2829 2798 2825
4 3214 3205 3174 3209
4 1051 1040 1035 1032
4 5837 5798 5865 5851
4 2570 2595 2569 2559
4 2570 2595 2559 2573
4 2569 2570 2559 2530
4 405 388 400 389
4 5693 5723 5662 5682
4 1034 1054 1046 1044
4 4993 5036 4977 5030
4 1658 1668 1663 1685
4 5140 5166 5114 5159
4 2730 2740 2700 2723
4 2730 2740 2723 2749
4 2723 2730 2749 2736
4 2700 2730 2723 2702
4 2730 2723 2702 2736
4 2700 2730 2702 2714
4 2730 2740 2749 2764
4 2749 2730 2764 2748
4 2764 2749 2748 2766
4 2749 2730 2748 2736
4 2730 2764 2748 2747
4 2748 2764 2766 2803
4 2764 2748 2747 2775
4 1925 1916 1927 1903
4 243 238 245 252
4 243 238 252 242
4 1847 1855 1867 1857
4 1867 1847 1857 1862
4 1867 1847 1862 1859
4 1855 1867 1857 1873
4 1847 1857 1862 1839
4 1847 1857 1839 1834
4 1857 1867 1862 1898
4 1857 1855 1873 1844
4 1857 1862 1839 1848
4 1873 1857 1844 1856
4 3123 3157 3139 3137
4 3139 3123 3137 3106
4 3137 3139 3106 3121
4 3157 3139 3137 3168
4 3139 3137 3168 3148
4 3139 3137 3148 3121
4 2416 2422 2410 2421
4 2422 2410 2421 2450
4 2899 2917 2888 2936
4 3093 3121 3113 3117
4 3121 3113 3117 3143
4 3117 3121 3143 3137
4 3093 3121 3117 3106
4 3113 3093 3117 3086
4 3093 3117 3086 3106
4 3117 3113 3086 3112
4 3113 3093 3086 3048
4 3113 3117 3143 3112
4 3117 3121 3137 3106
4 3086 3093 3106 3074
4 3086 3093 3074 3057
4 3086 3093 3057 3048
4 3486 3476 3442 3456
4 761 776 772 742
4 1466 1474 1458 1463
4 2565 2545 2562 2506
4 3517 3506 3489 3520
4 3438 3427 3417 3462
4 664 670 669 673
4 830 821 833 827
4 1284 1264 1276 1279
4 5760 5786 5791 5735
4 5786 5791 5735 5777
4 4492 4467 4503 4466
4 5732 5779 5786 5773
4 945 935 924 925
4 924 945 925 923
4 935 924 925 917
4 924 925 917 904
4 924 925 904 923
4 2731 2746 2759 2768
4 2139 2128 2143 2113
4 2128 2143 2113 2131
4 2859 2836 2824 2869
4 2100 2110 2131 2127
4 481 499 495 493
4 5087 5072 5056 5044
4 5087 5072 5044 5057
4 5447 5471 5520 5470
4 4858 4812 4829 4834
4 2709 2731 2719 2741
4 2719 2709 2741 2706
4 2390 2356 2370 2363
4 2370 2390 2363 2398
4 2363 2370 2398 2384
4 2356 2370 2363 2338
4 2370 2363 2338 2384
4 1638 1621 1635 1614
4 5570 5576 5629 5623
4 2869 2899 2888 2887
4 2869 2899 2887 2886
4 2899 2888 2887 2936
4 2888 2869 2887 2850
4 1884 1856 1870 1874
4 1884 1856 1874 1873
4 1856 1870 1874 1848
4 1870 1884 1874 1899
4 5291 5237 5263 5220
4 894 887 907 892
4 3872 3845 3895 3871
4 3872 3845 3871 3878
4 594 580 593 585
4 580 593 585 574
4 585 580 574 556
4 4136 4115 4095 4082
4 3033 3024 3063 3044
4 355 370 363 366
4 5383 5397 5395 5345
4 4726 4696 4759 4725
4 2090 2089 2063 2091
4 2090 2089 2091 2126
4 4093 4134 4104 4077
4 5274 5245 5258 5271
4 1053 1039 1045 1067
4 3087 3111 3118 3128
4 4176 4154 4142 4139
4 5353 5319 5351 5307
4 1769 1792 1790 1782
4 4921 4964 4939 4959
4 5177 5201 5153 5187
4 4009 3964 4015 4010
4 4900 4948 4903 4943
4 1460 1488 1465 1463
4 1465 1460 1463 1431
4 726 743 723 744
4 131 136 142 148
4 131 136 148 149
4 4918 4935 4890 4899
4 2226 2227 2252 2200
4 1300 1301 1306 1318
4 3091 3056 3070 3060
4 4814 4812 4858 4834
4 4814 4812 4834 4782
4 4814 4812 4782 4777
4 4782 4814 4777 4794
4 5148 5152 5160 5173
4 5247 5266 5272 5233
4 5247 5266 5233 5203
4 5523 5512 5561 5510
4 5684 5713 5677 5671
4 5675 5674 5731 5709
4 5819 5821 5770 5748
4 5821 5770 5748 5763
4 4495 4522 4523 4536
4 4523 4495 4536 4504
4 2087 2100 2073 2068
4 3068 3087 3044 3077
4 3068 3087 3077 3083
4 3087 3077 3083 3109
4 2205 2225 2227 2234
4 3632 3639 3604 3611
4 5350 5355 5303 5322
4 5429 5480 5457 5460
4 5429 5480 5460 5461
4 5480 5457 5460 5506
4 5457 5429 5460 5399
4 5429 5460 5399 5422
4 3759 3749 3785 3782
4 3963 3945 3989 4002
4 3912 3888 3887 3955
4 3912 3888 3955 3948
4 1865 1846 1852 1860
4 4286 4297 4313 4315
4 4286 4297 4315 4285
4 4313 4286 4315 4318
4 5814 5753 5756 5787
4 821 814 817 827
4 2554 2546 2584 2592
4 2750 2739 2724 2747
4 3383 3365 3349 3381
4 967 957 951 969
4 1630 1635 1649 1640
4 5442 5420 5439 5394
4 5154 5184 5185 5146
4 5185 5154 5146 5170
4 5184 5185 5146 5189
4 5185 5146 5189 5174
4 1140 1139 1133 1146
4 1133 1140 1146 1154
4 1133 1140 1154 1143
4 1133 1140 1143 1125
4 1140 1154 1143 1151
4 1140 1154 1151 1155
4 3016 3015 2998 3051
4 3261 3264 3262 3298
4 4858 4900 4860 4880
4 5617 5595 5627 5631
4 4995 4948 4967 4943
4 4995 4948 4943 4951
4 4948 4943 4951 4903
4 1717 1701 1700 1733
4 5120 5148 5083 5107
4 4424 4399 4379 4417
4 5859 5809 5829 5862
4 3915 3909 3851 3931
4 2318 2303 2320 2292
4 2318 2303 2292 2302
4 3694 3689 3661 3672
4 4729 4717 4751 4736
4 4717 4751 4736 4749
4 4751 4729 4736 4774
4 4717 4751 4749 4735
4 4751 4736 4749 4797
4 671 693 682 694
4 1641 1638 1635 1651
4 2446 2434 2448 2457
4 3692 3705 3713 3675
4 3705 3713 3675 3717
4 4103 4058 4084 4087
4 4103 4058 4087 4046
4 4058 4087 4046 4050
4 4058 4084 4087 4050
4 6118 6123 6119 6084
4 2096 2111 2121 2139
4 3197 3205 3218 3183
4 3205 3218 3183 3201
4 3197 3205 3183 3163
4 5119 5123 5077 5063
4 5077 5119 5063 5109
4 2491 2520 2506 2545
4 2198 2226 2218 2200
4 1640 1646 1664 1654
4 4984 4952 4973 5013
4 4641 4665 4660 4621
4 1172 1157 1161 1154
4 112 116 124 131
4 112 116 131 135
4 1504 1500 1477 1499
4 3667 3639 3662 3640
4 5751 5811 5750 5767
4 5751 5811 5767 5832
4 5750 5751 5767 5687
4 1099 1093 1112 1114
4 2638 2627 2626 2633
4 2626 2638 2633 2676
4 2638 2627 2633 2671
4 2638 2633 2676 2671
4 1342 1356 1336 1343
4 1356 1336 1343 1349
4 5008 4981 5003 4965
4 5008 4981 4965 4956
4 4981 5003 4965 4931
4 4965 4981 4931 4956
4 2705 2723 2736 2702
4 1714 1706 1733 1700
4 1714 1706 1700 1692
4 1706 1733 1700 1701
4 1700 1706 1701 1692
4 4874 4865 4919 4899
4 5574 5565 5519 5560
4 4590 4603 4602 4581
4 4590 4603 4581 4610
4 2068 2081 2097 2100
4 584 594 573 598
4 1168 1188 1180 1187
4 4412 4422 4450 4438
4 4412 4422 4438 4381
4 4378 4390 4358 4369
4 1094 1078 1092 1098
4 5517 5546 5571 5583
4 5668 5686 5674 5744
4 4741 4726 4759 4725
4 5170 5195 5156 5149
4 220 226 218 232
4 6120 6087 6086 6122
4 3979 3984 4037 4014
4 350 335 341 343
4 1417 1395 1401 1403
4 1395 1401 1403 1383
4 1401 1403 1383 1404
4 1401 1417 1403 1423
4 1403 1401 1423 1404
4 2084 2114 2101 2092
4 2114 2101 2092 2129
4 2101 2092 2129 2108
4 2101 2084 2092 2067
4 2092 2101 2067 2108
4 4265 4272 4296 4250
4 4265 4272 4250 4237
4 4272 4250 4237 4290
4 4250 4265 4237 4223
4 4237 4250 4223 4201
4 4265 4272 4237 4223
4 4272 4296 4250 4290
4 4250 4265 4223 4244
4 4748 4724 4741 4687
4 4495 4477 4499 4435
4 4876 4858 4829 4834
4 3309 3321 3339 3310
4 3321 3339 3310 3344
4 1537 1516 1539 1538
4 1539 1537 1538 1559
4 1516 1539 1538 1510
4 1019 1012 1000 1001
4 1000 1019 1001 1017
4 1001 1000 1017 1008
4 1012 1000 1001 993
4 1000 1001 993 984
4 1000 1001 984 982
4 1019 1001 1017 1013
4 1000 1019 1017 1008
4 5416 5394 5424 5363
4 3252 3251 3240 3274
4 3252 3251 3274 3300
4 3160 3141 3124 3111
4 3854 3880 3840 3888
4 3771 3747 3735 3753
4 3735 3771 3753 3745
4 3747 3735 3753 3729
4 3735 3771 3745 3756
4 4307 4272 4274 4312
4 2170 2139 2153 2164
4 5506 5538 5556 5514
4 4933 4956 4965 4931
4 847 839 852 846
4 5808 5806 5778 5827
4 4304 4265 4296 4282
4 4296 4304 4282 4319
4 4282 4296 4319 4305
4 2309 2290 2276 2292
4 3089 3064 3079 3077
4 3079 3089 3077 3128
4 3187 3165 3147 3184
4 2601 2625 2643 2609
4 2643 2601 2609 2588
4 941 957 959 951
4 3486 3501 3503 3490
4 996 995 1014 999
4 996 995 999 985
4 3522 3558 3548 3559
4 4138 4109 4140 4156
4 1846 1865 1868 1860
4 3029 3003 3014 3037
4 2916 2888 2917 2936
4 5502 5511 5547 5554
4 5547 5502 5554 5539
4 5554 5547 5539 5588
4 343 351 341 350
4 3888 3873 3887 3831
4 3974 3962 3923 3937
4 4934 4969 4958 4935
4 5290 5335 5312 5281
4 4095 4082 4131 4136
4 5287 5257 5230 5294
4 3927 3877 3890 3921
4 3579 3564 3547 3566
4 3547 3579 3566 3569
4 3579 3564 3566 3596
4 3566 3579 3596 3584
4 3564 3547 3566 3527
4 1877 1889 1903 1894
4 5278 5306 5251 5244
4 2803 2786 2793 2764
4 3365 3333 3349 3334
4 1458 1486 1460 1463
4 2366 2354 2340 2373
4 2665 2650 2662 2684
4 2665 2650 2684 2668
4 1202 1187 1193 1204
4 5298 5348 5276 5337
4 3564 3561 3527 3566
4 3564 3561 3566 3596
4 1766 1758 1771 1748
4 1758 1771 1748 1756
4 1771 1766 1748 1768
4 4093 4115 4135 4083
4 1342 1363 1356 1343
4 4435 4394 4431 4416
4 5778 5749 5737 5806
4 4990 4958 4988 5043
4 4286 4313 4278 4280
4 5367 5391 5327 5353
4 5367 5391 5353 5383
4 3639 3632 3637 3611
4 3990 3996 3936 3978
4 2161 2136 2135 2152
4 1597 1587 1606 1607
4 1587 1606 1607 1580
4 1606 1597 1607 1622
4 1607 1606 1622 1629
4 1607 1606 1629 1628
4 2803 2779 2786 2764
4 2803 2779 2764 2766
4 2514 2529 2530 2521
4 2514 2529 2521 2485
4 2530 2514 2521 2485
4 2016 2001 1985 2004
4 1759 1747 1768 1748
4 4184 4159 4187 4161
4 4187 4184 4161 4226
4 3569 3547 3538 3551
4 3538 3569 3551 3545
4 3538 3569 3545 3553
4 3890 3876 3921 3877
4 3890 3876 3877 3828
4 4473 4443 4412 4452
4 4473 4443 4452 4470
4 4443 4412 4452 4401
4 3159 3133 3151 3129
4 1168 1172 1187 1173
4 3669 3640 3680 3662
4 3413 3383 3404 3398
4 3413 3383 3398 3381
4 3383 3398 3381 3349
4 5507 5474 5451 5467
4 1510 1488 1507 1506
4 1507 1510 1506 1536
4 2770 2746 2735 2745
4 3777 3770 3751 3723
4 1757 1756 1744 1774
4 3548 3562 3546 3520
4 556 545 539 543
4 539 556 543 554
4 539 556 554 553
4 2939 2954 2935 2923
4 2939 2954 2923 2955
4 1987 1985 1961 1972
4 4565 4541 4580 4546
4 1856 1841 1844 1860
4 1841 1844 1860 1833
4 3972 3933 3963 3937
4 1257 1258 1244 1238
4 2154 2144 2129 2155
4 2129 2154 2155 2137
4 2154 2155 2137 2166
4 2129 2154 2137 2133
4 2154 2144 2155 2173
4 2155 2154 2173 2181
4 2155 2154 2181 2166
4 5558 5624 5587 5573
4 5587 5558 5573 5509
4 4684 4711 4682 4727
4 4684 4711 4727 4714
4 4682 4684 4727 4704
4 4682 4684 4704 4661
4 1774 1751 1769 1756
4 2664 2650 2636 2668
4 3408 3384 3410 3382
4 2559 2529 2521 2530
4 6165 6163 6157 6097
4 912 919 929 933
4 5511 5531 5499 5521
4 3029 3044 3069 3031
4 3044 3069 3031 3024
4 3031 3044 3024 3029
4 3069 3029 3031 3051
4 3031 3069 3051 3015
4 1654 1641 1657 1643
4 5222 5216 5234 5162
4 4962 4978 5013 4987
4 5391 5422 5385 5383
4 467 484 473 477
4 4638 4641 4678 4617
4 4865 4864 4830 4852
4 2781 2770 2791 2745
4 682 691 690 707
4 4884 4908 4862 4859
4 2575 2609 2588 2617
4 3871 3920 3895 3923
4 4556 4589 4555 4593
4 693 695 694 671
4 2766 2779 2798 2803
4 1579 1555 1565 1564
4 1555 1565 1564 1543
4 3979 3968 4022 4013
4 1197 1215 1194 1202
4 2072 2071 2099 2073
4 2072 2071 2073 2044
4 2099 2072 2073 2100
4 2073 2072 2044 2029
4 2071 2099 2073 2104
4 2071 2073 2044 2029
4 2073 2099 2100 2104
4 2099 2100 2104 2131
4 2099 2100 2131 2113
4 2104 2099 2131 2125
4 1064 1057 1051 1079
4 4412 4419 4378 4399
4 4951 4970 4922 4943
4 3908 3934 3910 3880
4 3908 3934 3880 3899
4 989 1006 997 1004
4 5152 5148 5200 5215
4 3273 3246 3252 3214
4 2242 2241 2262 2292
4 4006 4057 4023 4077
4 4057 4023 4077 4042
4 2624 2657 2638 2659
4 2657 2638 2659 2676
4 6116 6120 6086 6115
4 3124 3111 3130 3160
4 4483 4519 4473 4461
4 3991 3940 3964 3939
4 2395 2409 2413 2434
4 3179 3195 3180 3166
4 4902 4886 4851 4865
4 4851 4902 4865 4852
4 4090 4110 4070 4124
4 4090 4110 4124 4126
4 1092 1103 1093 1102
4 3319 3302 3287 3303
4 3287 3319 3303 3305
4 5680 5672 5629 5623
4 5044 5013 5057 5027
4 5023 4995 4967 4980
4 3770 3777 3725 3723
4 2518 2549 2508 2534
4 924 916 902 904
4 902 924 904 901
4 916 902 904 896
4 902 904 896 883
4 902 904 883 880
4 68 72 90 92
4 68 72 92 99
4 2164 2178 2163 2161
4 3867 3890 3851 3835
4 3867 3890 3835 3828
4 3851 3867 3835 3812
4 183 177 158 175
4 5556 5585 5611 5609
4 2890 2886 2861 2887
4 4537 4522 4544 4536
4 946 944 948 963
4 378 371 383 368
4 3038 3020 3056 3039
4 3038 3020 3039 3016
4 3020 3056 3039 3060
4 3039 3038 3016 3059
4 3039 3038 3059 3056
4 3016 3039 3059 3051
4 3056 3039 3060 3085
4 3038 3016 3059 3034
4 933 928 948 929
4 158 154 136 148
4 158 154 148 164
4 154 136 148 142
4 5814 5812 5753 5787
4 3677 3646 3668 3663
4 3677 3646 3663 3672
4 3663 3677 3672 3706
4 3668 3677 3663 3706
4 3646 3663 3672 3647
4 3672 3663 3706 3717
4 3663 3672 3647 3717
4 996 988 977 981
4 2678 2645 2677 2648
4 3394 3378 3405 3420
4 4619 4664 4636 4670
4 5820 5822 5763 5781
4 5820 5822 5781 5836
4 5822 5763 5781 5770
4 5781 5820 5836 5768
4 5781 5820 5768 5763
4 5836 5781 5768 5776
4 2966 2956 2936 2965
4 4495 4482 4460 4444
4 4495 4482 4444 4462
4 2109 2138 2127 2112
4 3059 3072 3085 3056
4 3547 3513 3538 3551
4 2741 2746 2745 2735
4 4642 4682 4674 4661
4 2476 2501 2509 2472
4 5099 5124 5153 5128
4 5153 5099 5128 5126
4 1542 1526 1540 1514
4 3302 3268 3287 3270
4 1298 1299 1288 1329
4 3150 3140 3155 3122
4 3150 3140 3122 3120
4 3205 3193 3174 3163
4 3837 3855 3831 3782
4 3220 3198 3187 3219
4 4854 4890 4870 4921
4 4636 4658 4670 4664
4 5528 5523 5576 5570
4 4277 4298 4310 4311
4 4310 4277 4311 4294
4 5488 5502 5547 5539
4 3108 3083 3111 3081
4 1971 1959 1958 1974
4 1959 1958 1974 1932
4 154 158 177 175
4 2477 2486 2506 2529
4 1746 1758 1766 1748
4 3067 3095 3076 3074
4 3076 3067 3074 3041
4 3074 3076 3041 3057
4 3095 3076 3074 3106
4 3076 3074 3106 3093
4 3076 3074 3093 3057
4 5683 5674 5728 5731
4 1961 1950 1972 1962
4 1950 1972 1962 1966
4 1950 1972 1966 1965
4 1972 1961 1962 1974
4 1972 1962 1966 1974
4 1774 1790 1796 1756
4 927 940 934 946
4 5417 5427 5467 5414
4 5417 5427 5414 5328
4 5471 5474 5528 5523
4 2438 2470 2454 2453
4 2438 2470 2453 2483
4 2470 2454 2453 2487
4 2454 2438 2453 2440
4 2438 2453 2440 2458
4 2470 2453 2483 2487
4 2453 2454 2440 2456
4 2440 2453 2456 2475
4 2453 2440 2458 2451
4 2453 2440 2451 2475
4 3604 3639 3628 3640
4 1486 1488 1460 1463
4 5257 5253 5230 5202
4 5253 5230 5202 5232
4 5230 5202 5232 5185
4 5230 5202 5185 5220
4 4145 4104 4134 4127
4 4145 4104 4127 4121
4 4134 4145 4127 4178
4 4104 4127 4121 4077
4 4127 4145 4121 4158
4 2463 2447 2437 2457
4 2447 2437 2457 2450
4 4372 4346 4340 4318
4 4413 4393 4430 4392
4 2105 2091 2089 2126
4 2524 2555 2501 2553
4 2524 2555 2553 2560
4 2555 2501 2553 2528
4 2555 2553 2560 2600
4 2553 2555 2528 2563
4 2553 2555 2563 2603
4 2553 2555 2603 2600
4 2518 2526 2554 2534
4 4200 4195 4156 4161
4 1776 1774 1796 1778
4 5466 5468 5448 5397
4 1835 1819 1822 1844
4 1822 1835 1844 1839
4 415 405 400 409
4 400 415 409 417
4 405 400 409 389
4 416 411 417 399
4 4385 4384 4376 4423
4 1704 1701 1723 1705
4 3070 3060 3058 3094
4 3070 3060 3094 3091
4 2548 2544 2511 2554
4 5848 5838 5890 5888
4 1059 1053 1069 1079
4 6128 6127 6092 6107
4 6128 6127 6107 6123
4 6127 6107 6123 6084
4 6107 6123 6084 6119
4 6127 6092 6107 6084
4 4690 4658 4636 4664
4 2160 2147 2153 2172
4 5835 5819 5770 5787
4 2072 2061 2044 2043
4 4502 4496 4527 4556
4 5850 5854 5896 5890
4 5896 5850 5890 5908
4 5890 5896 5908 5931
4 1390 1399 1394 1419
4 1733 1725 1700 1717
4 4443 4471 4469 4470
4 1852 1850 1869 1860
4 4520 4553 4535 4506
4 4535 4520 4506 4499
4 1402 1425 1416 1420
4 1419 1410 1391 1390
4 5321 5356 5394 5359
4 5356 5394 5359 5396
4 3446 3430 3413 3432
4 3413 3446 3432 3434
4 5707 5680 5651 5673
4 5651 5707 5673 5681
4 5680 5651 5673 5623
4 5651 5673 5623 5638
4 2905 2896 2926 2892
4 1817 1833 1834 1804
4 1817 1833 1804 1800
4 2834 2806 2822 2820
4 4429 4445 4438 4465
4 4438 4429 4465 4431
4 4429 4445 4465 4463
4 2857 2848 2832 2831
4 2832 2857 2831 2842
4 2848 2832 2831 2818
4 2832 2831 2818 2800
4 2832 2831 2800 2788
4 4821 4783 4822 4775
4 2940 2921 2920 2957
4 2921 2920 2957 2904
4 1831 1850 1825 1833
4 4016 4040 4051 4063
4 4298 4338 4310 4311
4 2899 2910 2917 2906
4 5272 5278 5244 5306
4 1114 1130 1123 1133
4 4691 4726 4741 4725
4 3796 3782 3831 3798
4 3831 3796 3798 3840
4 3831 3796 3840 3841
4 4352 4361 4378 4412
4 3020 3005 2991 3016
4 2477 2462 2466 2485
4 3742 3732 3707 3717
4 5266 5289 5272 5319
4 2620 2623 2655 2637
4 2620 2623 2637 2599
4 2623 2655 2637 2670
4 2655 2620 2637 2663
4 2637 2620 2599 2619
4 4054 4010 4059 4083
4 1232 1225 1231 1236
4 203 205 192 204
4 192 203 204 187
4 203 204 187 201
4 203 205 204 219
4 204 203 219 218
4 204 203 218 201
4 205 192 204 183
4 192 204 183 187
4 2565 2573 2538 2559
4 5898 5856 5877 5905
4 1256 1236 1242 1232
4 1700 1680 1666 1690
4 1700 1680 1690 1692
4 477 470 476 465
4 2377 2368 2351 2369
4 4920 4959 4906 4921
4 1385 1405 1397 1416
4 2141 2134 2120 2126
4 5505 5544 5546 5503
4 4943 4926 4894 4900
4 3938 3957 3905 3973
4 3938 3957 3973 4007
4 5009 4969 4984 4937
4 3832 3854 3840 3818
4 1477 1476 1499 1500
4 3698 3677 3668 3706
4 594 612 615 613
4 612 615 613 626
4 615 613 626 646
4 1443 1432 1452 1425
4 1443 1432 1425 1413
4 1452 1443 1425 1440
4 3133 3110 3116 3129
4 3430 3396 3413 3381
4 732 725 700 698
4 4935 4921 4890 4953
4 3883 3886 3834 3851
4 3886 3834 3851 3835
4 3834 3851 3835 3800
4 3851 3886 3835 3890
4 5418 5395 5448 5422
4 3147 3133 3120 3135
4 3120 3147 3135 3150
4 3147 3135 3150 3151
4 5417 5411 5427 5357
4 2758 2760 2790 2746
4 3274 3266 3273 3301
4 3648 3674 3659 3699
4 3648 3674 3699 3707
4 3674 3699 3707 3719
4 1614 1593 1584 1600
4 1614 1593 1600 1621
4 1593 1584 1600 1573
4 5397 5345 5364 5395
4 5364 5397 5395 5424
4 4819 4851 4852 4779
4 588 595 611 585
4 307 321 312 315
4 493 486 495 481
4 1791 1782 1778 1796
4 2973 2988 2967 2966
4 2973 2988 2966 2965
4 2988 2966 2965 2981
4 2965 2988 2981 2993
4 3854 3840 3818 3841
4 697 699 716 698
4 697 699 698 679
4 699 716 698 725
4 699 698 679 676
4 698 699 725 700
4 698 699 700 676
4 4691 4658 4661 4687
4 4658 4661 4687 4632
4 4661 4691 4687 4704
4 4661 4691 4704 4682
4 4687 4661 4704 4688
4 4661 4687 4632 4663
4 4691 4687 4704 4741
4 4704 4691 4741 4725
4 4687 4658 4632 4667
4 4687 4704 4741 4737
4 5052 5081 5105 5060
4 5081 5105 5060 5057
4 5289 5272 5319 5353
4 4815 4774 4797 4800
4 4815 4774 4800 4779
4 4774 4800 4779 4736
4 4774 4797 4800 4736
4 4800 4815 4779 4852
4 2691 2720 2714 2724
4 4626 4587 4611 4617
4 4693 4699 4718 4672
4 4693 4699 4672 4652
4 4699 4718 4672 4700
4 411 431 416 417
4 417 416 399 400
4 400 409 389 399
4 431 416 417 438
4 416 417 438 424
4 417 416 400 415
4 417 416 415 424
4 416 411 399 398
4 399 416 398 400
4 398 399 400 389
4 411 399 398 391
4 399 398 391 381
4 399 398 381 389
4 400 409 399 417
4 431 416 438 437
4 416 438 437 424
4 438 431 437 451
4 437 438 451 457
4 437 438 457 443
4 398 391 381 380
4 381 398 380 389
4 391 381 380 375
4 381 380 375 365
4 381 380 365 372
4 381 380 372 389
4 438 437 424 443
4 451 437 457 456
4 437 457 456 443
4 457 451 456 469
4 456 457 469 475
4 456 457 475 460
4 457 469 475 474
4 475 457 474 460
4 469 475 474 487
4 475 474 487 492
4 475 474 492 486
4 456 457 460 443
4 416 415 424 437
4 3014 3004 2971 2989
4 2493 2475 2481 2510
4 4451 4430 4467 4432
4 442 427 443 460
4 1934 1961 1960 1951
4 1934 1961 1951 1950
4 1961 1960 1951 1962
4 1951 1961 1962 1950
4 1962 1951 1950 1966
4 1962 1951 1966 1949
4 1960 1951 1962 1974
4 1951 1962 1974 1949
4 1951 1950 1966 1949
4 1962 1960 1974 1961
4 1951 1934 1950 1949
4 1960 1951 1974 1921
4 5507 5523 5474 5467
4 1994 2023 1995 2006
4 6100 6098 6050 6076
4 692 694 693 709
4 252 243 262 245
4 3266 3301 3286 3273
4 2354 2334 2340 2373
4 2354 2334 2373 2355
4 2917 2899 2906 2936
4 5235 5175 5222 5241
4 3186 3180 3166 3128
4 2444 2473 2472 2452
4 2473 2472 2452 2484
4 2472 2452 2484 2465
4 2473 2472 2484 2501
4 2484 2472 2465 2512
4 4088 4104 4121 4077
4 3348 3364 3339 3331
4 3348 3364 3331 3347
4 3339 3348 3331 3312
4 3339 3348 3312 3316
4 2657 2624 2661 2659
4 314 316 305 302
4 316 305 302 310
4 305 314 302 300
4 302 305 300 292
4 302 305 292 296
4 302 305 296 310
4 302 316 310 304
4 316 310 304 317
4 310 304 317 315
4 292 302 296 282
4 310 302 304 296
4 304 310 296 301
4 316 310 317 324
4 310 317 324 315
4 304 310 301 315
4 317 324 315 332
4 317 324 332 331
4 324 332 331 346
4 300 302 292 288
4 302 292 288 282
4 292 288 282 276
4 292 288 276 286
4 292 288 286 300
4 288 282 276 268
4 288 276 286 275
4 288 276 275 268
4 276 286 275 272
4 275 276 272 262
4 275 276 262 268
4 302 304 296 291
4 304 296 291 295
4 296 302 291 282
4 291 296 282 287
4 296 291 295 287
4 5570 5520 5525 5574
4 2099 2072 2100 2085
4 5184 5154 5127 5146
4 5154 5127 5146 5102
4 5146 5154 5102 5105
4 5127 5184 5146 5189
4 5127 5146 5102 5081
4 1918 1893 1914 1925
4 2778 2799 2782 2823
4 1565 1579 1564 1589
4 2549 2556 2508 2534
4 2549 2556 2534 2568
4 3889 3876 3877 3921
4 1958 1940 1921 1932
4 5185 5146 5174 5170
4 1720 1730 1703 1727
4 1730 1703 1727 1728
4 1720 1730 1727 1742
4 1730 1727 1742 1752
4 1730 1727 1752 1728
4 1703 1720 1727 1702
4 1727 1703 1702 1726
4 1703 1720 1702 1693
4 1702 1703 1693 1681
4 1702 1703 1681 1678
4 1742 1730 1752 1753
4 1730 1752 1753 1728
4 1752 1742 1753 1770
4 1753 1752 1770 1779
4 1753 1752 1779 1777
4 1693 1702 1681 1679
4 1702 1681 1679 1677
4 1681 1679 1677 1652
4 1681 1679 1652 1672
4 1681 1679 1672 1693
4 1770 1753 1779 1781
4 1753 1779 1781 1780
4 1779 1770 1781 1793
4 1781 1779 1793 1801
4 1781 1779 1801 1780
4 4505 4524 4519 4546
4 4505 4524 4546 4541
4 4519 4505 4546 4525
4 4505 4546 4525 4529
4 2337 2328 2300 2304
4 5350 5355 5322 5370
4 5322 5350 5370 5315
4 3755 3797 3795 3759
4 3961 3909 3931 3971
4 1599 1576 1590 1602
4 4563 4584 4553 4595
4 4584 4553 4595 4593
4 1403 1417 1424 1423
4 1424 1403 1423 1404
4 1417 1424 1423 1436
4 1424 1423 1436 1444
4 1424 1423 1444 1431
4 1423 1424 1404 1431
4 1701 1704 1682 1695
4 1701 1704 1695 1705
4 1874 1884 1873 1896
4 1873 1874 1896 1857
4 1873 1874 1857 1856
4 1874 1857 1856 1848
4 1895 1880 1901 1882
4 1880 1901 1882 1879
4 1895 1880 1882 1872
4 1880 1882 1872 1853
4 1880 1882 1853 1879
4 5835 5869 5866 5892
4 5835 5869 5892 5875
4 5869 5866 5892 5919
4 5381 5425 5350 5370
4 3396 3430 3411 3389
4 3411 3396 3389 3385
4 3389 3411 3385 3417
4 3389 3411 3417 3430
4 2050 2040 2032 2046
4 1360 1358 1381 1365
4 1358 1381 1365 1371
4 1360 1358 1365 1343
4 1358 1365 1343 1349
4 1365 1358 1371 1349
4 1371 1365 1349 1356
4 1381 1365 1371 1386
4 1381 1365 1386 1384
4 1365 1371 1386 1377
4 1371 1381 1386 1392
4 1386 1365 1377 1385
4 1386 1371 1392 1377
4 1360 1358 1343 1338
4 1358 1343 1338 1349
4 1343 1338 1349 1328
4 1343 1338 1328 1336
4 1349 1343 1328 1336
4 1365 1343 1349 1356
4 1365 1343 1356 1363
4 1381 1386 1392 1402
4 1381 1386 1402 1384
4 1343 1338 1336 1342
4 1343 1338 1342 1360
4 5416 5456 5486 5472
4 5043 5042 4988 4990
4 2922 2938 2953 2926
4 1159 1165 1149 1148
4 1165 1149 1148 1166
4 1149 1159 1148 1142
4 1148 1149 1142 1129
4 1148 1149 1129 1131
4 1148 1149 1131 1166
4 2621 2596 2618 2637
4 2621 2596 2637 2661
4 4366 4389 4364 4321
4 4389 4364 4321 4376
4 347 341 350 339
4 2915 2890 2923 2926
4 4082 4095 4073 4115
4 1985 1976 1958 2004
4 5480 5514 5506 5460
4 5480 5514 5460 5461
4 3166 3158 3128 3180
4 6155 6159 6091 6149
4 3931 3883 3971 3909
4 3931 3883 3909 3851
4 1898 1915 1911 1862
4 4774 4779 4729 4736
4 5209 5245 5215 5258
4 1695 1692 1680 1701
4 1680 1695 1701 1682
4 3099 3114 3119 3090
4 4307 4354 4348 4296
4 1642 1629 1652 1631
4 1629 1652 1631 1628
4 1631 1629 1628 1607
4 1631 1629 1607 1622
4 1631 1629 1622 1642
4 1652 1642 1631 1653
4 1631 1652 1653 1627
4 1652 1642 1653 1672
4 1653 1652 1672 1681
4 1653 1652 1681 1678
4 743 750 723 744
4 4970 4998 5021 4943
4 5274 5304 5271 5258
4 5274 5304 5258 5291
4 4597 4620 4646 4636
4 707 708 690 682
4 301 307 299 308
4 2746 2758 2745 2770
4 2746 2758 2770 2790
4 5837 5865 5863 5887
4 5837 5865 5887 5851
4 4320 4306 4323 4284
4 5348 5363 5321 5375
4 3638 3628 3658 3621
4 3638 3628 3621 3605
4 3638 3628 3605 3623
4 3605 3638 3623 3648
4 5097 5124 5099 5128
4 5097 5124 5128 5187
4 5099 5097 5128 5071
4 5097 5128 5071 5111
4 5128 5099 5071 5126
4 972 983 964 962
4 983 964 962 956
4 964 962 956 947
4 964 962 947 955
4 964 962 955 972
4 962 956 947 937
4 1783 1805 1797 1807
4 2241 2242 2252 2292
4 334 329 335 325
4 4737 4714 4729 4688
4 4737 4714 4688 4684
4 4995 4998 4951 4943
4 2427 2442 2440 2415
4 3404 3413 3398 3434
4 3798 3831 3840 3864
4 3495 3511 3479 3473
4 954 936 945 947
4 936 945 947 925
4 945 947 925 923
4 945 954 947 962
4 947 945 962 937
4 945 947 923 937
4 2558 2537 2568 2557
4 2558 2537 2557 2513
4 1112 1113 1114 1133
4 2064 2056 2038 2039
4 2038 2064 2039 2041
4 2056 2038 2039 2028
4 2038 2039 2028 2009
4 2038 2039 2009 2041
4 2121 2126 2090 2096
4 5813 5784 5750 5833
4 5813 5784 5833 5872
4 3611 3640 3637 3639
4 2347 2318 2335 2292
4 4012 3961 3984 3971
4 2989 3004 3018 3014
4 1312 1311 1295 1309
4 1795 1771 1784 1799
4 195 187 183 204
4 694 695 677 666
4 3719 3744 3707 3726
4 4475 4509 4522 4520
4 3121 3148 3113 3143
4 3121 3148 3143 3137
4 3148 3143 3137 3168
4 3148 3143 3168 3188
4 3148 3143 3188 3170
4 3148 3143 3170 3113
4 5304 5321 5363 5359
4 5304 5321 5359 5291
4 1014 996 999 1021
4 4908 4923 4887 4912
4 4923 4887 4912 4904
4 4908 4923 4912 4955
4 5008 5003 5058 5012
4 4237 4208 4178 4201
4 1877 1852 1860 1865
4 5855 5905 5904 5893
4 5905 5904 5893 5935
4 5855 5905 5893 5877
4 5904 5855 5893 5854
4 5905 5904 5935 5946
4 281 295 291 287
4 281 295 287 285
4 2916 2936 2926 2896
4 5220 5237 5225 5291
4 5305 5308 5287 5341
4 5287 5305 5341 5329
4 5305 5308 5341 5358
4 5308 5341 5358 5294
4 5308 5287 5341 5294
4 5305 5341 5329 5352
4 5305 5341 5352 5358
4 5341 5352 5358 5413
4 5341 5329 5352 5413
4 4123 4122 4092 4084
4 4122 4092 4084 4108
4 4092 4084 4108 4050
4 4092 4084 4050 4087
4 4050 4092 4087 4077
4 4092 4084 4087 4123
4 4087 4092 4123 4077
4 436 422 424 443
4 424 436 443 437
4 4307 4312 4318 4290
4 4318 4307 4290 4354
4 4312 4318 4290 4286
4 5667 5670 5608 5634
4 5818 5873 5836 5834
4 5836 5818 5834 5768
4 5834 5836 5768 5776
4 4319 4365 4344 4349
4 4319 4365 4349 4354
4 3092 3088 3118 3128
4 707 710 705 704
4 5673 5680 5623 5672
4 5673 5680 5672 5742
4 5623 5673 5672 5625
4 5683 5728 5743 5731
4 5728 5743 5731 5782
4 5743 5731 5782 5823
4 1540 1543 1564 1565
4 473 467 477 465
4 2072 2073 2100 2068
4 694 692 713 709
4 5820 5822 5836 5875
4 3561 3564 3595 3596
4 4375 4413 4392 4393
4 376 370 377 368
4 2561 2558 2557 2513
4 1784 1768 1799 1771
4 3069 3044 3077 3047
4 3886 3865 3834 3835
4 334 341 339 335
4 3628 3623 3617 3588
4 5034 5008 5058 5081
4 1030 1013 1019 1017
4 1312 1317 1328 1309
4 226 231 235 232
4 235 226 232 218
4 232 235 218 233
4 232 235 233 246
4 232 235 246 245
4 232 235 245 231
4 235 246 245 249
4 245 235 249 238
4 249 245 238 252
4 249 245 252 263
4 249 245 263 260
4 246 245 249 260
4 245 235 238 231
4 758 760 755 770
4 5546 5517 5505 5503
4 5447 5465 5409 5437
4 5447 5465 5437 5501
4 5465 5409 5437 5479
4 2983 3016 2998 2974
4 2402 2364 2403 2396
4 2136 2126 2124 2105
4 3237 3263 3245 3251
4 2654 2628 2679 2648
4 785 797 804 803
4 804 785 803 808
4 797 804 803 819
4 804 803 819 823
4 804 803 823 808
4 785 797 803 784
4 803 785 784 802
4 785 797 784 775
4 784 785 775 763
4 784 785 763 776
4 784 785 776 802
4 775 784 763 762
4 784 763 762 772
4 763 775 762 754
4 762 763 754 738
4 762 763 738 744
4 763 754 738 739
4 738 763 739 742
4 754 738 739 725
4 738 739 725 716
4 738 739 716 742
4 3506 3492 3472 3462
4 3091 3056 3060 3085
4 4366 4345 4388 4323
4 2147 2143 2172 2131
4 666 665 671 695
4 5589 5617 5627 5670
4 1593 1595 1576 1608
4 2140 2153 2161 2135
4 2140 2153 2135 2113
4 5710 5763 5748 5725
4 5710 5763 5725 5742
4 5763 5748 5725 5770
4 5748 5725 5770 5690
4 1039 1049 1045 1067
4 3774 3782 3798 3749
4 2548 2511 2503 2534
4 2548 2511 2534 2554
4 2534 2548 2554 2596
4 2503 2548 2534 2537
4 2091 2081 2062 2085
4 5420 5376 5378 5358
4 3850 3907 3870 3883
4 3870 3850 3883 3815
4 2693 2656 2672 2696
4 1511 1501 1495 1482
4 1495 1511 1482 1484
4 1482 1495 1484 1470
4 1495 1511 1484 1508
4 5901 5903 5934 5952
4 2265 2245 2252 2218
4 1825 1846 1833 1852
4 396 405 409 389
4 5105 5081 5113 5057
4 665 659 646 679
4 659 646 679 662
4 659 646 662 638
4 679 659 662 698
4 3938 3959 3971 3909
4 2309 2276 2298 2294
4 2309 2276 2294 2292
4 2012 2043 2016 2031
4 836 825 834 813
4 4168 4171 4212 4178
4 2974 2954 2955 2923
4 1943 1922 1928 1929
4 1922 1928 1929 1902
4 1928 1929 1902 1931
4 1928 1943 1929 1954
4 1929 1928 1954 1931
4 448 427 447 459
4 3274 3273 3252 3310
4 1459 1455 1464 1490
4 3361 3369 3339 3344
4 2325 2309 2298 2294
4 5486 5505 5456 5494
4 1724 1745 1731 1729
4 4779 4755 4729 4737
4 4779 4755 4737 4773
4 3439 3453 3458 3473
4 3458 3439 3473 3445
4 3266 3286 3249 3273
4 510 493 499 505
4 1467 1465 1435 1448
4 5123 5133 5144 5040
4 5132 5170 5149 5146
4 3938 3907 3909 3928
4 3938 3907 3928 3868
4 5818 5768 5742 5758
4 5818 5768 5758 5834
4 5768 5742 5758 5673
4 4995 5021 4998 4943
4 3591 3572 3574 3559
4 3374 3382 3410 3384
4 6056 6076 6050 6028
4 6050 6056 6028 6006
4 6056 6076 6028 6052
4 2940 2976 2957 2951
4 2976 2957 2951 2986
4 2957 2951 2986 2969
4 2957 2940 2951 2920
4 2951 2957 2920 2904
4 904 902 901 880
4 5630 5657 5597 5621
4 5657 5597 5621 5578
4 4602 4622 4601 4672
4 4346 4312 4317 4280
4 3031 3069 3015 3024
4 3015 3031 3024 3029
4 3087 3068 3081 3083
4 488 475 492 494
4 475 492 494 486
4 492 488 494 506
4 492 494 486 504
4 494 492 506 512
4 494 492 512 504
4 5808 5830 5855 5827
4 3155 3150 3122 3149
4 5691 5751 5687 5715
4 5687 5691 5715 5633
4 5687 5691 5633 5614
4 5633 5687 5614 5640
4 5266 5233 5203 5254
4 5233 5203 5254 5173
4 6102 6101 6052 6076
4 3893 3858 3866 3832
4 5272 5244 5307 5306
4 4589 4574 4579 4614
4 2023 1995 2022 2004
4 3724 3704 3720 3726
4 2592 2596 2554 2599
4 2592 2596 2599 2637
4 2596 2599 2637 2623
4 2554 2592 2599 2567
4 2592 2599 2567 2619
4 2599 2592 2637 2630
4 2599 2592 2630 2619
4 2596 2554 2599 2585
4 2599 2596 2585 2623
4 2592 2596 2637 2618
4 2637 2596 2623 2661
4 4201 4223 4244 4250
4 4244 4201 4250 4231
4 4244 4201 4231 4224
4 4250 4244 4231 4282
4 4250 4244 4282 4265
4 5399 5354 5362 5380
4 3589 3565 3575 3611
4 4534 4508 4527 4469
4 1187 1201 1185 1194
4 4774 4751 4797 4736
4 2023 2046 2022 2032
4 1506 1503 1507 1532
4 5120 5148 5107 5118
4 3551 3538 3545 3498
4 2622 2615 2569 2570
4 368 367 361 356
4 1871 1860 1873 1894
4 4451 4492 4466 4467
4 350 353 355 347
4 3251 3265 3280 3300
4 3280 3251 3300 3274
4 4469 4434 4449 4443
4 1748 1723 1734 1740
4 2346 2353 2362 2371
4 1975 1954 1981 1955
4 1954 1981 1955 1980
4 1975 1954 1955 1943
4 1954 1955 1943 1929
4 1954 1955 1929 1931
4 2405 2416 2410 2394
4 2405 2416 2394 2379
4 4417 4390 4399 4379
4 5273 5315 5322 5328
4 3011 2983 3015 2988
4 2983 3015 2988 2998
4 3015 3011 2988 3008
4 3015 3011 3008 3024
4 3008 3015 3024 2988
4 3015 3024 2988 2996
4 2988 3015 2996 2998
4 315 322 317 332
4 3914 3963 3937 3993
4 2797 2782 2823 2802
4 2768 2738 2731 2752
4 3671 3675 3643 3647
4 4393 4430 4392 4405
4 4393 4430 4405 4406
4 5507 5512 5467 5451
4 3548 3508 3520 3511
4 2631 2601 2643 2588
4 3949 3951 4018 3993
4 2335 2345 2371 2373
4 5378 5358 5403 5450
4 4696 4703 4746 4725
4 2543 2502 2523 2526
4 2502 2523 2526 2482
4 5220 5178 5202 5185
4 2850 2855 2888 2870
4 1668 1682 1697 1685
4 1697 1668 1685 1663
4 2032 2022 2053 2049
4 2032 2022 2049 2046
4 2022 2049 2046 2048
4 2049 2032 2046 2050
4 2049 2032 2050 2053
4 2046 2049 2050 2063
4 2022 2049 2048 2053
4 2046 2049 2063 2062
4 2046 2049 2062 2048
4 2049 2048 2053 2066
4 2049 2048 2066 2062
4 2066 2049 2062 2063
4 2048 2053 2066 2085
4 2048 2066 2062 2085
4 2053 2049 2066 2078
4 2049 2066 2078 2063
4 2049 2050 2063 2078
4 2049 2050 2078 2053
4 2062 2046 2048 2052
4 2062 2046 2052 2060
4 2062 2046 2060 2063
4 2066 2062 2085 2091
4 2066 2062 2091 2063
4 2694 2706 2689 2668
4 5000 5032 5035 4991
4 5032 5035 4991 5038
4 5035 4991 5038 4977
4 2450 2462 2485 2466
4 3369 3361 3392 3344
4 4211 4225 4202 4226
4 5447 5471 5470 5426
4 5556 5611 5586 5584
4 5556 5611 5584 5609
4 1635 1643 1619 1623
4 1635 1643 1623 1634
4 1643 1623 1634 1648
4 5806 5747 5737 5827
4 3983 3990 3934 3954
4 5851 5849 5900 5876
4 5851 5849 5876 5826
4 5900 5851 5876 5910
4 5849 5876 5826 5870
4 5255 5240 5224 5267
4 1839 1857 1848 1844
4 1839 1857 1844 1834
4 1356 1377 1379 1371
4 2550 2535 2532 2578
4 3365 3389 3363 3373
4 1872 1842 1851 1853
4 1842 1851 1853 1832
4 1851 1853 1832 1830
4 1851 1872 1853 1880
4 1853 1851 1880 1879
4 4143 4182 4157 4155
4 4182 4157 4155 4194
4 4157 4155 4194 4215
4 1139 1140 1155 1146
4 2544 2583 2567 2599
4 2583 2567 2599 2619
4 940 960 952 953
4 4461 4465 4505 4473
4 2232 2219 2204 2208
4 1621 1635 1614 1593
4 3671 3705 3675 3676
4 3671 3705 3676 3672
4 3675 3671 3676 3647
4 361 370 368 363
4 481 476 477 486
4 5735 5713 5786 5777
4 3380 3412 3400 3397
4 3380 3412 3397 3394
4 1668 1658 1682 1685
4 5123 5119 5133 5063
4 2899 2887 2886 2906
4 2899 2887 2906 2936
4 2887 2886 2906 2915
4 2886 2906 2915 2908
4 2906 2887 2915 2936
4 2915 2906 2936 2935
4 2915 2906 2935 2908
4 2936 2915 2935 2954
4 2935 2915 2908 2923
4 2936 2915 2954 2923
4 2915 2935 2954 2923
4 3191 3180 3210 3245
4 1717 1740 1723 1733
4 2261 2249 2278 2297
4 2278 2261 2297 2275
4 4348 4380 4365 4354
4 1844 1841 1819 1833
4 1958 1940 1948 1976
4 3018 3037 3055 3036
4 3055 3018 3036 3040
4 3018 3037 3036 3014
4 3037 3036 3014 3051
4 3037 3036 3051 3055
4 3036 3014 3051 2998
4 3014 3037 3051 3029
4 3036 3014 2998 3018
4 3036 3051 3055 3085
4 4006 4023 3955 3937
4 1813 1804 1782 1792
4 4622 4652 4672 4659
4 2425 2434 2396 2416
4 2425 2434 2416 2437
4 2434 2416 2437 2403
4 308 312 315 307
4 3797 3786 3795 3759
4 2967 2996 2971 2998
4 3238 3251 3237 3245
4 3205 3214 3246 3209
4 3776 3782 3744 3805
4 3702 3736 3723 3770
4 4450 4422 4461 4438
4 4022 4065 4037 4061
4 4065 4037 4061 4105
4 4221 4207 4242 4196
4 4207 4242 4196 4253
4 3047 3015 3059 3051
4 2905 2938 2922 2926
4 1079 1085 1067 1069
4 5389 5413 5352 5329
4 4026 4042 4085 4064
4 4026 4042 4064 4023
4 4085 4026 4064 4017
4 2053 2048 2070 2085
4 5520 5570 5533 5574
4 4257 4272 4242 4312
4 1820 1842 1832 1829
4 1832 1820 1829 1803
4 1829 1832 1803 1830
4 1842 1832 1829 1851
4 1832 1829 1851 1830
4 5791 5792 5735 5777
4 4207 4196 4213 4229
4 3902 3922 3951 3901
4 3902 3922 3901 3863
4 3902 3922 3863 3847
4 3901 3902 3863 3884
4 3901 3902 3884 3951
4 3922 3901 3863 3880
4 3863 3901 3884 3827
4 3884 3901 3951 3914
4 3884 3901 3914 3827
4 3863 3901 3827 3880
4 5233 5254 5193 5173
4 3314 3280 3300 3296
4 3280 3300 3296 3274
4 3649 3648 3638 3658
4 3892 3914 3884 3949
4 3914 3884 3949 3951
4 1368 1360 1373 1354
4 1360 1373 1354 1374
4 322 325 329 321
4 5303 5273 5322 5281
4 5154 5185 5178 5170
4 4495 4499 4536 4497
4 363 353 361 355
4 4594 4636 4582 4597
4 3984 4025 4037 4014
4 3984 4025 4014 4012
4 2062 2054 2048 2085
4 3593 3613 3578 3576
4 1993 2004 1971 1976
4 4782 4814 4794 4834
4 4814 4794 4834 4836
4 4794 4834 4836 4848
4 3705 3671 3707 3672
4 1351 1360 1342 1347
4 1351 1360 1347 1354
4 3742 3782 3749 3726
4 4161 4156 4135 4171
4 4156 4135 4171 4192
4 4161 4156 4171 4196
4 4156 4171 4196 4192
4 4111 4068 4101 4120
4 825 807 813 802
4 1225 1232 1243 1242
4 1519 1529 1501 1502
4 2675 2671 2701 2680
4 2701 2675 2680 2692
4 2675 2680 2692 2649
4 2675 2680 2649 2634
4 2675 2671 2680 2634
4 1426 1433 1439 1419
4 1433 1439 1419 1422
4 4524 4498 4541 4505
4 1913 1900 1890 1888
4 5775 5804 5801 5838
4 5001 5008 5052 5013
4 4226 4245 4239 4267
4 4226 4245 4267 4225
4 4239 4226 4267 4247
4 4239 4226 4247 4212
4 5655 5690 5630 5672
4 5393 5363 5416 5424
4 5393 5363 5424 5364
4 1974 1970 1949 1966
4 1646 1640 1649 1654
4 4469 4508 4459 4534
4 4641 4660 4678 4617
4 4641 4660 4617 4621
4 3902 3846 3863 3884
4 4626 4621 4587 4617
4 1416 1402 1420 1392
4 1420 1416 1392 1412
4 1420 1416 1412 1441
4 1816 1834 1847 1839
4 1847 1816 1839 1815
4 4943 4932 4980 4930
4 4943 4932 4930 4894
4 3730 3750 3778 3780
4 3750 3778 3780 3772
4 3730 3750 3780 3761
4 3778 3780 3772 3807
4 3778 3780 3807 3821
4 3778 3780 3821 3812
4 4594 4582 4537 4564
4 2537 2525 2508 2495
4 2537 2525 2495 2513
4 2525 2508 2495 2479
4 2495 2525 2479 2513
4 2389 2401 2399 2392
4 2401 2399 2392 2420
4 2399 2392 2420 2393
4 3129 3159 3128 3151
4 5812 5841 5810 5764
4 2795 2790 2760 2768
4 5519 5501 5533 5478
4 4144 4123 4159 4161
4 4144 4123 4161 4140
4 5588 5589 5591 5634
4 4860 4880 4881 4836
4 4880 4881 4836 4848
4 2526 2554 2534 2511
4 2031 2012 2003 2016
4 4401 4385 4372 4415
4 4401 4385 4415 4440
4 4385 4372 4415 4376
4 4385 4372 4376 4346
4 4372 4415 4376 4364
4 4415 4385 4376 4423
4 5744 5780 5731 5706
4 5744 5780 5706 5711
4 2505 2483 2506 2527
4 2506 2505 2527 2562
4 1633 1618 1623 1647
4 3978 4016 4039 4027
4 5783 5797 5759 5825
4 5783 5797 5825 5857
4 5759 5783 5825 5773
4 5783 5825 5773 5828
4 3572 3542 3574 3559
4 712 709 695 694
4 5899 5880 5902 5929
4 5902 5899 5929 5945
4 5899 5880 5929 5911
4 3439 3429 3406 3445
4 1261 1263 1243 1242
4 1663 1658 1685 1670
4 1658 1685 1670 1683
4 1685 1670 1683 1698
4 1685 1670 1698 1661
4 1683 1685 1698 1695
4 1683 1685 1695 1664
4 5898 5877 5907 5928
4 5907 5898 5928 5949
4 5898 5877 5928 5905
4 5198 5261 5209 5276
4 5061 5109 5070 5077
4 2946 2967 2938 2926
4 1855 1840 1873 1844
4 5185 5184 5232 5189
4 5019 4970 5021 4989
4 5019 4970 4989 4994
4 5021 5019 4989 5050
4 4989 5019 4994 5050
4 4036 4043 4085 4094
4 4085 4036 4094 4042
4 5838 5848 5799 5888
4 3114 3092 3118 3128
4 2592 2582 2614 2566
4 2592 2582 2566 2546
4 4684 4727 4704 4737
4 4684 4727 4737 4714
4 4158 4185 4201 4178
4 460 465 470 459
4 4688 4714 4660 4684
4 4660 4688 4684 4704
4 4684 4660 4704 4661
4 3136 3145 3161 3149
4 3161 3136 3149 3142
4 2692 2727 2707 2701
4 2707 2692 2701 2680
4 2701 2707 2680 2676
4 2727 2707 2701 2734
4 2707 2701 2734 2711
4 5081 5080 5127 5058
4 4686 4662 4717 4650
4 861 856 845 862
4 845 861 862 844
4 861 856 862 875
4 862 861 875 885
4 862 861 885 867
4 861 862 844 867
4 1254 1263 1268 1247
4 1263 1268 1247 1255
4 1247 1263 1255 1234
4 1263 1255 1234 1225
4 3566 3579 3584 3569
4 2016 2022 2004 2025
4 3041 3057 3021 3053
4 3057 3021 3053 3048
4 3053 3057 3048 3086
4 3053 3057 3086 3074
4 3041 3057 3053 3074
4 5609 5641 5584 5645
4 1895 1922 1902 1901
4 1902 1895 1901 1882
4 1901 1902 1882 1881
4 1922 1902 1901 1928
4 1902 1901 1928 1930
4 3990 3936 3954 3973
4 5548 5582 5595 5531
4 3420 3439 3417 3456
4 4310 4311 4327 4294
4 4696 4682 4703 4725
4 4696 4682 4725 4691
4 4583 4550 4560 4575
4 4713 4722 4664 4667
4 3763 3781 3746 3774
4 3781 3746 3774 3769
4 1706 1692 1705 1701
4 4190 4212 4196 4221
4 1917 1932 1949 1921
4 2415 2400 2395 2388
4 2395 2415 2388 2408
4 2415 2400 2388 2385
4 3150 3155 3190 3149
4 5867 5807 5831 5829
4 5807 5831 5829 5761
4 5831 5829 5761 5843
4 5829 5807 5761 5752
4 5807 5761 5752 5734
4 5761 5752 5734 5676
4 4582 4620 4597 4636
4 4040 4016 4043 4081
4 4040 4016 4081 4063
4 1807 1816 1839 1834
4 3268 3302 3265 3279
4 3268 3302 3279 3270
4 3265 3268 3279 3252
4 3279 3268 3270 3219
4 2892 2905 2922 2926
4 3870 3849 3815 3868
4 3870 3849 3868 3907
4 5385 5399 5362 5433
4 4757 4777 4794 4782
4 4794 4757 4782 4756
4 3606 3637 3611 3575
4 5890 5908 5888 5931
4 4587 4598 4609 4580
4 4598 4609 4580 4625
4 4609 4580 4625 4568
4 4598 4609 4625 4626
4 996 988 981 971
4 4229 4195 4230 4239
4 4604 4633 4589 4631
4 5353 5323 5289 5327
4 1756 1767 1758 1771
4 136 158 148 164
4 545 561 550 560
4 5774 5798 5780 5851
4 5775 5747 5827 5737
4 5775 5747 5737 5699
4 5827 5775 5737 5785
4 5827 5775 5785 5838
4 5775 5737 5785 5720
4 1271 1263 1279 1276
4 1271 1263 1276 1285
4 5357 5370 5350 5315
4 5357 5370 5315 5328
4 2566 2580 2614 2605
4 2566 2580 2605 2578
4 2580 2605 2578 2628
4 2605 2578 2628 2616
4 2580 2614 2605 2628
4 3210 3208 3191 3245
4 1501 1514 1495 1502
4 5737 5702 5723 5662
4 3365 3381 3389 3373
4 3381 3389 3373 3406
4 3389 3373 3406 3417
4 3373 3381 3406 3348
4 6125 6129 6082 6130
4 5468 5472 5517 5503
4 1382 1359 1362 1370
4 1359 1362 1370 1341
4 1061 1068 1073 1054
4 1479 1490 1502 1505
4 1479 1490 1505 1499
4 3618 3602 3609 3584
4 3618 3602 3584 3596
4 3584 3618 3596 3597
4 6092 6128 6107 6080
4 6128 6107 6080 6124
4 6107 6092 6080 6055
4 5036 4993 5039 5030
4 2970 2960 2992 3007
4 2992 2970 3007 2989
4 2451 2491 2478 2483
4 2027 2025 2052 2048
4 2619 2620 2663 2637
4 5355 5335 5303 5281
4 5107 5151 5148 5149
4 5107 5151 5149 5087
4 5148 5107 5149 5095
4 5148 5107 5095 5083
4 5355 5361 5312 5340
4 5355 5361 5340 5409
4 5361 5312 5340 5384
4 3429 3445 3412 3406
4 1589 1599 1590 1603
4 1590 1589 1603 1579
4 1603 1590 1579 1567
4 1590 1589 1579 1565
4 1579 1590 1565 1567
4 1539 1510 1536 1535
4 1536 1539 1535 1569
4 268 265 275 277
4 268 265 277 267
4 453 442 443 460
4 443 453 460 456
4 4953 4934 4897 4899
4 4934 4897 4899 4865
4 4897 4899 4865 4890
4 4953 4934 4899 4935
4 4897 4899 4890 4953
4 1068 1059 1064 1054
4 3759 3785 3775 3782
4 3785 3775 3782 3795
4 1844 1860 1833 1840
4 2011 2029 2002 1974
4 5891 5901 5934 5916
4 4466 4493 4511 4503
4 3371 3344 3363 3373
4 3371 3344 3373 3390
4 3373 3371 3390 3417
4 5871 5833 5862 5883
4 1509 1538 1535 1510
4 5034 5003 5005 5058
4 4039 4063 4081 4016
4 4039 4063 4016 4012
4 4081 4039 4016 4027
4 1488 1507 1506 1487
4 5805 5802 5863 5823
4 1657 1648 1658 1643
4 1658 1657 1643 1664
4 3646 3663 3647 3668
4 3663 3647 3668 3693
4 1894 1906 1903 1896
4 1894 1906 1896 1884
4 2247 2249 2220 2232
4 3024 3023 2988 2996
4 1847 1862 1859 1815
4 4995 5023 5021 4980
4 5023 5021 4980 5045
4 5023 5021 5045 5063
4 5045 5023 5063 5040
4 5021 4980 5045 4989
4 5429 5460 5422 5461
4 5460 5422 5461 5475
4 4296 4304 4319 4348
4 1793 1820 1803 1801
4 1803 1793 1801 1781
4 1801 1803 1781 1780
4 1820 1803 1801 1829
4 1803 1801 1829 1827
4 5311 5345 5326 5383
4 731 733 750 723
4 1618 1602 1623 1617
4 1618 1602 1617 1611
4 1623 1618 1617 1647
4 2394 2377 2368 2410
4 4196 4195 4229 4212
4 4196 4195 4212 4161
4 1151 1168 1155 1154
4 1263 1271 1268 1285
4 3158 3166 3179 3180
4 4084 4018 4050 4058
4 4881 4880 4922 4891
4 1835 1818 1848 1839
4 5811 5750 5767 5833
4 4594 4584 4632 4577
4 4594 4584 4577 4537
4 5860 5877 5830 5841
4 5860 5877 5841 5907
4 5877 5830 5841 5846
4 5306 5251 5244 5280
4 3643 3675 3665 3647
4 2265 2275 2247 2278
4 3883 3928 3971 3909
4 2359 2367 2378 2341
4 4136 4131 4169 4192
4 5565 5555 5501 5578
4 4821 4793 4790 4813
4 1925 1914 1891 1893
4 1948 1976 1957 1958
4 4134 4093 4135 4083
4 3964 4010 3941 3974
4 3964 4010 3974 3972
4 3941 3964 3974 3920
4 3941 3964 3920 3939
4 3964 3920 3939 3940
4 3964 3920 3940 3911
4 3964 3920 3911 3974
4 4010 3974 3972 4046
4 3492 3506 3501 3462
4 4654 4625 4649 4609
4 4654 4625 4609 4650
4 4625 4609 4650 4626
4 4609 4650 4626 4611
4 4609 4654 4650 4643
4 1039 1033 1022 1032
4 1039 1033 1032 1045
4 3417 3390 3392 3371
4 3390 3392 3371 3344
4 3628 3617 3589 3588
4 5866 5844 5819 5835
4 6092 6107 6084 6036
4 3825 3804 3827 3803
4 3827 3825 3803 3864
4 5303 5350 5322 5315
4 4253 4229 4230 4239
4 4967 4932 4940 4980
4 3858 3893 3874 3838
4 3858 3893 3838 3832
4 3874 3858 3838 3816
4 5707 5758 5742 5673
4 2246 2219 2232 2230
4 2246 2219 2230 2241
4 2164 2178 2161 2153
4 4352 4324 4364 4297
4 3680 3670 3697 3678
4 3680 3670 3678 3642
4 3670 3697 3678 3673
4 5890 5896 5931 5893
4 5673 5623 5638 5625
4 4379 4369 4358 4390
4 5737 5723 5741 5662
4 902 895 885 883
4 885 902 883 880
4 883 885 880 862
4 883 885 862 876
4 895 885 883 876
4 952 946 940 953
4 952 946 953 963
4 2594 2550 2562 2578
4 3596 3566 3584 3562
4 3627 3645 3658 3638
4 3645 3658 3638 3648
4 1485 1483 1495 1512
4 4727 4725 4682 4704
4 4727 4725 4704 4741
4 1385 1397 1386 1416
4 4919 4865 4902 4937
4 4902 4919 4937 4929
4 2848 2878 2865 2857
4 2865 2848 2857 2831
4 2857 2865 2831 2842
4 2878 2865 2857 2891
4 2865 2857 2891 2842
4 2760 2792 2775 2750
4 1250 1256 1261 1242
4 1250 1256 1242 1232
4 4993 4977 4975 5030
4 5774 5796 5851 5826
4 5774 5796 5826 5738
4 6087 6045 6070 6040
4 3430 3413 3432 3381
4 3145 3163 3183 3174
4 1439 1419 1413 1426
4 2794 2822 2793 2824
4 322 312 321 315
4 2155 2123 2130 2108
4 5391 5353 5383 5385
4 2702 2686 2700 2660
4 5699 5702 5737 5662
4 4145 4127 4178 4158
4 5530 5556 5586 5540
4 5342 5356 5321 5291
4 5834 5815 5872 5784
4 5834 5815 5784 5758
4 5083 5072 5120 5107
4 4890 4854 4830 4871
4 4890 4854 4871 4921
4 4854 4830 4871 4861
4 4871 4854 4861 4921
4 4861 4871 4921 4856
4 4861 4871 4856 4830
4 4937 4897 4865 4896
4 3542 3533 3517 3559
4 5132 5087 5105 5149
4 2634 2627 2671 2633
4 1648 1670 1663 1661
4 1987 2012 2016 2003
4 3878 3911 3923 3937
4 1539 1538 1510 1535
4 1539 1538 1535 1569
4 4122 4148 4092 4108
4 3383 3404 3398 3367
4 1657 1634 1648 1643
4 595 616 613 615
4 616 613 615 636
4 613 615 636 646
4 5841 5860 5810 5830
4 4843 4815 4797 4800
4 3588 3623 3605 3628
4 4890 4918 4899 4868
4 1656 1664 1682 1658
4 2870 2869 2850 2846
4 2870 2869 2846 2872
4 3606 3604 3611 3632
4 2925 2912 2934 2894
4 3726 3721 3759 3749
4 1921 1906 1918 1925
4 3885 3871 3878 3923
4 4042 4026 3998 4023
4 3998 4042 4023 4057
4 2714 2700 2682 2702
4 2700 2682 2702 2660
4 4222 4184 4226 4161
4 4337 4306 4326 4287
4 2182 2183 2157 2177
4 2183 2157 2177 2175
4 2157 2177 2175 2131
4 2177 2183 2175 2203
4 2175 2177 2203 2171
4 5721 5734 5669 5676
4 3044 3068 3077 3063
4 1623 1634 1621 1635
4 4470 4442 4469 4443
4 4499 4522 4536 4535
4 56 53 80 89
4 4320 4366 4321 4323
4 4321 4320 4323 4285
4 538 563 533 553
4 533 538 553 554
4 538 553 554 563
4 533 538 554 529
4 553 533 554 539
4 553 554 563 572
4 563 553 572 588
4 553 554 572 585
4 2559 2529 2530 2538
4 2559 2529 2538 2565
4 1049 1033 1045 1043
4 2539 2498 2499 2517
4 2498 2499 2517 2481
4 2499 2539 2517 2544
4 2498 2499 2481 2459
4 2481 2498 2459 2455
4 2459 2481 2455 2442
4 2517 2498 2481 2510
4 944 929 948 937
4 5260 5276 5198 5209
4 5198 5260 5209 5237
4 1850 1852 1825 1833
4 3131 3163 3145 3114
4 4262 4254 4300 4216
4 5056 5027 5044 5072
4 5027 5044 5072 5057
4 1716 1734 1746 1721
4 5770 5819 5748 5736
4 5748 5770 5736 5690
4 5770 5819 5736 5787
4 4771 4793 4813 4790
4 2478 2445 2451 2437
4 2493 2498 2531 2510
4 1157 1150 1153 1143
4 5827 5854 5850 5890
4 1085 1095 1107 1091
4 1402 1413 1391 1394
4 712 695 711 694
4 3753 3735 3745 3693
4 5195 5170 5225 5149
4 4763 4791 4741 4759
4 2227 2252 2200 2241
4 5676 5691 5633 5715
4 5676 5691 5715 5752
4 1529 1514 1501 1502
4 2269 2246 2232 2230
4 6107 6123 6119 6128
4 3331 3347 3318 3348
4 1647 1663 1660 1617
4 3922 3905 3973 3938
4 3973 3922 3938 3936
4 4104 4134 4127 4077
4 2650 2646 2636 2668
4 493 477 481 484
4 3336 3313 3320 3322
4 1256 1248 1236 1232
4 4394 4423 4431 4376
4 2971 2989 2953 2998
4 5157 5187 5124 5097
4 4172 4173 4214 4179
4 3492 3489 3472 3463
4 3492 3489 3463 3496
4 3489 3472 3463 3460
4 3489 3463 3496 3460
4 3496 3489 3460 3464
4 2475 2493 2491 2510
4 2448 2421 2450 2437
4 2890 2915 2887 2896
4 4190 4152 4169 4192
4 5873 5868 5903 5891
4 4440 4475 4423 4446
4 4440 4475 4446 4452
4 4423 4440 4446 4415
4 4440 4446 4415 4452
4 4446 4415 4452 4438
4 4415 4440 4452 4401
4 3462 3486 3456 3490
4 4522 4537 4523 4536
4 1207 1204 1226 1225
4 5413 5403 5352 5358
4 4296 4265 4250 4282
4 4250 4296 4282 4275
4 4296 4282 4275 4305
4 1530 1508 1511 1512
4 859 865 863 854
4 5844 5864 5895 5906
4 3339 3309 3310 3301
4 4523 4537 4564 4536
4 4564 4523 4536 4540
4 4229 4253 4213 4207
4 4049 4075 4022 4061
4 2562 2588 2594 2605
4 4312 4346 4340 4280
4 2112 2091 2126 2096
4 2112 2091 2096 2085
4 5267 5211 5224 5288
4 698 696 711 697
4 696 711 697 695
4 698 696 697 679
4 697 696 695 677
4 696 697 679 677
4 695 697 677 665
4 3763 3732 3774 3746
4 3732 3774 3746 3733
4 4763 4759 4789 4791
4 5520 5471 5523 5470
4 5523 5520 5470 5525
4 3008 2981 2988 2993
4 2490 2521 2529 2485
4 4176 4165 4213 4167
4 1485 1474 1503 1495
4 3525 3546 3511 3548
4 4284 4320 4285 4323
4 3517 3489 3496 3512
4 3489 3496 3512 3464
4 3344 3361 3321 3339
4 4245 4267 4285 4239
4 4570 4530 4551 4548
4 5394 5356 5420 5396
4 2658 2656 2696 2673
4 2658 2656 2673 2618
4 2696 2658 2673 2661
4 5284 5253 5232 5230
4 5008 4978 4985 5013
4 4067 4063 4012 4025
4 4067 4063 4025 4072
4 4067 4063 4072 4129
4 6104 6059 6078 6054
4 1782 1771 1767 1756
4 1767 1782 1756 1778
4 1782 1771 1756 1769
4 208 220 218 217
4 220 218 217 232
4 218 217 232 233
4 218 208 217 204
4 217 218 204 219
4 217 218 219 233
4 3333 3319 3334 3316
4 3334 3333 3316 3373
4 4233 4259 4277 4271
4 4277 4233 4271 4215
4 4233 4259 4271 4232
4 4271 4233 4232 4215
4 277 281 291 282
4 291 277 282 288
4 277 282 288 268
4 277 282 268 274
4 277 281 282 274
4 282 291 288 302
4 268 277 274 267
4 5488 5487 5539 5497
4 5487 5539 5497 5508
4 5488 5487 5497 5431
4 4686 4688 4647 4650
4 2624 2621 2661 2596
4 1934 1933 1906 1921
4 1933 1906 1921 1925
4 3787 3757 3779 3795
4 3779 3787 3795 3790
4 4264 4239 4245 4285
4 4264 4239 4285 4286
4 5696 5669 5734 5676
4 2319 2346 2336 2295
4 2463 2478 2457 2437
4 6104 6102 6054 6078
4 5272 5289 5327 5353
4 1599 1609 1621 1623
4 1599 1609 1623 1603
4 2888 2916 2896 2936
4 4134 4135 4171 4127
4 1819 1822 1844 1833
4 1822 1844 1833 1834
4 4553 4544 4535 4584
4 4544 4535 4584 4577
4 2149 2128 2116 2131
4 2874 2858 2882 2888
4 5003 5008 4965 5012
4 4237 4272 4290 4242
4 794 813 807 802
4 5074 5105 5101 5087
4 4962 4978 4987 4985
4 2265 2260 2289 2295
4 1425 1416 1420 1440
4 1416 1420 1440 1441
4 1425 1416 1440 1443
4 4795 4779 4815 4851
4 3156 3127 3160 3130
4 5060 5105 5087 5057
4 4149 4173 4172 4108
4 716 711 698 738
4 1733 1723 1736 1748
4 1733 1723 1748 1740
4 3051 3079 3092 3085
4 1766 1746 1748 1760
4 1766 1746 1760 1762
4 1746 1748 1760 1721
4 5358 5356 5308 5294
4 5778 5737 5741 5785
4 4530 4503 4551 4511
4 1700 1724 1725 1712
4 1276 1264 1263 1279
4 5188 5162 5222 5234
4 5222 5188 5234 5144
4 5624 5587 5573 5639
4 5624 5587 5639 5645
4 5587 5573 5639 5594
4 5587 5573 5594 5545
4 5587 5573 5545 5509
4 2618 2614 2656 2635
4 2618 2614 2635 2592
4 2635 2618 2592 2637
4 2614 2656 2635 2672
4 2656 2618 2635 2673
4 2656 2635 2672 2673
4 2672 2656 2673 2696
4 2451 2442 2455 2475
4 2442 2455 2475 2481
4 2451 2442 2475 2440
4 3033 3006 3023 3035
4 3719 3691 3726 3707
4 1778 1757 1776 1774
4 4121 4127 4158 4141
4 4121 4127 4141 4064
4 4158 4121 4141 4147
4 3694 3689 3672 3729
4 4729 4717 4736 4686
4 4736 4729 4686 4688
4 2416 2437 2421 2425
4 5523 5576 5570 5561
4 5841 5812 5814 5787
4 1360 1363 1342 1343
4 5273 5235 5241 5224
4 3263 3280 3262 3264
4 3533 3568 3559 3572
4 971 953 965 963
4 4834 4858 4880 4876
4 2048 2043 2070 2072
4 4736 4717 4749 4697
4 912 907 928 929
4 3333 3365 3363 3373
4 5215 5246 5223 5285
4 5345 5311 5364 5351
4 4323 4306 4337 4287
4 5641 5611 5584 5636
4 6159 6095 6091 6149
4 3695 3680 3697 3726
4 2483 2458 2478 2451
4 1740 1756 1758 1748
4 5375 5321 5394 5363
4 5745 5775 5801 5722
4 3473 3456 3472 3439
4 4935 4950 4999 4969
4 4646 4664 4685 4667
4 704 707 690 689
4 1840 1868 1873 1860
4 1907 1884 1899 1908
4 2365 2385 2367 2388
4 2367 2365 2388 2336
4 2889 2869 2895 2872
4 2895 2889 2872 2918
4 2487 2532 2504 2496
4 1867 1857 1873 1896
4 1460 1458 1463 1441
4 2155 2129 2137 2130
4 2129 2137 2130 2133
4 2137 2130 2133 2166
4 2137 2155 2130 2166
4 2846 2822 2836 2824
4 4967 5023 4980 5040
4 5837 5800 5802 5863
4 1987 1972 2003 1988
4 1987 1972 1988 1985
4 1988 1987 1985 2003
4 1972 2003 1988 1966
4 158 154 164 175
4 2154 2137 2133 2166
4 3458 3479 3445 3473
4 2568 2589 2558 2590
4 2634 2629 2671 2680
4 405 414 409 415
4 3309 3321 3310 3296
4 3321 3310 3296 3300
4 3321 3310 3300 3344
4 3310 3296 3300 3274
4 3296 3321 3300 3314
4 3300 3310 3274 3252
4 5345 5364 5395 5351
4 5364 5395 5351 5388
4 1439 1442 1438 1422
4 1576 1563 1548 1540
4 2160 2153 2161 2178
4 513 526 533 512
4 533 513 512 519
4 513 526 512 507
4 512 513 507 494
4 512 513 494 504
4 512 513 504 519
4 5570 5577 5533 5574
4 5570 5577 5574 5622
4 1556 1547 1549 1548
4 2100 2097 2127 2112
4 201 208 218 204
4 5237 5195 5209 5181
4 5439 5442 5394 5424
4 5287 5284 5329 5300
4 5284 5329 5300 5309
4 5287 5284 5300 5230
4 2601 2565 2588 2594
4 4829 4876 4834 4850
4 4829 4876 4850 4853
4 4834 4829 4850 4788
4 5868 5834 5872 5891
4 5868 5834 5891 5873
4 5752 5751 5691 5715
4 3729 3728 3694 3689
4 5651 5673 5638 5681
4 1529 1527 1514 1502
4 1527 1514 1502 1512
4 1514 1502 1512 1495
4 5420 5439 5394 5396
4 3110 3116 3129 3128
4 3147 3133 3135 3151
4 3133 3135 3151 3116
4 3133 3135 3116 3120
4 3135 3151 3116 3114
4 3151 3133 3116 3129
4 1592 1612 1598 1604
4 2297 2310 2314 2278
4 2297 2310 2278 2275
4 2310 2314 2278 2298
4 2314 2297 2278 2251
4 4742 4725 4787 4759
4 4742 4725 4759 4746
4 4725 4759 4746 4696
4 4261 4267 4225 4287
4 2455 2493 2481 2498
4 2493 2481 2498 2510
4 5732 5759 5773 5717
4 5773 5732 5717 5786
4 5675 5641 5645 5709
4 5044 5009 4984 5013
4 552 558 550 561
4 3490 3522 3472 3506
4 3472 3490 3506 3501
4 3903 3911 3878 3933
4 3911 3878 3933 3937
4 3903 3911 3933 3972
4 3911 3933 3972 3937
4 2645 2632 2669 2630
4 5842 5841 5787 5853
4 2310 2317 2314 2341
4 2317 2314 2341 2359
4 2314 2310 2341 2298
4 4906 4907 4859 4912
4 4445 4421 4463 4429
4 1754 1745 1729 1731
4 5613 5620 5616 5549
4 4226 4187 4211 4247
4 3786 3785 3819 3795
4 3984 3931 3961 3915
4 3630 3618 3609 3647
4 1473 1479 1499 1490
4 1473 1479 1490 1455
4 177 183 191 175
4 3673 3658 3678 3642
4 4192 4213 4195 4167
4 3268 3250 3270 3219
4 1917 1908 1921 1949
4 4271 4298 4277 4311
4 4277 4271 4311 4273
4 4277 4271 4273 4215
4 5245 5258 5271 5215
4 5622 5570 5623 5625
4 5232 5230 5185 5189
4 5230 5185 5189 5174
4 1932 1959 1949 1974
4 2730 2752 2747 2714
4 3225 3252 3240 3214
4 2204 2184 2176 2190
4 2176 2204 2190 2192
4 2176 2204 2192 2206
4 2793 2820 2795 2824
4 5903 5891 5934 5918
4 3233 3249 3218 3246
4 1483 1470 1495 1481
4 2760 2739 2750 2747
4 1576 1574 1590 1602
4 1574 1590 1602 1568
4 4057 4104 4088 4077
4 4088 4057 4077 4042
4 5397 5440 5468 5424
4 5757 5784 5758 5718
4 5758 5757 5718 5707
4 5783 5759 5727 5773
4 3055 3071 3090 3051
4 4556 4589 4593 4617
4 2626 2613 2659 2670
4 2659 2626 2670 2676
4 2670 2659 2676 2715
4 3344 3338 3363 3316
4 3305 3287 3278 3293
4 3278 3305 3293 3285
4 3278 3305 3285 3294
4 3287 3278 3293 3270
4 3305 3293 3285 3324
4 3293 3278 3285 3242
4 3293 3287 3270 3303
4 3287 3270 3303 3302
4 3270 3293 3303 3273
4 3293 3287 3303 3305
4 1563 1542 1540 1565
4 4090 4110 4126 4129
4 5586 5611 5636 5584
4 1893 1918 1896 1925
4 1966 1950 1965 1936
4 1965 1966 1936 1964
4 6054 6102 6052 6065
4 6052 6054 6065 6024
4 6054 6102 6065 6078
4 6052 6054 6024 6007
4 6065 6052 6024 6028
4 6102 6052 6065 6076
4 6054 6065 6024 6078
4 4950 4935 4958 4969
4 1927 1903 1920 1925
4 3834 3865 3816 3828
4 4749 4717 4735 4697
4 3771 3753 3745 3788
4 5643 5674 5635 5609
4 5295 5298 5337 5304
4 4893 4863 4843 4866
4 4893 4863 4866 4889
4 4863 4866 4889 4851
4 4843 4893 4866 4878
4 4866 4893 4889 4924
4 2207 2200 2185 2213
4 1844 1856 1860 1873
4 1860 1844 1873 1840
4 1588 1608 1602 1576
4 1643 1633 1619 1623
4 1643 1633 1623 1647
4 4571 4610 4590 4581
4 4131 4082 4098 4135
4 4426 4438 4381 4389
4 3446 3430 3432 3464
4 3432 3446 3464 3447
4 3464 3432 3447 3448
4 1718 1721 1698 1715
4 1698 1718 1715 1709
4 1718 1721 1715 1747
4 5425 5426 5447 5390
4 5425 5426 5390 5370
4 422 427 424 443
4 3835 3867 3828 3812
4 3828 3835 3812 3761
4 1188 1187 1204 1193
4 1188 1187 1193 1180
4 5850 5838 5804 5827
4 5512 5523 5467 5510
4 2258 2242 2262 2292
4 4070 4039 4081 4027
4 5691 5636 5633 5614
4 5311 5246 5271 5304
4 5246 5271 5304 5258
4 3591 3621 3628 3599
4 3591 3621 3599 3595
4 3621 3628 3599 3605
4 3628 3599 3605 3559
4 3599 3621 3605 3595
4 1538 1539 1559 1569
4 2689 2665 2684 2668
4 5558 5542 5573 5509
4 647 628 626 646
4 2321 2347 2333 2299
4 2321 2347 2299 2292
4 3779 3755 3795 3757
4 4494 4470 4471 4473
4 2937 2925 2934 2975
4 5291 5308 5356 5294
4 5291 5308 5294 5220
4 4120 4143 4157 4155
4 4157 4120 4155 4118
4 4070 4090 4124 4081
4 4090 4124 4081 4126
4 2392 2366 2361 2372
4 2361 2392 2372 2374
4 2361 2392 2374 2393
4 3782 3805 3837 3855
4 3805 3837 3855 3878
4 2677 2645 2669 2630
4 5547 5539 5588 5591
4 3364 3380 3347 3348
4 3333 3315 3316 3338
4 3860 3829 3819 3878
4 2249 2247 2278 2269
4 5457 5460 5506 5482
4 4380 4394 4365 4354
4 3802 3842 3819 3864
4 3802 3842 3864 3803
4 2882 2850 2888 2858
4 1488 1486 1487 1463
4 3010 3041 3021 3017
4 3041 3021 3017 3053
4 3021 3017 3053 3048
4 3021 3010 3017 2986
4 3017 3021 2986 2969
4 3059 3039 3056 3085
4 3059 3039 3085 3051
4 2462 2457 2466 2450
4 5703 5736 5726 5679
4 5736 5726 5679 5770
4 5726 5703 5679 5665
4 5736 5726 5770 5787
4 5240 5207 5224 5211
4 3315 3302 3316 3300
4 3316 3315 3300 3338
4 68 72 99 89
4 4222 4239 4200 4161
4 2432 2442 2427 2408
4 3406 3420 3378 3394
4 3378 3406 3394 3397
4 2660 2683 2682 2643
4 4062 4108 4080 4112
4 4108 4080 4112 4130
4 4080 4062 4112 4070
4 4062 4112 4070 4110
4 4112 4080 4070 4113
4 4080 4062 4070 4017
4 5201 5227 5244 5187
4 3029 3031 3051 3014
4 3029 3031 3014 3015
4 3031 3014 3015 3051
4 3319 3302 3303 3316
4 3302 3303 3316 3279
4 3303 3316 3279 3312
4 3302 3303 3279 3270
4 3303 3279 3270 3273
4 3316 3302 3279 3300
4 3279 3316 3300 3310
4 3316 3300 3310 3344
4 3300 3279 3310 3252
4 2098 2085 2072 2099
4 4221 4242 4237 4212
4 4221 4242 4212 4196
4 4242 4212 4196 4253
4 4242 4237 4212 4247
4 4237 4212 4247 4178
4 4647 4625 4650 4626
4 4650 4647 4626 4688
4 3184 3219 3214 3209
4 3184 3219 3209 3187
4 3219 3214 3209 3270
4 3579 3596 3584 3602
4 3584 3579 3602 3569
4 3602 3584 3569 3609
4 1958 1971 1974 2004
4 3060 3058 3094 3066
4 4293 4312 4257 4280
4 4293 4312 4280 4317
4 3706 3672 3717 3729
4 3717 3706 3729 3753
4 3706 3729 3753 3735
4 3729 3717 3753 3774
4 5321 5356 5359 5291
4 4353 4375 4357 4393
4 3729 3747 3749 3753
4 5511 5488 5521 5499
4 5123 5135 5115 5158
4 971 966 963 979
4 971 966 979 988
4 4518 4527 4553 4520
4 5754 5764 5723 5689
4 1405 1385 1413 1416
4 4082 4131 4136 4135
4 4131 4136 4135 4192
4 5187 5233 5244 5193
4 5187 5233 5193 5173
4 5193 5187 5173 5128
4 594 580 585 615
4 1140 1146 1154 1155
4 504 493 495 499
4 1554 1534 1541 1568
4 1847 1855 1857 1834
4 5630 5690 5657 5648
4 5630 5690 5648 5672
4 5690 5657 5648 5679
4 5690 5657 5679 5736
4 5657 5648 5679 5621
4 5657 5648 5621 5630
4 5648 5679 5621 5650
4 5679 5657 5621 5578
4 5648 5690 5679 5725
4 3748 3744 3726 3795
4 5246 5215 5271 5258
4 5363 5337 5298 5304
4 2621 2618 2658 2637
4 1906 1920 1903 1925
4 2295 2291 2265 2292
4 4452 4442 4443 4401
4 2843 2850 2825 2820
4 2850 2825 2820 2824
4 1948 1957 1941 1958
4 5636 5676 5633 5607
4 5636 5676 5607 5641
4 3140 3155 3122 3105
4 3122 3140 3105 3120
4 3378 3394 3380 3397
4 1037 1030 1019 1038
4 1019 1037 1038 1043
4 4043 3997 4027 4016
4 2176 2158 2149 2172
4 1736 1759 1748 1747
4 1857 1844 1856 1848
4 2543 2566 2546 2526
4 3923 3912 3872 3887
4 3614 3602 3618 3596
4 3618 3614 3596 3645
4 2299 2295 2335 2346
4 887 868 880 867
4 868 880 867 844
4 5731 5721 5709 5761
4 946 933 929 919
4 4065 4075 4118 4105
4 4590 4602 4601 4528
4 1721 1736 1748 1747
4 2534 2568 2548 2596
4 3367 3349 3342 3352
4 3342 3367 3352 3345
4 3342 3367 3345 3357
4 3349 3342 3352 3334
4 3367 3352 3345 3387
4 3352 3342 3345 3324
4 3352 3349 3334 3381
4 3342 3345 3324 3305
4 3345 3352 3324 3366
4 3871 3836 3859 3829
4 4475 4440 4470 4452
4 4885 4859 4821 4856
4 4667 4636 4632 4611
4 957 951 969 959
4 3167 3138 3186 3128
4 2084 2056 2064 2067
4 2056 2064 2067 2039
4 2064 2067 2039 2041
4 2064 2084 2067 2092
4 2067 2064 2092 2077
4 2067 2064 2077 2041
4 3704 3695 3720 3726
4 4158 4201 4181 4186
4 4158 4201 4186 4178
4 4201 4186 4178 4237
4 4186 4158 4178 4141
4 4186 4158 4141 4181
4 5620 5563 5559 5544
4 5563 5559 5544 5494
4 5347 5385 5362 5307
4 1596 1599 1621 1593
4 1596 1599 1593 1576
4 1599 1593 1576 1608
4 5519 5565 5501 5578
4 5713 5732 5786 5717
4 3058 3070 3094 3105
4 3070 3094 3105 3091
4 5450 5454 5481 5488
4 5450 5454 5488 5431
4 5481 5450 5488 5499
4 3882 3844 3916 3879
4 3180 3186 3141 3128
4 2505 2533 2550 2562
4 3864 3914 3887 3840
4 4451 4466 4432 4467
4 2500 2543 2523 2532
4 3562 3576 3578 3592
4 3578 3562 3592 3567
4 1976 1978 1957 1993
4 4477 4475 4499 4446
4 4477 4475 4446 4423
4 2616 2648 2628 2605
4 2648 2628 2605 2654
4 442 459 427 460
4 2960 2945 2919 2909
4 2945 2919 2909 2922
4 2863 2874 2892 2873
4 2892 2863 2873 2877
4 2863 2874 2873 2858
4 2874 2873 2858 2896
4 2873 2858 2896 2890
4 2874 2873 2896 2892
4 2858 2874 2896 2888
4 2873 2863 2858 2825
4 2873 2896 2892 2926
4 2858 2873 2825 2861
4 4759 4746 4786 4742
4 1276 1263 1268 1285
4 5335 5312 5281 5355
4 5822 5821 5763 5770
4 4575 4556 4533 4560
4 4556 4533 4560 4535
4 4375 4392 4357 4393
4 4392 4357 4393 4374
4 1477 1479 1505 1499
4 4876 4894 4900 4880
4 4876 4894 4880 4850
4 4894 4900 4880 4943
4 4894 4880 4850 4848
4 4880 4894 4943 4930
4 4876 4894 4850 4932
4 1654 1635 1640 1649
4 5285 5266 5223 5254
4 6112 6113 6081 6115
4 5854 5827 5855 5893
4 4921 4964 4959 4975
4 5156 5181 5147 5209
4 996 1007 1022 1021
4 1151 1140 1138 1143
4 1263 1261 1279 1264
4 2298 2276 2269 2294
4 1536 1507 1534 1532
4 2249 2237 2220 2203
4 2237 2220 2203 2218
4 3179 3156 3171 3196
4 3156 3171 3196 3130
4 1455 1439 1443 1464
4 4954 4907 4906 4912
4 5623 5651 5638 5603
4 3119 3131 3145 3114
4 4043 4027 4085 4081
4 4548 4571 4590 4581
4 4037 4044 4105 4078
4 4037 4044 4078 4063
4 4044 4105 4078 4051
4 4078 4044 4051 4063
4 4051 4078 4063 4100
4 1658 1647 1643 1623
4 5003 4981 5005 4931
4 4063 4090 4081 4126
4 1862 1847 1839 1815
4 5672 5622 5625 5648
4 5672 5622 5648 5630
4 5474 5471 5426 5467
4 5574 5621 5560 5625
4 4119 4161 4135 4137
4 4135 4119 4137 4083
4 4135 4119 4083 4059
4 2720 2739 2714 2724
4 2820 2793 2806 2822
4 5151 5156 5209 5215
4 1797 1815 1811 1785
4 1815 1811 1785 1812
4 3147 3150 3187 3184
4 4423 4435 4431 4477
4 2135 2112 2126 2140
4 5137 5163 5148 5083
4 1095 1114 1107 1112
4 3058 3060 3019 3066
4 131 136 149 135
4 1682 1704 1697 1695
4 4899 4864 4890 4825
4 918 933 946 919
4 1870 1874 1848 1862
4 2367 2385 2378 2418
4 2484 2513 2512 2465
4 5837 5798 5851 5780
4 5546 5549 5590 5544
4 5549 5590 5544 5620
4 5590 5546 5544 5575
4 5590 5546 5575 5628
4 5544 5590 5575 5620
4 4159 4187 4161 4148
4 4159 4187 4148 4188
4 4187 4161 4148 4137
4 5742 5680 5707 5673
4 1226 1225 1243 1230
4 1226 1225 1230 1219
4 1243 1226 1230 1237
4 1230 1226 1219 1237
4 1219 1230 1237 1227
4 1230 1237 1227 1247
4 1227 1230 1247 1234
4 1227 1230 1234 1225
4 1230 1247 1234 1263
4 1230 1234 1225 1263
4 1219 1230 1227 1207
4 1237 1227 1247 1249
4 1230 1227 1207 1225
4 1230 1237 1247 1254
4 1230 1237 1254 1243
4 1219 1230 1207 1225
4 1916 1925 1891 1903
4 1114 1113 1130 1133
4 2183 2182 2218 2177
4 680 690 678 689
4 2172 2184 2208 2190
4 2208 2172 2190 2177
4 2190 2208 2177 2220
4 2172 2184 2190 2176
4 2184 2208 2190 2204
4 2172 2190 2177 2149
4 2190 2208 2220 2204
4 5802 5743 5782 5823
4 3646 3645 3614 3618
4 2748 2730 2747 2704
4 4044 4037 4025 4063
4 4932 4926 4940 4876
4 5668 5711 5686 5744
4 1898 1908 1915 1886
4 2366 2340 2361 2372
4 5821 5822 5875 5835
4 4084 4103 4087 4123
4 4103 4087 4123 4119
4 4087 4123 4119 4083
4 4123 4103 4119 4140
4 3394 3429 3412 3406
4 1607 1606 1628 1580
4 1986 2011 2002 1974
4 116 112 122 135
4 5077 5135 5109 5115
4 5403 5413 5450 5358
4 5472 5505 5517 5503
4 5472 5505 5503 5442
4 3087 3088 3044 3077
4 3087 3088 3077 3128
4 3411 3438 3417 3440
4 3411 3438 3440 3430
4 3440 3411 3430 3417
4 4816 4822 4784 4791
4 3145 3183 3161 3162
4 3145 3183 3162 3174
4 1320 1319 1342 1338
4 927 915 931 922
4 2638 2657 2671 2676
4 2657 2671 2676 2711
4 2147 2160 2157 2182
4 2147 2160 2182 2172
4 3085 3091 3120 3094
4 868 857 851 867
4 5000 5025 4974 5002
4 5025 4974 5002 5015
4 5025 4974 5015 5004
4 5000 5025 5002 5035
4 5002 5025 5015 5076
4 5002 5000 5035 4954
4 3662 3639 3637 3640
4 4025 4016 4051 4063
4 4025 4016 4063 4012
4 2336 2353 2365 2388
4 2936 2943 2973 2966
4 2936 2943 2966 2965
4 3533 3506 3517 3559
4 5546 5571 5583 5628
4 1790 1774 1769 1756
4 3880 3854 3899 3888
4 3854 3899 3888 3841
4 3681 3679 3660 3730
4 887 907 892 901
4 1507 1508 1534 1532
4 5832 5829 5843 5761
4 4250 4237 4290 4247
4 4250 4237 4247 4186
4 4319 4348 4365 4354
4 1062 1045 1063 1043
4 1549 1540 1564 1576
4 5841 5842 5895 5853
4 2952 2970 2992 2989
4 1664 1680 1682 1695
4 1664 1680 1695 1683
4 4696 4726 4691 4725
4 4903 4951 4922 4943
4 4366 4347 4321 4364
4 4347 4321 4364 4315
4 4321 4364 4315 4376
4 4347 4321 4315 4297
4 4364 4347 4315 4297
4 4321 4315 4297 4285
4 4321 4315 4285 4290
4 3138 3167 3163 3114
4 2516 2537 2503 2495
4 2503 2516 2495 2465
4 2516 2537 2495 2513
4 2537 2503 2495 2534
4 5554 5589 5582 5531
4 3155 3164 3190 3203
4 3164 3190 3203 3187
4 2291 2307 2336 2295
4 3015 3016 3034 3059
4 3015 3016 3059 3051
4 2956 2965 2933 2936
4 3174 3184 3214 3209
4 3174 3184 3209 3150
4 1620 1623 1603 1617
4 1603 1620 1617 1613
4 1620 1623 1617 1648
4 4284 4261 4306 4267
4 5156 5195 5181 5209
4 2113 2143 2147 2131
4 5787 5816 5819 5736
4 3783 3803 3785 3753
4 5672 5710 5690 5725
4 5672 5710 5725 5742
4 2246 2266 2241 2230
4 2246 2266 2230 2269
4 2845 2864 2861 2884
4 2861 2845 2884 2873
4 1995 1979 1994 2006
4 1481 1459 1470 1490
4 3749 3785 3782 3798
4 4993 4959 4964 4975
4 922 940 927 946
4 2403 2373 2408 2395
4 666 659 665 677
4 665 666 677 695
4 666 659 677 696
4 659 665 677 679
4 677 659 679 696
4 4109 4138 4150 4156
4 6146 6141 6138 6083
4 1114 1123 1107 1112
4 5170 5220 5225 5185
4 4148 4123 4092 4137
4 5656 5671 5659 5684
4 2361 2340 2325 2342
4 2325 2361 2342 2341
4 2337 2329 2355 2347
4 4090 4063 4067 4129
4 928 948 929 937
4 928 948 937 923
4 3301 3318 3286 3312
4 813 794 808 802
4 794 808 802 776
4 1663 1668 1660 1697
4 3588 3576 3559 3605
4 4519 4546 4560 4525
4 4546 4560 4525 4577
4 1596 1593 1573 1576
4 2945 2952 2919 2922
4 3872 3855 3878 3923
4 4934 4899 4919 4865
4 3309 3301 3274 3310
4 3274 3309 3310 3296
4 3905 3847 3868 3922
4 3868 3905 3922 3938
4 6159 6161 6095 6153
4 4429 4438 4389 4431
4 3291 3299 3322 3259
4 4148 4159 4123 4161
4 5152 5199 5160 5173
4 4014 4037 4072 4025
4 3522 3548 3520 3559
4 802 791 794 776
4 4564 4582 4597 4594
4 997 1015 1008 1004
4 1008 997 1004 978
4 4954 4959 4977 4906
4 1865 1877 1885 1860
4 1877 1885 1860 1894
4 1934 1919 1950 1908
4 2834 2850 2820 2824
4 1474 1487 1503 1508
4 1514 1526 1511 1542
4 3511 3546 3536 3529
4 3511 3546 3529 3520
4 3290 3300 3265 3302
4 1363 1360 1384 1365
4 1363 1360 1365 1343
4 5311 5319 5285 5351
4 4494 4520 4470 4506
4 4470 4494 4506 4473
4 2621 2658 2661 2637
4 2539 2544 2567 2517
4 3940 3896 3920 3939
4 5013 5060 5057 5081
4 1906 1907 1934 1908
4 4188 4211 4202 4187
4 3569 3551 3545 3584
4 3569 3551 3584 3566
4 3551 3584 3566 3562
4 1867 1883 1898 1896
4 3639 3667 3628 3640
4 1933 1934 1960 1951
4 1960 1933 1951 1921
4 1960 1933 1921 1940
4 1933 1921 1940 1925
4 1960 1933 1940 1976
4 1940 1933 1925 1944
4 2219 2184 2204 2208
4 2219 2184 2208 2185
4 5855 5856 5905 5877
4 5801 5838 5799 5769
4 5801 5838 5769 5775
4 5799 5801 5769 5722
4 3301 3331 3318 3312
4 3301 3331 3312 3339
4 3043 3058 3019 3009
4 3019 3043 3009 3020
4 5784 5757 5750 5718
4 4161 4187 4226 4212
4 4863 4815 4843 4866
4 1884 1907 1906 1908
4 3498 3481 3469 3484
4 3469 3498 3484 3475
4 3469 3498 3475 3487
4 3481 3469 3484 3464
4 3498 3484 3475 3519
4 3484 3469 3475 3447
4 3484 3469 3447 3464
4 3484 3481 3464 3512
4 3447 3484 3464 3448
4 5124 5153 5128 5187
4 851 834 844 836
4 851 834 836 857
4 834 844 836 808
4 4583 4587 4621 4617
4 2996 3029 3014 3015
4 3014 2996 3015 2998
4 3014 2996 2998 2971
4 3015 3014 2998 3051
4 2988 2993 3023 3008
4 868 887 892 867
4 2651 2683 2643 2662
4 2508 2495 2479 2469
4 2830 2799 2819 2823
4 2830 2799 2823 2797
4 2819 2830 2823 2849
4 2823 2819 2849 2828
4 2819 2849 2828 2837
4 4365 4344 4349 4387
4 5934 5901 5952 5916
4 2504 2532 2523 2552
4 2523 2504 2552 2510
4 2523 2504 2510 2456
4 2504 2552 2510 2527
4 2504 2532 2552 2527
4 2510 2504 2527 2475
4 2403 2402 2396 2416
4 1254 1263 1247 1230
4 2071 2044 2031 2019
4 5184 5232 5189 5205
4 5901 5872 5916 5891
4 1862 1867 1859 1898
4 1972 1966 1965 2003
4 1590 1599 1602 1603
4 1602 1590 1603 1568
4 2498 2531 2510 2517
4 2297 2314 2313 2251
4 3020 3039 3016 2999
4 3020 3039 2999 3019
4 3039 3016 2999 3036
4 5021 5061 5070 5077
4 3420 3429 3394 3406
4 3880 3840 3888 3887
4 3840 3888 3887 3831
4 3840 3888 3831 3841
4 3887 3840 3831 3864
4 1203 1193 1184 1198
4 460 448 459 427
4 4201 4181 4186 4231
4 4186 4201 4231 4250
4 3278 3250 3242 3270
4 4610 4651 4622 4623
4 5516 5498 5448 5475
4 5448 5516 5475 5483
4 5516 5498 5475 5509
4 5475 5448 5483 5385
4 3039 3020 3060 3019
4 4899 4890 4868 4825
4 2064 2092 2077 2065
4 2077 2064 2065 2041
4 2065 2077 2041 2075
4 2092 2077 2065 2133
4 2539 2531 2498 2517
4 2104 2110 2107 2148
4 4372 4376 4346 4318
4 845 861 844 836
4 844 845 836 824
4 6162 6105 6156 6152
4 5350 5355 5370 5425
4 2736 2705 2702 2721
4 2736 2705 2721 2726
4 2705 2721 2726 2693
4 2721 2726 2693 2696
4 2705 2702 2721 2679
4 2721 2736 2726 2753
4 2726 2721 2753 2733
4 2705 2721 2693 2679
4 4326 4337 4287 4343
4 4172 4173 4179 4112
4 4725 4742 4703 4746
4 2730 2748 2736 2721
4 965 948 956 963
4 3612 3576 3605 3592
4 5516 5517 5573 5575
4 5540 5530 5482 5532
4 5530 5482 5532 5495
4 5540 5530 5532 5586
4 5482 5532 5495 5452
4 3771 3804 3783 3788
4 3771 3804 3788 3811
4 5199 5152 5215 5173
4 2491 2497 2545 2531
4 2415 2388 2408 2399
4 2062 2081 2068 2085
4 4506 4502 4494 4527
4 4494 4506 4527 4520
4 6080 6107 6055 6067
4 5465 5501 5479 5437
4 983 984 956 982
4 3815 3870 3868 3838
4 3815 3870 3838 3883
4 3870 3868 3838 3893
4 3870 3868 3893 3928
4 3870 3838 3883 3893
4 3868 3838 3893 3832
4 3893 3870 3928 3883
4 3870 3928 3883 3907
4 3868 3815 3838 3788
4 3920 3941 3923 3974
4 2542 2529 2506 2565
4 4369 4399 4378 4390
4 1386 1397 1392 1416
4 2751 2750 2724 2747
4 2751 2750 2747 2775
4 2747 2751 2775 2748
4 2751 2750 2775 2782
4 2747 2751 2748 2704
4 4955 4974 4923 4912
4 4749 4736 4697 4750
4 3438 3440 3430 3463
4 3438 3440 3463 3472
4 3440 3430 3463 3460
4 3440 3430 3460 3464
4 3463 3440 3460 3472
4 3460 3440 3464 3472
4 2983 3016 2974 2991
4 5873 5836 5834 5891
4 5836 5834 5891 5845
4 5836 5834 5845 5776
4 3745 3771 3788 3811
4 4070 4112 4113 4124
4 4070 4112 4124 4110
4 4112 4113 4124 4179
4 4112 4124 4110 4179
4 3512 3496 3481 3464
4 2502 2523 2482 2474
4 4880 4903 4922 4943
4 2177 2183 2203 2218
4 2385 2400 2418 2415
4 626 628 615 646
4 4127 4121 4077 4064
4 4077 4127 4064 4137
4 4077 4127 4137 4083
4 4632 4661 4663 4617
4 3015 3024 2996 3029
4 3365 3349 3381 3334
4 5934 5903 5918 5952
4 1193 1173 1184 1180
4 712 711 742 744
4 711 742 744 716
4 742 744 716 738
4 742 744 738 763
4 3771 3753 3788 3783
4 1466 1470 1440 1441
4 1608 1619 1623 1599
4 1623 1608 1599 1602
4 1608 1619 1599 1593
4 1619 1599 1593 1635
4 1715 1718 1747 1709
4 2754 2727 2734 2743
4 2734 2754 2743 2771
4 2743 2734 2771 2776
4 2727 2734 2743 2707
4 2734 2743 2707 2711
4 3512 3513 3547 3551
4 5519 5565 5578 5560
4 5656 5616 5661 5620
4 2697 2682 2683 2662
4 3412 3400 3397 3448
4 1685 1663 1670 1661
4 4108 4080 4130 4092
4 4108 4080 4092 4050
4 4080 4092 4050 4064
4 4080 4130 4092 4064
4 4130 4108 4092 4148
4 4092 4130 4148 4137
4 1511 1542 1530 1525
4 1530 1511 1525 1512
4 1511 1542 1525 1514
4 1525 1511 1514 1512
4 1514 1525 1512 1540
4 1514 1525 1540 1542
4 1525 1540 1542 1565
4 1542 1530 1525 1541
4 1530 1525 1541 1512
4 1525 1512 1540 1543
4 1540 1525 1543 1565
4 1525 1512 1543 1541
4 1543 1525 1541 1565
4 1815 1816 1811 1847
4 4401 4442 4440 4452
4 2472 2444 2452 2430
4 2452 2472 2430 2465
4 840 857 836 834
4 3677 3714 3672 3706
4 3677 3714 3706 3698
4 3714 3706 3698 3735
4 3714 3706 3735 3729
4 3714 3706 3729 3672
4 5432 5457 5482 5433
4 2554 2546 2592 2566
4 3726 3755 3757 3795
4 2046 2022 2048 2025
4 2372 2361 2374 2341
4 4010 4054 4053 4083
4 2637 2655 2663 2673
4 2637 2655 2673 2661
4 1503 1532 1512 1508
4 1556 1571 1548 1549
4 5671 5628 5626 5606
4 3707 3742 3717 3749
4 3707 3742 3749 3726
4 4244 4231 4282 4268
4 3438 3417 3440 3472
4 2431 2415 2438 2440
4 2431 2415 2440 2456
4 5880 5859 5902 5867
4 2458 2437 2478 2451
4 2731 2768 2752 2725
4 5107 5095 5083 5030
4 5146 5105 5113 5149
4 5831 5829 5843 5880
4 5831 5829 5880 5867
4 4813 4862 4842 4845
4 4813 4862 4845 4859
4 4392 4413 4432 4430
4 4432 4392 4430 4405
4 4432 4392 4405 4374
4 4430 4432 4405 4467
4 5254 5244 5193 5243
4 3538 3513 3498 3551
4 4473 4450 4461 4438
4 4473 4450 4438 4412
4 5671 5656 5677 5684
4 2310 2317 2341 2336
4 4124 4070 4081 4113
4 4178 4186 4141 4137
4 3940 3972 3964 3911
4 3972 3964 3911 3974
4 5667 5692 5727 5722
4 5727 5667 5722 5720
4 5123 5077 5063 5040
4 4239 4264 4266 4286
4 3611 3590 3565 3575
4 1818 1848 1839 1815
4 1298 1278 1287 1288
4 1278 1287 1288 1262
4 1287 1298 1288 1329
4 2831 2832 2842 2788
4 3472 3492 3463 3462
4 288 275 277 268
4 3400 3380 3397 3366
4 2694 2684 2668 2689
4 4171 4212 4178 4161
4 5354 5362 5380 5330
4 5362 5380 5330 5392
4 3759 3775 3795 3755
4 3759 3775 3755 3726
4 3775 3795 3755 3726
4 3506 3501 3462 3472
4 2342 2325 2341 2322
4 1150 1138 1137 1143
4 1447 1443 1439 1464
4 3642 3640 3628 3667
4 1470 1459 1447 1464
4 3209 3184 3187 3150
4 3662 3702 3669 3637
4 3669 3662 3637 3640
4 3498 3484 3519 3551
4 4297 4286 4264 4285
4 2679 2686 2702 2660
4 1565 1554 1542 1541
4 1565 1554 1541 1568
4 4789 4787 4830 4791
4 5170 5132 5154 5146
4 3410 3392 3384 3409
4 2453 2454 2456 2487
4 6100 6098 6076 6139
4 1795 1783 1771 1807
4 1771 1795 1807 1799
4 1237 1247 1254 1267
4 5838 5769 5775 5785
4 5865 5863 5887 5915
4 3778 3730 3780 3812
4 4018 3951 3999 3993
4 1465 1448 1444 1431
4 4143 4120 4101 4155
4 4120 4101 4155 4118
4 3821 3807 3839 3780
4 3839 3821 3780 3812
4 6163 6161 6153 6090
4 5670 5727 5705 5720
4 2373 2362 2395 2371
4 2373 2362 2371 2335
4 2362 2395 2371 2353
4 2373 2362 2335 2334
4 2373 2362 2334 2340
4 2362 2335 2334 2322
4 2335 2334 2322 2292
4 1716 1697 1721 1715
4 1716 1697 1715 1708
4 1721 1716 1715 1746
4 4520 4553 4506 4527
4 4829 4812 4788 4834
4 1146 1133 1124 1139
4 2661 2657 2659 2711
4 2819 2799 2778 2823
4 4173 4214 4179 4249
4 3167 3138 3128 3114
4 4636 4667 4646 4615
4 4935 4890 4899 4953
4 5146 5154 5105 5132
4 5105 5146 5132 5149
4 2614 2628 2654 2605
4 3922 3863 3847 3868
4 3863 3847 3868 3788
4 3922 3863 3868 3880
4 4242 4237 4247 4290
4 2558 2591 2557 2590
4 2557 2558 2590 2568
4 2967 2996 2998 2988
4 3840 3832 3818 3796
4 3818 3840 3796 3841
4 2682 2714 2702 2704
4 2682 2714 2704 2691
4 2702 2682 2704 2677
4 3079 3059 3085 3051
4 5621 5648 5650 5625
4 5621 5648 5625 5574
4 5621 5648 5574 5630
4 5051 5099 5076 5071
4 5051 5099 5071 5097
4 1194 1187 1181 1185
4 3973 4007 4039 3938
4 3668 3646 3630 3647
4 1279 1291 1295 1276
4 5487 5497 5431 5508
4 3561 3574 3542 3559
4 3561 3574 3559 3599
4 3561 3574 3599 3595
4 3559 3561 3599 3605
4 3561 3599 3605 3595
4 5021 5045 5063 5077
4 5045 5063 5077 5040
4 5021 5045 5077 5050
4 5045 5077 5050 5115
4 5077 5045 5040 5115
4 5021 5045 5050 4989
4 5363 5304 5359 5364
4 5304 5359 5364 5317
4 5359 5363 5364 5424
4 5364 5359 5424 5388
4 4121 4141 4147 4094
4 1413 1426 1416 1443
4 1413 1426 1443 1439
4 2068 2054 2062 2085
4 1155 1139 1146 1136
4 5583 5626 5639 5659
4 1857 1855 1844 1834
4 2219 2232 2230 2208
4 2230 2219 2208 2241
4 1423 1401 1400 1404
4 1401 1400 1404 1383
4 1400 1423 1404 1431
4 4871 4890 4921 4953
4 963 971 979 982
4 5935 5905 5946 5949
4 5810 5841 5830 5764
4 5447 5425 5390 5409
4 2082 2071 2075 2116
4 5763 5725 5742 5768
4 5539 5497 5508 5591
4 519 529 512 533
4 808 813 802 836
4 3714 3729 3694 3672
4 3205 3174 3209 3150
4 5614 5633 5640 5532
4 5797 5857 5795 5825
4 5061 5109 5077 5063
4 5077 5061 5063 5021
4 1225 1214 1231 1220
4 5385 5399 5433 5460
4 4863 4815 4866 4851
4 2274 2252 2242 2292
4 5025 5002 5035 5076
4 5509 5545 5475 5516
4 1140 1138 1143 1125
4 4003 3973 4039 4070
4 2359 2367 2341 2336
4 5625 5672 5648 5725
4 2798 2829 2817 2802
4 2798 2829 2802 2825
4 4237 4250 4201 4186
4 2585 2599 2544 2554
4 4632 4628 4661 4593
4 324 332 329 315
4 4880 4834 4876 4850
4 4880 4834 4850 4848
4 4834 4850 4848 4756
4 4051 4078 4100 4105
4 5734 5721 5805 5831
4 5651 5638 5603 5681
4 2737 2751 2724 2704
4 5904 5893 5935 5931
4 4889 4902 4851 4852
4 3689 3678 3707 3726
4 5201 5231 5179 5206
4 5231 5179 5206 5186
4 2590 2633 2627 2591
4 1653 1652 1678 1627
4 3606 3589 3575 3611
4 3219 3189 3214 3236
4 3214 3219 3236 3252
4 3219 3236 3252 3268
4 2785 2798 2817 2802
4 2793 2803 2764 2775
4 929 928 937 901
4 2594 2631 2616 2648
4 3711 3730 3681 3660
4 5235 5241 5224 5175
4 2148 2157 2175 2131
4 2175 2148 2131 2171
4 5740 5799 5783 5722
4 3069 3047 3051 3015
4 4560 4519 4525 4506
4 2200 2185 2213 2208
4 2185 2213 2208 2219
4 4357 4353 4393 4327
4 4357 4353 4327 4310
4 4357 4353 4310 4338
4 4327 4357 4310 4294
4 4897 4865 4896 4871
4 4865 4864 4852 4871
4 4871 4856 4830 4852
4 4896 4897 4871 4953
4 4896 4897 4953 4937
4 613 595 615 585
4 613 595 585 611
4 615 613 585 594
4 2952 2960 2919 2925
4 4843 4893 4878 4914
4 3472 3489 3520 3512
4 2887 2869 2886 2861
4 4935 4921 4953 4975
4 4953 4935 4975 4992
4 4975 4953 4992 4969
4 4953 4935 4992 4969
4 3048 3053 3086 3046
4 5801 5769 5722 5775
4 1470 1466 1458 1441
4 4934 4899 4935 4958
4 4893 4866 4878 4924
4 2924 2923 2893 2925
4 2924 2923 2925 2955
4 2893 2924 2925 2912
4 6091 6095 6049 6072
4 6091 6095 6072 6149
4 6095 6049 6072 6041
4 6049 6091 6072 6038
4 4212 4242 4247 4239
4 4212 4242 4239 4253
4 2578 2580 2532 2566
4 4083 4093 4077 4134
4 803 823 808 802
4 808 803 802 785
4 5781 5768 5776 5725
4 5781 5768 5725 5763
4 5725 5781 5763 5770
4 3490 3522 3506 3501
4 3595 3596 3627 3605
4 1986 1974 1971 2004
4 4323 4321 4285 4290
4 2691 2662 2653 2678
4 3473 3472 3508 3520
4 3508 3473 3520 3511
4 5399 5405 5380 5432
4 1255 1263 1242 1225
4 4544 4584 4537 4577
4 5519 5574 5560 5525
4 2073 2071 2104 2107
4 4049 4061 4101 4075
4 4101 4049 4075 4120
4 4075 4101 4120 4118
4 1297 1276 1285 1295
4 2737 2708 2703 2722
4 2737 2708 2722 2704
4 2708 2722 2704 2677
4 2708 2703 2722 2677
4 2722 2737 2704 2751
4 2722 2737 2751 2755
4 3533 3506 3559 3522
4 3439 3406 3417 3432
4 5488 5547 5521 5497
4 762 763 744 772
4 6102 6154 6147 6152
4 2836 2869 2846 2824
4 4058 4002 4018 4050
4 5127 5146 5081 5058
4 5690 5648 5672 5725
4 4937 4969 4953 4986
4 4953 4937 4986 4928
4 4969 4953 4986 4975
4 4953 4986 4975 4928
4 4609 4587 4580 4558
4 1753 1752 1777 1728
4 2340 2325 2342 2322
4 2342 2340 2322 2372
4 5021 4980 4989 4943
4 6054 6024 6007 6008
4 1069 1062 1083 1067
4 1062 1083 1067 1080
4 5259 5273 5234 5328
4 3367 3352 3387 3398
4 2988 2983 2998 2967
4 2526 2502 2482 2480
4 2502 2482 2480 2474
4 3412 3433 3400 3448
4 3268 3279 3252 3219
4 2266 2241 2230 2265
4 2266 2241 2265 2292
4 3784 3805 3744 3795
4 3784 3805 3795 3845
4 6102 6101 6076 6147
4 3876 3877 3828 3862
4 1033 1045 1043 1024
4 1045 1043 1024 1038
4 2054 2048 2085 2072
4 2085 2054 2072 2068
4 4980 5023 5045 5040
4 4250 4296 4275 4247
4 3842 3825 3884 3864
4 4977 4959 4975 4906
4 2797 2782 2802 2748
4 1480 1490 1495 1470
4 4587 4609 4611 4558
4 2275 2291 2310 2278
4 2291 2310 2278 2294
4 2310 2278 2294 2298
4 2291 2310 2294 2322
4 2310 2294 2322 2341
4 5470 5523 5525 5510
4 5713 5735 5719 5777
4 2031 2044 2043 2016
4 2730 2702 2714 2704
4 474 475 460 470
4 474 475 470 486
4 291 281 287 282
4 948 944 937 963
4 5622 5648 5630 5574
4 2624 2613 2661 2659
4 5600 5561 5603 5623
4 5600 5561 5623 5576
4 3498 3481 3484 3513
4 3481 3484 3513 3512
4 5133 5162 5188 5234
4 4496 4527 4556 4542
4 4211 4172 4209 4148
4 5547 5488 5539 5497
4 5539 5547 5497 5591
4 5215 5223 5173 5236
4 4816 4789 4830 4791
4 4830 4816 4791 4856
4 4467 4503 4466 4479
4 4467 4503 4479 4485
4 4466 4467 4479 4432
4 1618 1617 1647 1611
4 5156 5195 5209 5215
4 4691 4704 4682 4725
4 539 529 533 554
4 1852 1850 1860 1833
4 3348 3339 3373 3316
4 4140 4161 4119 4123
4 4161 4119 4123 4137
4 4119 4123 4137 4083
4 4123 4161 4137 4148
4 3383 3349 3367 3398
4 4399 4401 4378 4412
4 4779 4795 4773 4819
4 4760 4775 4790 4731
4 3850 3815 3811 3800
4 1173 1154 1163 1168
4 2475 2481 2510 2456
4 2475 2481 2456 2442
4 2456 2475 2442 2440
4 2442 2456 2440 2415
4 2637 2599 2630 2619
4 3181 3216 3170 3177
4 2523 2543 2526 2566
4 2523 2543 2566 2532
4 3316 3279 3312 3310
4 3312 3316 3310 3339
4 3310 3312 3339 3301
4 3310 3312 3301 3273
4 3310 3312 3273 3279
4 3312 3301 3273 3286
4 3312 3273 3279 3303
4 5693 5723 5682 5689
4 5849 5900 5876 5922
4 2873 2896 2926 2890
4 1362 1382 1370 1400
4 3936 3990 3978 3973
4 4121 4088 4077 4064
4 4088 4077 4064 4042
4 4064 4088 4042 4099
4 4064 4088 4099 4121
4 4042 4064 4099 4085
4 4064 4099 4085 4080
4 4099 4042 4085 4094
4 4085 4099 4094 4113
4 4085 4099 4113 4080
4 4094 4085 4113 4081
4 4099 4094 4113 4141
4 4113 4099 4141 4130
4 4099 4094 4141 4121
4 4141 4099 4121 4064
4 4141 4099 4064 4130
4 1219 1198 1203 1210
4 1874 1896 1857 1908
4 5676 5633 5607 5647
4 2488 2477 2506 2529
4 2488 2477 2529 2485
4 3547 3566 3527 3512
4 5280 5306 5330 5310
4 5330 5280 5310 5283
4 3305 3293 3324 3334
4 3161 3145 3162 3149
4 3162 3161 3149 3201
4 4392 4393 4405 4374
4 3475 3484 3447 3465
4 2863 2877 2847 2862
4 2877 2847 2862 2866
4 2877 2847 2866 2883
4 1312 1320 1336 1338
4 1543 1532 1555 1541
4 1532 1555 1541 1567
4 1555 1543 1541 1565
4 1541 1555 1565 1568
4 1555 1541 1567 1568
4 1543 1532 1541 1512
4 4530 4493 4503 4511
4 5272 5254 5266 5285
4 3246 3252 3214 3240
4 3782 3831 3798 3785
4 5395 5397 5448 5424
4 2029 2042 2058 2054
4 2029 2042 2054 2048
4 4240 4242 4253 4280
4 3646 3614 3630 3618
4 4469 4434 4443 4401
4 5512 5467 5451 5427
4 1944 1927 1920 1925
4 2316 2300 2281 2292
4 911 901 907 929
4 2670 2659 2715 2710
4 3469 3446 3434 3447
4 3434 3469 3447 3475
4 3469 3446 3447 3464
4 3446 3434 3447 3432
4 3771 3747 3753 3783
4 3747 3753 3783 3749
4 4829 4850 4788 4853
4 1973 1944 1976 1967
4 1944 1976 1967 1948
4 1944 1976 1948 1940
4 4717 4736 4686 4697
4 4271 4311 4273 4251
4 977 988 966 981
4 3135 3116 3120 3085
4 3158 3127 3128 3141
4 2072 2100 2085 2068
4 1747 1768 1748 1760
4 1747 1768 1760 1763
4 1748 1747 1760 1721
4 5175 5207 5158 5224
4 2442 2427 2408 2415
4 6146 6151 6088 6138
4 2204 2190 2192 2220
4 1643 1658 1623 1648
4 304 296 295 301
4 5258 5237 5291 5225
4 5258 5237 5225 5209
4 2613 2659 2670 2623
4 2659 2670 2623 2637
4 2613 2659 2623 2661
4 2659 2670 2637 2655
4 2659 2670 2655 2710
4 3899 3880 3888 3934
4 3940 3903 3972 3911
4 3940 3903 3911 3920
4 5631 5642 5684 5717
4 317 324 331 316
4 4135 4161 4171 4137
4 4171 4135 4137 4127
4 5107 5149 5095 5057
4 2567 2539 2517 2531
4 1093 1091 1112 1095
4 4469 4491 4527 4534
4 3825 3842 3803 3864
4 5734 5752 5696 5676
4 1381 1360 1365 1384
4 2432 2442 2408 2420
4 4345 4337 4326 4388
4 3561 3566 3596 3562
4 2453 2456 2475 2487
4 4253 4248 4213 4207
4 5386 5355 5425 5409
4 5706 5744 5711 5668
4 5711 5706 5668 5639
4 5706 5668 5639 5674
4 5706 5668 5674 5744
4 5668 5711 5639 5671
4 5674 5706 5744 5731
4 5674 5706 5731 5709
4 1994 2013 2006 1984
4 4812 4834 4782 4788
4 4589 4556 4606 4617
4 4606 4589 4617 4631
4 3569 3547 3551 3566
4 3547 3551 3566 3512
4 5471 5470 5426 5467
4 5470 5426 5467 5404
4 5467 5470 5404 5510
4 5471 5470 5467 5523
4 5470 5467 5523 5510
4 5876 5851 5826 5780
4 5896 5854 5904 5893
4 1993 1971 1957 1976
4 680 678 673 689
4 2071 2099 2104 2125
4 4305 4319 4344 4349
4 4344 4305 4349 4342
4 4344 4305 4342 4325
4 5108 5078 5160 5095
4 1807 1805 1834 1822
4 1807 1805 1822 1795
4 1822 1807 1795 1818
4 1807 1805 1795 1783
4 2614 2635 2592 2566
4 5636 5633 5614 5586
4 5636 5633 5586 5607
4 5586 5636 5607 5584
4 5607 5586 5584 5532
4 1485 1503 1512 1495
4 4773 4727 4737 4776
4 4727 4737 4776 4741
4 4773 4727 4776 4787
4 4075 4065 4061 4105
4 4932 4940 4980 4936
4 4932 4940 4936 4853
4 1954 1928 1930 1931
4 1928 1930 1931 1902
4 5505 5544 5503 5442
4 3367 3349 3352 3398
4 3576 3548 3559 3561
4 1001 1000 1008 1004
4 4955 5000 4974 5002
4 4955 5000 5002 4954
4 4530 4548 4511 4551
4 723 713 709 694
4 5232 5284 5230 5300
4 5232 5284 5300 5309
4 5135 5115 5158 5109
4 2359 2378 2376 2341
4 3430 3432 3464 3440
4 3430 3432 3440 3417
4 5699 5745 5722 5720
4 872 867 868 892
4 2454 2487 2474 2456
4 1397 1412 1379 1392
4 2213 2241 2227 2200
4 3353 3382 3360 3322
4 4751 4749 4735 4797
4 5393 5397 5364 5424
4 4376 4371 4346 4318
4 3645 3627 3614 3596
4 4376 4354 4318 4355
4 1495 1511 1508 1512
4 3406 3389 3417 3432
4 1920 1933 1944 1925
4 5420 5439 5396 5358
4 6112 6081 6114 6117
4 3245 3264 3263 3262
4 3250 3220 3242 3241
4 3250 3220 3241 3209
4 3220 3241 3209 3203
4 1347 1338 1360 1342
4 5877 5830 5846 5893
4 4932 4930 4894 4936
4 4932 4930 4936 4980
4 1091 1069 1083 1085
4 3928 3893 3936 3922
4 3893 3936 3922 3880
4 4315 4286 4285 4290
4 3851 3850 3800 3834
4 3851 3850 3834 3883
4 3850 3800 3834 3815
4 3834 3850 3815 3883
4 3800 3834 3815 3816
4 4112 4108 4130 4172
4 2766 2798 2785 2802
4 2766 2798 2802 2803
4 2798 2802 2803 2825
4 2802 2803 2825 2797
4 3991 4004 4047 3939
4 2126 2135 2140 2161
4 4763 4816 4791 4789
4 580 585 554 556
4 2127 2157 2148 2131
4 4775 4784 4822 4791
4 4775 4784 4791 4741
4 4791 4775 4741 4776
4 4791 4775 4776 4852
4 4741 4791 4776 4759
4 1082 1072 1056 1063
4 1082 1072 1063 1100
4 1363 1385 1365 1384
4 6122 6125 6087 6082
4 5633 5676 5715 5647
4 5626 5583 5628 5659
4 5099 5126 5076 5071
4 628 647 659 646
4 3116 3129 3128 3151
4 3128 3116 3151 3114
4 757 761 772 744
4 1402 1391 1384 1394
4 1391 1384 1394 1419
4 5671 5719 5711 5695
4 5671 5719 5695 5659
4 5695 5671 5659 5639
4 5671 5719 5659 5684
4 5719 5695 5659 5724
4 5695 5659 5724 5652
4 5719 5695 5724 5777
4 3109 3127 3111 3128
4 3183 3161 3162 3201
4 1874 1857 1848 1862
4 1874 1857 1862 1886
4 1874 1857 1886 1898
4 1857 1862 1886 1898
4 1862 1874 1886 1870
4 1874 1886 1870 1899
4 1886 1870 1899 1861
4 1886 1862 1870 1861
4 5207 5159 5158 5166
4 4043 4027 4081 4016
4 5574 5570 5622 5625
4 1062 1063 1083 1080
4 1062 1063 1080 1067
4 6150 6100 6147 6139
4 3342 3319 3305 3334
4 2581 2567 2619 2607
4 2581 2567 2607 2579
4 2607 2581 2579 2632
4 2579 2607 2632 2645
4 2607 2632 2645 2630
4 2619 2581 2607 2632
4 2581 2567 2579 2531
4 2607 2619 2632 2630
4 2607 2619 2630 2567
4 2545 2536 2579 2531
4 2061 2071 2031 2075
4 1844 1822 1839 1834
4 2512 2557 2513 2561
4 1702 1703 1678 1726
4 6088 6151 6089 6109
4 6089 6088 6109 6043
4 6088 6151 6109 6138
4 6151 6089 6109 6155
4 5844 5895 5853 5892
4 5844 5895 5892 5906
4 5895 5892 5906 5951
4 5559 5531 5499 5494
4 3068 3033 3063 3044
4 4894 4880 4848 4930
4 6107 6092 6055 6036
4 4267 4285 4239 4247
4 437 456 436 443
4 4553 4535 4506 4556
4 3874 3883 3816 3838
4 3874 3883 3838 3893
4 3498 3475 3487 3519
4 1548 1571 1576 1549
4 5883 5880 5911 5929
4 5883 5880 5929 5913
4 2204 2192 2206 2220
4 4066 4109 4059 4119
4 1131 1128 1148 1136
4 5308 5257 5294 5220
4 6028 6056 6052 6006
4 5723 5764 5741 5682
4 5893 5905 5935 5928
4 4866 4843 4878 4823
4 2957 2951 2969 2904
4 5871 5911 5916 5883
4 2087 2104 2107 2058
4 4475 4446 4452 4506
4 900 894 892 873
4 5710 5690 5725 5748
4 2415 2413 2438 2434
4 1184 1173 1163 1180
4 1163 1184 1180 1175
4 3242 3220 3203 3241
4 1416 1412 1441 1426
4 5928 5898 5905 5949
4 2707 2701 2711 2676
4 4864 4830 4852 4871
4 3043 3058 3009 3065
4 3989 3972 3963 4046
4 4226 4267 4247 4211
4 4226 4267 4211 4225
4 1801 1779 1777 1780
4 1779 1777 1780 1753
4 2869 2859 2886 2861
4 4797 4843 4800 4823
4 4797 4843 4823 4818
4 2361 2340 2342 2372
4 2342 2361 2372 2341
4 2372 2342 2341 2367
4 2372 2342 2367 2322
4 2342 2341 2367 2322
4 2341 2372 2367 2378
4 2372 2367 2378 2399
4 2372 2367 2399 2389
4 2399 2372 2389 2392
4 2399 2372 2392 2374
4 2372 2367 2389 2362
4 2399 2372 2374 2378
4 2372 2367 2362 2322
4 2389 2372 2362 2366
4 2389 2372 2366 2392
4 4725 4727 4787 4776
4 4725 4727 4776 4741
4 3339 3369 3373 3344
4 2307 2275 2310 2297
4 5751 5687 5715 5767
4 5715 5751 5767 5761
4 5687 5715 5767 5718
4 2247 2265 2278 2266
4 2247 2265 2266 2230
4 2247 2265 2230 2208
4 2266 2247 2230 2269
4 2230 2247 2208 2220
4 2230 2247 2220 2232
4 2208 2230 2220 2232
4 2669 2619 2663 2630
4 2619 2663 2630 2637
4 5892 5869 5919 5921
4 5097 5128 5111 5173
4 4290 4318 4354 4355
4 5641 5675 5721 5709
4 4080 4112 4130 4113
4 5361 5409 5384 5340
4 512 492 495 504
4 3303 3316 3312 3334
4 3303 3316 3334 3319
4 3334 3303 3319 3305
4 3187 3220 3219 3209
4 3220 3219 3209 3250
4 2503 2495 2534 2469
4 4862 4887 4842 4845
4 1721 1705 1698 1697
4 3937 3955 3887 3983
4 1053 1069 1079 1067
4 4505 4546 4529 4541
4 1985 1987 2016 2003
4 4760 4790 4793 4771
4 4978 5013 4987 4985
4 1685 1698 1695 1697
4 1685 1698 1697 1660
4 2418 2431 2443 2433
4 2443 2418 2433 2436
4 3868 3870 3907 3928
4 2475 2491 2451 2483
4 2967 2973 2966 2936
4 5866 5844 5835 5892
4 5866 5844 5892 5906
4 5892 5866 5906 5919
4 5906 5892 5919 5951
4 2916 2903 2926 2938
4 5727 5759 5694 5705
4 1069 1053 1062 1067
4 5319 5285 5351 5307
4 6092 6094 6128 6080
4 6092 6094 6080 6039
4 5081 5080 5058 5034
4 5080 5058 5034 5104
4 1933 1934 1951 1921
4 2708 2704 2678 2677
4 2704 2678 2677 2682
4 2704 2678 2682 2691
4 2678 2677 2682 2648
4 4214 4172 4179 4209
4 1510 1536 1535 1506
4 698 696 679 659
4 5460 5457 5399 5433
4 3274 3273 3310 3301
4 5591 5588 5634 5612
4 5903 5873 5891 5918
4 1219 1207 1226 1225
4 4231 4244 4224 4268
4 4224 4231 4268 4209
4 5417 5467 5404 5414
4 5404 5417 5414 5370
4 5467 5404 5414 5510
4 5594 5587 5545 5645
4 1311 1312 1336 1309
4 1607 1631 1627 1628
4 1631 1627 1628 1652
4 1815 1811 1812 1859
4 1484 1482 1470 1447
4 4980 4943 4930 4989
4 2452 2428 2429 2411
4 5439 5420 5378 5358
4 4631 4628 4593 4661
4 4023 4006 4077 4021
4 4023 4006 4021 3937
4 4077 4023 4021 4064
4 4077 4023 4064 4042
4 4021 4077 4064 4050
4 4023 4021 4064 4026
4 4520 4470 4506 4475
4 5035 5049 5051 5097
4 4442 4443 4401 4469
4 3746 3769 3733 3774
4 3212 3180 3245 3210
4 2027 2029 2016 2048
4 2016 2027 2048 2025
4 744 742 761 772
4 3840 3854 3888 3841
4 4066 4059 4046 4119
4 3365 3381 3373 3334
4 2912 2934 2894 2876
4 2894 2912 2876 2893
4 2474 2443 2454 2456
4 2953 2952 2922 2926
4 1908 1915 1886 1899
4 1898 1908 1886 1874
4 5872 5871 5916 5884
4 5872 5871 5884 5833
4 5871 5884 5833 5883
4 5884 5833 5883 5845
4 5871 5916 5884 5883
4 5916 5872 5884 5891
4 5884 5872 5833 5834
4 5505 5472 5456 5442
4 4297 4313 4315 4352
4 4313 4315 4352 4318
4 4315 4352 4318 4376
4 5152 5148 5215 5173
4 1443 1470 1447 1441
4 3406 3378 3348 3397
4 6130 6135 6085 6141
4 3021 3017 3048 2969
4 4974 5002 5015 4961
4 5468 5472 5503 5424
4 3111 3087 3081 3083
4 3111 3087 3083 3109
4 5347 5327 5353 5272
4 4080 4050 4017 4064
4 4876 4850 4853 4932
4 2845 2864 2884 2849
4 3120 3091 3105 3094
4 4127 4134 4178 4171
4 1768 1759 1748 1771
4 1759 1748 1771 1756
4 3949 4018 4002 3993
4 5702 5693 5662 5612
4 3990 4027 3978 3973
4 5425 5381 5426 5370
4 5639 5587 5594 5645
4 5370 5357 5417 5328
4 1263 1254 1243 1230
4 4006 4053 4077 4021
4 4006 4053 4021 3974
4 5767 5751 5832 5761
4 4147 4158 4181 4141
4 4181 4147 4141 4160
4 4181 4147 4160 4164
4 4147 4141 4160 4113
4 1124 1112 1104 1107
4 1104 1124 1107 1100
4 1483 1495 1512 1502
4 2861 2890 2887 2858
4 3398 3404 3434 3387
4 5608 5589 5634 5670
4 556 554 553 585
4 5775 5745 5699 5720
4 4787 4819 4830 4791
4 4043 4040 4081 4100
4 4040 4081 4100 4063
4 3365 3333 3334 3373
4 2616 2660 2648 2631
4 2936 2943 2965 2933
4 937 928 923 901
4 1274 1284 1290 1279
4 2824 2859 2869 2861
4 1756 1782 1769 1790
4 4662 4654 4649 4717
4 5008 5034 5052 5081
4 4684 4660 4661 4642
4 1602 1617 1611 1603
4 2764 2752 2793 2775
4 2815 2797 2830 2845
4 4794 4836 4792 4848
4 3551 3545 3584 3567
4 2431 2454 2443 2456
4 1419 1413 1394 1391
4 1405 1412 1397 1416
4 1412 1397 1416 1392
4 5864 5895 5906 5927
4 5895 5906 5927 5951
4 2531 2493 2510 2491
4 6084 6107 6119 6064
4 6084 6107 6064 6036
4 5896 5908 5931 5944
4 4935 4918 4958 4899
4 5281 5267 5255 5224
4 5281 5267 5224 5288
4 5255 5281 5224 5273
4 1490 1481 1495 1470
4 1271 1254 1268 1267
4 5669 5641 5721 5676
4 3160 3141 3111 3127
4 2887 2915 2936 2896
4 4013 4037 4022 3979
4 1337 1351 1342 1347
4 1133 1112 1124 1123
4 2048 2016 2043 2044
4 3876 3867 3812 3828
4 2850 2888 2858 2887
4 1896 1908 1898 1857
4 3827 3804 3863 3788
4 3827 3804 3788 3803
4 3717 3706 3753 3693
4 3717 3706 3693 3663
4 3706 3693 3663 3668
4 3670 3642 3673 3678
4 2434 2396 2416 2403
4 2190 2176 2192 2171
4 5132 5156 5087 5149
4 3569 3545 3553 3609
4 5153 5179 5126 5155
4 5179 5126 5155 5186
4 4296 4250 4290 4247
4 2341 2317 2359 2336
4 2753 2766 2785 2765
4 2785 2753 2765 2769
4 2785 2753 2769 2756
4 5175 5123 5188 5144
4 5511 5547 5554 5531
4 5511 5547 5531 5521
4 5041 5083 5030 5072
4 5478 5447 5520 5519
4 5726 5703 5665 5689
4 4735 4749 4697 4747
4 4735 4749 4747 4818
4 1617 1620 1648 1613
4 4642 4606 4617 4631
4 907 928 929 901
4 4261 4306 4267 4287
4 1064 1051 1059 1079
4 3464 3432 3448 3439
4 1053 1045 1062 1067
4 5021 5019 5050 5070
4 5019 5050 5070 5086
4 4704 4727 4741 4737
4 3546 3567 3536 3529
4 1225 1242 1236 1232
4 4098 4109 4150 4135
4 2974 2954 2923 2926
4 5617 5627 5670 5631
4 1835 1822 1818 1839
4 2960 2952 2992 2962
4 1801 1803 1780 1827
4 3936 3954 3973 3922
4 3954 3973 3922 3951
4 3936 3954 3922 3880
4 3922 3954 3951 3901
4 3922 3954 3901 3880
4 1168 1180 1155 1163
4 1180 1155 1163 1175
4 6155 6091 6089 6149
4 4495 4499 4497 4435
4 3305 3285 3294 3324
4 1885 1891 1893 1925
4 5780 5837 5823 5847
4 5837 5823 5847 5887
4 5823 5780 5847 5803
4 5847 5837 5887 5876
4 5823 5780 5803 5731
4 5847 5823 5803 5874
4 4775 4748 4741 4687
4 4636 4594 4632 4577
4 2797 2775 2782 2748
4 5003 5005 5058 5020
4 5003 5005 5020 4941
4 1377 1379 1371 1392
4 1379 1371 1392 1370
4 4423 4440 4415 4385
4 1771 1782 1784 1769
4 4063 4090 4126 4129
4 2359 2365 2367 2336
4 5929 5899 5911 5945
4 3568 3589 3588 3559
4 3568 3589 3559 3572
4 2379 2402 2416 2396
4 4043 4085 4094 4081
4 3024 3023 2996 3029
4 2967 2938 2926 2953
4 5013 4962 4987 4986
4 4962 4987 4986 4928
4 4987 5013 4986 5057
4 6156 6157 6148 6093
4 6156 6157 6093 6106
4 6148 6156 6093 6078
4 1519 1505 1502 1490
4 5670 5667 5727 5720
4 2778 2782 2755 2777
4 2755 2778 2777 2772
4 2778 2782 2777 2823
4 6113 6115 6077 6081
4 1163 1154 1146 1155
4 1146 1163 1155 1175
4 5273 5222 5234 5241
4 4574 4579 4614 4534
4 3279 3265 3252 3300
4 3663 3647 3693 3717
4 3279 3270 3273 3252
4 3273 3279 3252 3310
4 3279 3270 3252 3219
4 5703 5736 5679 5657
4 5679 5703 5657 5578
4 5030 4992 5027 4969
4 3017 3053 3048 3046
4 4720 4760 4731 4775
4 3609 3618 3584 3597
4 1851 1829 1827 1830
4 1829 1827 1830 1803
4 2113 2096 2112 2140
4 5471 5474 5523 5467
4 5153 5201 5179 5206
4 4933 4962 4928 4985
4 2534 2549 2568 2596
4 5775 5737 5720 5699
4 4977 4975 5030 4987
4 5844 5819 5835 5787
4 5546 5544 5575 5503
4 4672 4718 4701 4700
4 1782 1778 1796 1756
4 4201 4231 4224 4181
4 4231 4224 4181 4209
4 5426 5370 5404 5390
4 4324 4297 4347 4364
4 1067 1085 1080 1083
4 1067 1085 1083 1069
4 4167 4150 4156 4192
4 5133 5188 5144 5234
4 1721 1748 1734 1746
4 1766 1771 1797 1768
4 5904 5935 5946 5944
4 3286 3249 3273 3269
4 3286 3249 3269 3271
4 3249 3269 3271 3239
4 3269 3271 3239 3257
4 3269 3286 3271 3304
4 3271 3269 3304 3257
4 2934 2912 2929 2876
4 659 646 638 615
4 4889 4866 4924 4892
4 5822 5781 5836 5839
4 5822 5781 5839 5770
4 5781 5836 5839 5776
4 5244 5254 5307 5243
4 2671 2701 2680 2676
4 1019 1017 1008 1043
4 5567 5514 5545 5584
4 2511 2503 2534 2469
4 2523 2526 2482 2517
4 2523 2526 2517 2567
4 2482 2523 2517 2510
4 2523 2517 2510 2567
4 2526 2482 2517 2499
4 2517 2526 2499 2544
4 2739 2725 2714 2747
4 1682 1697 1685 1695
4 1748 1766 1760 1768
4 2829 2863 2847 2862
4 3360 3384 3382 3374
4 1113 1125 1130 1133
4 5761 5829 5752 5832
4 5841 5877 5846 5895
4 3785 3802 3819 3864
4 885 902 880 901
4 2635 2672 2673 2630
4 2673 2635 2630 2637
4 2635 2672 2630 2605
4 2635 2630 2637 2592
4 2635 2630 2592 2566
4 2273 2299 2292 2281
4 5156 5151 5087 5149
4 5156 5151 5149 5215
4 2385 2367 2388 2415
4 5231 5251 5280 5244
4 2483 2505 2496 2527
4 2679 2654 2648 2672
4 3009 2991 2975 2999
4 2817 2829 2847 2827
4 2847 2817 2827 2828
4 1203 1227 1219 1210
4 1386 1365 1385 1384
4 3672 3645 3647 3671
4 1019 1030 1017 1038
4 1017 1019 1038 1043
4 2428 2398 2429 2411
4 5713 5684 5717 5719
4 5036 5078 5108 5075
4 5078 5108 5075 5095
4 5075 5078 5095 5030
4 5036 5078 5075 5030
4 5230 5257 5202 5220
4 5575 5590 5628 5659
4 1309 1297 1285 1295
4 3771 3745 3756 3811
4 3536 3511 3529 3497
4 3753 3745 3788 3752
4 3675 3696 3665 3676
4 2392 2374 2393 2399
4 2952 2953 2989 2998
4 1915 1898 1886 1862
4 5321 5363 5359 5394
4 844 851 836 867
4 3680 3667 3640 3642
4 5891 5934 5918 5920
4 2177 2190 2220 2171
4 4965 5008 4985 5012
4 5008 4985 5012 5113
4 4053 4083 4077 4021
4 5792 5791 5858 5777
4 5738 5719 5777 5711
4 3372 3410 3384 3374
4 1347 1337 1338 1342
4 2739 2760 2725 2747
4 3906 3914 3937 3887
4 3914 3937 3887 3983
4 3020 2991 3009 2999
4 3020 2991 2999 3016
4 4602 4622 4672 4659
4 3352 3342 3324 3334
4 5674 5675 5645 5709
4 5517 5546 5583 5575
4 2042 2027 2052 2048
4 697 679 677 665
4 3220 3187 3203 3209
4 2037 2006 2013 1984
4 5864 5861 5895 5927
4 3135 3120 3150 3122
4 2508 2518 2534 2469
4 2925 2912 2894 2893
4 6104 6102 6078 6152
4 3911 3920 3923 3974
4 3923 3911 3974 3937
4 4885 4906 4859 4856
4 4885 4906 4856 4896
4 4661 4687 4663 4688
4 2261 2249 2297 2251
4 2975 2955 2937 2925
4 5254 5272 5307 5285
4 2983 2954 2998 2967
4 4864 4825 4830 4890
4 5223 5285 5254 5236
4 2936 2915 2923 2926
4 2936 2915 2926 2896
4 1683 1657 1658 1664
4 3562 3576 3592 3561
4 5081 5146 5113 5058
4 5087 5107 5057 5105
4 4862 4908 4887 4912
4 6059 6078 6054 6029
4 6059 6078 6029 6046
4 6054 6059 6029 6008
4 3077 3089 3110 3128
4 5244 5187 5193 5201
4 4214 4211 4209 4267
4 4965 4933 4931 4924
4 4931 4965 4924 4941
4 4965 4933 4924 4985
4 4924 4965 4985 4941
4 3558 3588 3548 3559
4 1336 1356 1346 1349
4 4535 4544 4522 4536
4 1988 1972 1966 1974
4 1988 1972 1974 1985
4 1974 1988 1985 2016
4 1988 1985 2016 2003
4 5871 5862 5911 5883
4 1458 1484 1470 1447
4 3865 3834 3835 3828
4 725 738 716 698
4 1915 1917 1911 1949
4 3398 3413 3381 3432
4 3398 3413 3432 3434
4 3381 3398 3432 3397
4 3697 3680 3678 3726
4 3678 3697 3726 3689
4 5163 5148 5209 5215
4 5027 5009 5013 4937
4 5540 5506 5514 5460
4 5791 5786 5858 5777
4 4902 4865 4852 4896
4 4865 4852 4896 4871
4 5807 5831 5761 5734
4 3225 3236 3214 3189
4 5306 5354 5330 5362
4 928 907 923 901
4 3847 3804 3811 3788
4 4087 4103 4046 4119
4 885 880 862 867
4 885 880 867 901
4 4519 4505 4525 4473
4 1237 1219 1227 1210
4 1090 1082 1080 1100
4 1082 1080 1100 1063
4 1082 1080 1063 1055
4 6092 6080 6055 6039
4 6055 6092 6039 6036
4 6039 6055 6036 6012
4 4435 4402 4416 4427
4 2427 2451 2437 2434
4 1746 1760 1762 1715
4 5051 5076 5025 5035
4 2793 2820 2824 2822
4 5329 5300 5309 5368
4 5595 5627 5631 5557
4 3628 3591 3599 3559
4 4066 4046 4103 4119
4 5359 5356 5396 5294
4 5077 5123 5115 5040
4 5114 5070 5109 5084
4 5114 5070 5084 5086
4 5070 5109 5084 5077
4 5109 5084 5077 5115
4 5084 5077 5115 5050
4 5084 5077 5050 5070
4 5050 5084 5070 5086
4 5115 5084 5050 5091
4 5084 5050 5091 5086
4 3630 3609 3619 3653
4 3609 3619 3653 3600
4 3630 3618 3647 3646
4 5546 5517 5503 5575
4 4062 4108 4112 4110
4 1815 1807 1839 1818
4 3367 3345 3357 3387
4 2967 2971 2953 2998
4 5830 5778 5741 5785
4 6024 6052 6007 6028
4 1752 1727 1726 1728
4 1727 1726 1728 1703
4 2725 2746 2768 2760
4 1114 1095 1093 1112
4 3705 3675 3676 3717
4 3676 3705 3717 3672
4 3717 3676 3672 3647
4 5582 5595 5531 5589
4 4286 4315 4318 4290
4 4315 4318 4290 4321
4 4315 4318 4321 4376
4 933 928 929 912
4 4725 4787 4759 4776
4 1062 1045 1043 1067
4 5036 5038 4977 5075
4 5036 5038 5075 5108
4 5559 5595 5631 5557
4 4140 4119 4109 4103
4 3753 3706 3735 3693
4 3183 3162 3174 3205
4 3183 3162 3205 3201
4 3162 3174 3205 3150
4 5363 5359 5394 5424
4 5359 5394 5424 5396
4 1807 1839 1818 1822
4 1807 1839 1822 1834
4 5394 5424 5396 5439
4 5128 5071 5111 5155
4 5128 5071 5155 5126
4 2619 2632 2630 2669
4 3347 3366 3335 3346
4 3366 3335 3346 3324
4 5544 5505 5494 5442
4 4394 4431 4416 4355
4 6080 6107 6067 6124
4 4757 4794 4792 4756
4 1884 1874 1899 1908
4 5246 5215 5258 5285
4 1245 1262 1249 1239
4 1262 1249 1239 1267
4 1249 1245 1239 1223
4 1249 1239 1267 1237
4 3558 3588 3559 3568
4 3136 3149 3142 3122
4 4729 4779 4737 4736
4 5622 5625 5648 5574
4 4462 4482 4504 4495
4 2820 2803 2795 2811
4 5461 5475 5514 5460
4 963 979 978 982
4 979 978 982 997
4 1985 2016 2004 1974
4 5870 5792 5858 5777
4 5083 5072 5107 5030
4 2366 2340 2372 2362
4 5030 5027 5072 5057
4 4506 4520 4475 4499
4 4787 4742 4759 4786
4 4856 4830 4852 4791
4 1862 1839 1848 1815
4 3009 3019 3020 2999
4 3009 3019 2999 2992
4 3019 2999 2992 3036
4 1460 1463 1431 1441
4 2499 2481 2459 2482
4 2481 2459 2482 2456
4 4646 4685 4666 4669
4 4646 4685 4669 4667
4 5676 5636 5669 5641
4 5545 5475 5516 5483
4 5506 5540 5482 5460
4 2782 2823 2802 2777
4 5091 5084 5086 5158
4 4424 4459 4417 4379
4 4843 4878 4823 4818
4 4991 4954 5035 5000
4 5838 5799 5769 5783
4 5799 5769 5783 5722
4 5769 5838 5783 5828
4 5769 5783 5722 5727
4 5769 5783 5727 5828
4 5722 5769 5727 5720
4 5722 5769 5720 5775
4 5769 5727 5720 5828
4 5769 5720 5775 5785
4 3648 3671 3643 3645
4 4560 4583 4575 4617
4 744 711 716 738
4 4275 4250 4247 4231
4 4275 4250 4231 4282
4 3914 3949 3963 3993
4 4130 4108 4148 4172
4 4148 4130 4172 4209
4 2335 2362 2336 2322
4 3484 3475 3519 3497
4 4544 4535 4577 4536
4 5015 4974 4961 5004
4 6052 6065 6076 6028
4 4080 4070 4113 4085
4 4070 4113 4085 4081
4 5752 5751 5715 5761
4 5752 5751 5761 5832
4 4871 4856 4852 4896
4 4871 4856 4896 4921
4 4856 4852 4896 4892
4 5867 5831 5863 5894
4 5867 5831 5894 5880
4 5863 5867 5894 5915
4 2438 2453 2458 2483
4 2453 2458 2483 2451
4 3878 3872 3923 3871
4 2265 2291 2278 2266
4 2265 2291 2266 2292
4 3934 3983 3954 3887
4 1702 1681 1677 1678
4 1681 1677 1678 1652
4 1677 1702 1678 1726
4 1677 1678 1652 1628
4 4161 4171 4137 4178
4 4171 4137 4178 4127
4 4137 4178 4127 4141
4 4127 4137 4141 4064
4 1131 1128 1136 1108
4 1715 1698 1709 1708
4 1709 1715 1708 1762
4 2863 2877 2862 2873
4 2862 2863 2873 2825
4 4087 4046 4050 4021
4 2437 2427 2434 2403
4 5648 5679 5650 5725
4 2830 2823 2849 2845
4 2830 2823 2845 2797
4 2823 2845 2797 2802
4 4636 4667 4615 4611
4 6096 6110 6051 6063
4 6096 6110 6063 6139
4 6051 6096 6063 6031
4 6063 6051 6031 6022
4 6096 6063 6031 6098
4 6096 6063 6098 6139
4 6063 6031 6098 6050
4 6063 6031 6050 6028
4 6098 6063 6050 6076
4 3548 3562 3520 3561
4 924 945 923 937
4 3745 3735 3756 3698
4 3745 3735 3698 3693
4 5532 5530 5495 5586
4 4226 4247 4212 4187
4 3577 3616 3594 3624
4 2506 2491 2545 2527
4 3444 3483 3459 3493
4 907 923 901 880
4 4349 4344 4342 4387
4 4344 4342 4387 4325
4 5908 5931 5944 5948
4 5931 5944 5948 5972
4 2437 2416 2424 2403
4 2372 2374 2378 2341
4 2374 2378 2341 2376
4 2374 2378 2376 2436
4 5799 5848 5857 5888
4 5848 5857 5888 5912
4 5857 5888 5912 5879
4 5333 5311 5271 5304
4 1186 1165 1175 1166
4 1165 1175 1166 1148
4 1175 1186 1166 1212
4 3090 3119 3104 3100
4 3090 3119 3100 3114
4 5413 5431 5450 5488
4 5450 5413 5488 5462
4 5488 5450 5462 5499
4 5450 5413 5462 5396
4 4088 4042 4099 4094
4 5322 5303 5281 5355
4 2482 2480 2474 2443
4 4686 4736 4688 4697
4 2427 2408 2415 2395
4 3862 3839 3877 3828
4 2954 2936 2923 2926
4 2130 2129 2133 2108
4 2133 2130 2108 2166
4 5232 5230 5189 5300
4 3432 3464 3440 3439
4 4821 4790 4775 4827
4 4821 4790 4827 4845
4 4790 4775 4827 4780
4 5806 5778 5827 5737
4 4589 4593 4617 4631
4 3829 3795 3819 3878
4 4718 4739 4701 4700
4 3479 3511 3497 3529
4 3479 3511 3529 3473
4 5633 5607 5647 5532
4 4412 4473 4452 4438
4 4473 4452 4438 4506
4 4473 4452 4506 4470
4 4452 4506 4470 4475
4 4452 4412 4438 4415
4 4452 4412 4415 4401
4 4412 4438 4415 4364
4 4412 4415 4401 4372
4 4412 4415 4372 4364
4 4800 4797 4823 4749
4 2864 2861 2884 2890
4 2861 2884 2890 2873
4 2884 2890 2873 2926
4 4776 4773 4787 4819
4 4787 4776 4819 4791
4 4776 4773 4819 4779
4 3404 3398 3367 3387
4 3367 3404 3387 3418
4 5280 5306 5310 5244
4 4865 4902 4937 4896
4 4647 4626 4688 4660
4 4319 4296 4348 4354
4 1903 1877 1894 1885
4 2503 2495 2469 2465
4 3613 3629 3597 3610
4 3629 3597 3610 3618
4 2654 2672 2614 2605
4 3548 3520 3559 3561
4 3520 3559 3561 3517
4 5211 5166 5207 5158
4 5211 5166 5158 5191
4 3595 3627 3621 3605
4 3164 3155 3154 3203
4 4366 4389 4321 4323
4 2662 2643 2653 2678
4 5787 5844 5853 5835
4 2362 2389 2395 2388
4 2395 2362 2388 2353
4 2362 2389 2388 2367
4 2388 2362 2367 2336
4 2362 2388 2353 2336
4 2389 2388 2367 2399
4 1617 1603 1613 1611
4 1613 1617 1611 1660
4 1815 1807 1818 1799
4 1807 1818 1799 1795
4 1818 1815 1799 1812
4 3218 3239 3201 3217
4 3239 3201 3217 3223
4 6136 6110 6139 6128
4 474 492 486 476
4 2834 2846 2850 2824
4 1759 1741 1748 1756
4 2896 2858 2888 2887
4 2888 2896 2887 2936
4 887 907 901 880
4 5931 5896 5944 5904
4 3862 3876 3812 3828
4 5312 5355 5340 5281
4 5340 5312 5281 5288
4 5340 5312 5288 5384
4 5837 5823 5887 5863
4 5013 4962 4986 4937
4 4962 4986 4937 4928
4 4624 4646 4666 4669
4 1341 1322 1329 1330
4 1322 1329 1330 1299
4 1329 1341 1330 1362
4 1330 1329 1362 1346
4 1330 1329 1346 1309
4 5745 5775 5722 5720
4 1465 1463 1435 1431
4 1435 1465 1431 1448
4 1463 1435 1431 1440
4 1392 1386 1416 1402
4 1386 1416 1402 1385
4 5166 5114 5159 5158
4 5166 5114 5158 5191
4 2269 2298 2294 2278
4 5725 5781 5770 5776
4 3472 3473 3439 3464
4 4389 4366 4388 4323
4 5673 5672 5625 5725
4 5673 5672 5725 5742
4 4311 4277 4273 4294
4 4277 4273 4294 4215
4 5517 5468 5503 5448
4 4687 4720 4667 4731
4 3859 3871 3829 3878
4 979 988 989 971
4 989 979 971 982
4 6055 6036 6012 6047
4 6055 6036 6047 6064
4 6047 6055 6064 6067
4 6064 6047 6067 6058
4 6067 6064 6058 6119
4 6064 6047 6058 6069
4 6047 6067 6058 6012
4 6055 6064 6067 6107
4 6064 6067 6107 6119
4 6047 6055 6067 6012
4 6036 6047 6064 6069
4 6055 6036 6064 6107
4 5750 5757 5681 5718
4 5757 5681 5718 5707
4 2192 2176 2206 2145
4 1045 1043 1038 1063
4 1043 1038 1063 1055
4 1983 2009 1982 1980
4 1982 1983 1980 1955
4 4994 4989 5050 5006
4 4994 4989 5006 4930
4 4902 4889 4928 4896
4 4928 4902 4896 4937
4 5008 5058 5081 5113
4 3868 3847 3811 3788
4 2208 2172 2177 2182
4 2208 2172 2182 2200
4 2182 2208 2200 2218
4 2172 2177 2182 2147
4 2177 2208 2182 2218
4 3675 3713 3696 3717
4 5830 5841 5846 5764
4 3434 3469 3475 3487
4 3150 3135 3122 3162
4 3203 3242 3241 3257
4 5084 5114 5086 5158
4 3934 3954 3880 3887
4 3097 3108 3081 3130
4 4987 4986 4928 4975
4 4987 4986 4975 5030
4 4986 4975 5030 4969
4 4987 4986 5030 5057
4 3300 3321 3344 3314
4 4722 4720 4731 4667
4 4580 4609 4558 4568
4 2504 2487 2496 2483
4 5395 5345 5351 5383
4 5351 5395 5383 5385
4 2322 2309 2325 2294
4 2322 2309 2294 2292
4 2099 2100 2113 2085
4 2100 2113 2085 2112
4 5715 5687 5633 5640
4 2220 2203 2218 2177
4 2220 2203 2177 2171
4 5707 5758 5673 5718
4 5673 5707 5718 5681
4 1682 1664 1695 1685
4 2753 2769 2756 2733
4 2769 2756 2733 2772
4 1853 1882 1881 1879
4 1882 1881 1879 1901
4 3135 3150 3151 3174
4 3151 3135 3174 3114
4 3759 3775 3726 3782
4 3104 3119 3136 3100
4 1385 1394 1413 1402
4 5545 5514 5475 5493
4 2004 2025 2011 2016
4 2418 2431 2433 2415
4 2431 2433 2415 2456
4 2433 2415 2456 2442
4 2456 2433 2442 2459
4 4850 4894 4848 4936
4 5544 5575 5503 5557
4 1285 1309 1295 1307
4 1285 1309 1307 1288
4 1349 1371 1356 1346
4 5609 5567 5587 5545
4 5567 5587 5545 5509
4 5609 5567 5545 5584
4 5609 5567 5584 5556
4 5556 5586 5540 5584
4 5540 5556 5584 5514
4 5586 5540 5584 5532
4 6161 6090 6095 6153
4 6105 6106 6156 6078
4 6105 6106 6078 6046
4 3216 3221 3170 3267
4 2378 2385 2376 2418
4 4290 4318 4355 4321
4 4816 4861 4856 4830
4 892 887 901 867
4 2892 2922 2909 2907
4 2892 2922 2907 2926
4 2922 2909 2907 2919
4 2909 2907 2919 2894
4 2907 2922 2919 2952
4 2907 2919 2894 2925
4 2907 2919 2925 2952
4 2919 2894 2925 2934
4 2925 2919 2934 2960
4 2919 2894 2934 2961
4 1621 1599 1623 1635
4 5633 5586 5607 5532
4 1970 1974 2002 1988
4 1970 1974 1988 1966
4 1974 2002 1988 2029
4 2044 2072 2043 2048
4 2135 2112 2140 2113
4 2750 2747 2775 2760
4 4268 4282 4305 4275
4 4305 4268 4275 4283
4 4305 4268 4283 4270
4 1846 1833 1852 1860
4 2960 2945 2909 2961
4 2817 2829 2827 2802
4 2829 2827 2802 2825
4 2827 2817 2802 2777
4 834 836 813 808
4 5863 5887 5915 5894
4 3456 3472 3439 3417
4 3058 3019 3009 2994
4 3318 3347 3335 3346
4 5679 5726 5665 5650
4 5780 5847 5803 5817
4 3672 3689 3707 3717
4 5638 5603 5681 5614
4 5153 5201 5206 5193
4 2748 2764 2803 2775
4 6028 6050 6006 6031
4 5679 5736 5770 5690
4 4822 4775 4791 4856
4 772 776 791 802
4 772 776 802 784
4 772 776 784 763
4 772 776 763 742
4 4794 4782 4834 4756
4 1971 1958 1957 1976
4 1971 1958 1976 2004
4 1602 1623 1617 1603
4 5108 5075 5095 5111
4 5075 5095 5111 5066
4 2701 2671 2711 2676
4 2073 2104 2058 2107
4 456 475 470 460
4 5723 5764 5682 5689
4 1490 1499 1501 1519
4 4119 4087 4083 4046
4 4087 4083 4046 4021
4 4083 4119 4046 4059
4 4046 4083 4059 4010
4 4401 4399 4443 4412
4 2518 2526 2534 2469
4 2511 2499 2461 2482
4 5812 5841 5764 5787
4 1797 1783 1807 1771
4 2673 2635 2637 2618
4 3774 3742 3749 3717
4 2795 2760 2775 2768
4 3835 3834 3800 3761
4 3019 3058 3066 3025
4 5015 5025 5004 5076
4 971 965 982 963
4 965 982 963 956
4 2190 2172 2176 2149
4 2176 2190 2149 2171
4 2614 2566 2605 2635
4 2605 2614 2635 2672
4 4722 4685 4664 4667
4 5780 5837 5847 5876
4 4540 4564 4586 4567
4 4586 4540 4567 4569
4 4586 4540 4569 4588
4 4540 4567 4569 4497
4 4567 4586 4569 4624
4 6164 6157 6106 6097
4 3954 3951 3901 3993
4 2427 2440 2434 2415
4 6129 6082 6130 6085
4 5750 5767 5833 5784
4 5767 5833 5784 5790
4 5750 5767 5784 5718
4 5767 5833 5790 5843
4 5833 5784 5790 5845
4 705 707 704 689
4 1908 1886 1874 1899
4 5003 5005 4941 4931
4 6087 6070 6122 6082
4 5306 5330 5310 5362
4 5330 5310 5362 5346
4 5330 5310 5346 5283
4 5310 5362 5346 5339
4 3901 3951 3914 3993
4 5559 5620 5544 5575
4 5395 5364 5424 5388
4 4112 4130 4113 4179
4 2031 2003 2019 2017
4 2031 2003 2017 2016
4 5362 5347 5307 5306
4 5347 5307 5306 5272
4 1015 1008 1004 1024
4 1008 1004 1024 1017
4 1008 1004 1017 1001
4 4907 4954 4908 4912
4 5362 5385 5433 5339
4 4188 4211 4187 4148
4 4211 4187 4148 4186
4 5345 5311 5351 5383
4 1051 1057 1067 1079
4 3155 3190 3149 3185
4 1083 1104 1091 1085
4 1083 1104 1085 1080
4 5836 5873 5875 5918
4 1851 1853 1830 1879
4 4660 4617 4621 4626
4 3983 4023 4026 4021
4 3983 4023 4021 3937
4 2795 2793 2775 2803
4 2906 2933 2917 2936
4 5230 5185 5174 5225
4 2516 2495 2465 2513
4 2421 2422 2450 2437
4 1954 1955 1931 1980
4 3345 3324 3305 3294
4 2265 2252 2295 2292
4 1647 1658 1648 1623
4 997 979 989 982
4 4119 4135 4109 4059
4 5574 5519 5533 5520
4 4376 4354 4355 4394
4 3242 3250 3241 3270
4 3250 3241 3270 3209
4 5083 5039 5030 5078
4 5753 5812 5764 5787
4 4444 4435 4495 4462
4 1458 1470 1441 1447
4 4660 4704 4661 4688
4 2143 2128 2149 2131
4 2825 2820 2824 2811
4 4326 4337 4343 4408
4 4452 4446 4438 4506
4 5488 5521 5499 5462
4 5488 5521 5462 5497
4 5521 5499 5462 5483
4 5439 5396 5358 5450
4 5439 5396 5450 5499
4 4930 4980 4989 5006
4 3595 3596 3605 3561
4 2367 2388 2415 2399
4 4115 4135 4083 4082
4 4311 4327 4294 4328
4 3379 3415 3395 3423
4 3706 3698 3735 3693
4 3706 3698 3693 3668
4 3698 3693 3668 3683
4 4796 4813 4842 4845
4 2099 2116 2098 2113
4 3285 3278 3294 3242
4 3618 3609 3647 3629
4 3060 3039 3019 3066
4 4352 4372 4318 4376
4 4352 4372 4376 4364
4 4352 4372 4364 4412
4 4533 4519 4506 4473
4 4087 4123 4083 4077
4 4178 4186 4137 4187
4 3381 3398 3397 3352
4 4535 4553 4584 4593
4 4535 4553 4593 4556
4 2748 2736 2721 2753
4 4365 4349 4354 4394
4 4365 4349 4394 4416
4 4349 4354 4394 4355
4 1547 1529 1549 1548
4 1726 1752 1728 1777
4 2395 2396 2434 2403
4 2753 2726 2733 2756
4 5641 5645 5709 5647
4 4852 4902 4896 4889
4 2702 2730 2736 2721
4 5146 5127 5189 5112
4 5146 5127 5112 5058
4 5189 5146 5112 5174
4 5404 5426 5390 5470
4 3412 3445 3433 3448
4 3412 3445 3448 3406
4 3445 3433 3448 3465
4 3433 3448 3465 3447
4 3448 3445 3465 3479
4 3448 3445 3479 3473
4 4548 4511 4551 4528
4 3567 3536 3529 3519
4 2552 2510 2527 2545
4 1844 1835 1848 1839
4 1168 1172 1173 1154
4 5207 5224 5211 5158
4 5224 5211 5158 5191
4 5872 5884 5891 5834
4 1112 1091 1104 1107
4 4851 4819 4795 4779
4 3989 3963 4002 4046
4 1760 1766 1762 1785
4 1762 1760 1785 1763
4 1760 1766 1785 1768
4 1760 1785 1763 1768
4 1762 1760 1763 1715
4 1785 1762 1763 1777
4 3058 3070 3105 3065
4 5844 5835 5892 5853
4 2009 2008 2021 1980
4 2459 2481 2442 2456
4 2658 2673 2661 2637
4 2658 2673 2637 2618
4 3473 3472 3520 3464
4 5583 5624 5573 5639
4 5573 5583 5639 5575
4 5823 5847 5887 5874
4 3109 3110 3128 3077
4 3273 3286 3269 3312
4 4699 4659 4700 4672
4 4699 4659 4672 4652
4 1841 1860 1850 1833
4 5703 5679 5665 5578
4 4105 4037 4078 4072
4 4037 4078 4072 4063
4 4078 4072 4063 4129
4 6094 6110 6128 6080
4 6094 6110 6080 6051
4 6110 6128 6080 6124
4 572 553 585 588
4 3506 3472 3520 3522
4 3520 3506 3522 3559
4 1797 1815 1785 1799
4 6100 6076 6147 6139
4 1287 1288 1262 1267
4 1287 1288 1267 1285
4 2294 2291 2322 2292
4 593 594 585 613
4 742 744 763 772
4 2669 2663 2703 2677
4 2669 2663 2677 2630
4 2703 2669 2677 2708
4 1385 1386 1384 1402
4 2276 2269 2294 2266
4 2294 2276 2266 2292
4 4716 4728 4758 4722
4 2601 2631 2594 2588
4 4881 4836 4848 4891
4 3472 3489 3512 3464
4 6114 6118 6119 6069
4 3609 3602 3619 3569
4 2140 2139 2113 2096
4 2989 3018 3007 2992
4 1906 1896 1918 1925
4 2220 2249 2203 2251
4 3060 3091 3085 3094
4 1045 1049 1043 1067
4 4141 4186 4181 4160
4 3914 3864 3884 3827
4 6055 6080 6067 6012
4 3273 3246 3214 3209
4 5891 5934 5920 5884
4 3937 3906 3887 3878
4 4306 4323 4284 4267
4 2970 2960 3007 2961
4 3214 3176 3186 3225
4 1857 1867 1898 1896
4 2237 2249 2251 2203
4 3317 3351 3332 3359
4 3578 3613 3597 3592
4 3578 3613 3592 3576
4 5003 5058 5012 5020
4 5012 5003 5020 4941
4 5058 5012 5020 5079
4 2869 2846 2824 2850
4 666 682 694 671
4 4930 4936 4980 5006
4 2172 2185 2160 2200
4 5519 5501 5478 5447
4 2869 2887 2850 2861
4 2609 2588 2617 2643
4 1608 1599 1602 1576
4 3190 3203 3187 3209
4 1463 1466 1440 1441
4 3472 3456 3462 3417
4 4970 4922 4943 4930
4 1201 1194 1197 1185
4 3641 3681 3660 3690
4 5148 5151 5209 5215
4 4564 4597 4586 4567
4 4313 4340 4280 4312
4 5311 5319 5351 5383
4 4821 4822 4885 4856
4 4821 4822 4856 4775
4 2310 2291 2336 2322
4 5201 5231 5206 5244
4 5206 5201 5244 5193
4 3127 3158 3160 3141
4 2596 2554 2585 2548
4 4200 4195 4161 4239
4 962 983 956 978
4 1328 1312 1309 1336
4 2752 2747 2714 2725
4 2630 2673 2637 2663
4 2862 2877 2866 2894
4 5467 5512 5510 5427
4 3249 3273 3269 3217
4 5670 5642 5631 5705
4 5929 5902 5945 5940
4 1901 1902 1881 1930
4 4026 4017 3983 4021
4 4889 4866 4892 4852
4 3774 3732 3717 3733
4 3954 3990 3973 4017
4 3954 3990 4017 3983
4 3973 3954 4017 3999
4 3691 3678 3726 3707
4 5854 5896 5890 5893
4 4742 4703 4746 4786
4 1337 1319 1338 1342
4 3825 3827 3884 3864
4 4387 4402 4427 4416
4 4427 4387 4416 4411
4 4427 4387 4411 4428
4 4416 4427 4411 4462
4 4416 4427 4462 4435
4 5052 5081 5060 5013
4 6087 6082 6040 6070
4 6078 6105 6152 6156
4 5300 5309 5368 5316
4 3676 3672 3647 3671
4 1685 1697 1663 1660
4 3316 3312 3334 3348
4 1311 1295 1309 1307
4 5559 5595 5557 5499
4 4970 4989 4994 4930
4 4446 4423 4415 4431
4 4446 4423 4431 4477
4 4415 4446 4431 4438
4 2495 2479 2469 2465
4 2495 2479 2465 2513
4 4113 4099 4130 4080
4 4974 5002 4961 4955
4 5526 5551 5561 5603
4 2073 2058 2068 2054
4 5389 5413 5329 5407
4 3974 4010 4053 4083
4 4697 4749 4750 4747
4 4749 4750 4747 4823
4 3190 3150 3149 3162
4 3214 3219 3252 3270
4 3205 3246 3218 3217
4 3218 3205 3217 3201
4 2431 2443 2433 2456
4 2443 2433 2456 2482
4 2753 2765 2769 2733
4 5071 5097 5111 5038
4 3318 3335 3304 3346
4 4214 4173 4225 4249
4 4225 4214 4249 4287
4 4431 4435 4416 4497
4 4556 4533 4535 4506
4 4533 4535 4506 4560
4 2747 2752 2775 2760
4 5002 5015 4961 5017
4 3999 3951 3973 3954
4 4757 4739 4756 4701
4 3542 3561 3559 3517
4 4315 4297 4352 4364
4 4352 4315 4364 4376
4 4504 4523 4540 4536
4 5725 5742 5768 5673
4 3342 3345 3305 3357
4 4267 4285 4247 4290
4 1022 1015 1011 1032
4 1011 1022 1032 1021
4 5590 5656 5659 5620
4 1962 1974 1949 1966
4 3111 3087 3109 3128
4 2992 2960 2962 2990
4 1874 1896 1908 1884
4 4595 4593 4632 4584
4 2630 2607 2567 2605
4 5639 5706 5674 5645
4 2544 2511 2554 2526
4 2554 2544 2526 2567
4 1658 1685 1683 1664
4 2877 2892 2909 2907
4 1697 1715 1708 1698
4 1100 1104 1083 1080
4 3574 3599 3595 3591
4 3574 3599 3591 3559
4 3796 3781 3798 3832
4 4060 4050 3999 4017
4 2760 2790 2746 2768
4 5636 5607 5584 5641
4 5607 5584 5641 5645
4 4878 4866 4823 4888
4 5272 5319 5353 5307
4 3630 3609 3653 3647
4 5928 5907 5949 5927
4 5399 5362 5433 5432
4 5109 5114 5084 5158
4 5058 5008 5012 5113
4 5341 5287 5329 5300
4 3749 3785 3798 3753
4 5244 5193 5243 5206
4 5243 5244 5206 5310
4 2659 2657 2676 2711
4 2317 2314 2359 2313
4 4365 4402 4387 4416
4 3845 3871 3878 3829
4 4242 4239 4253 4286
4 4253 4242 4286 4280
4 1705 1695 1698 1697
4 3293 3278 3242 3270
4 5193 5187 5128 5153
4 4080 4060 3999 4017
4 4931 4893 4914 4924
4 4931 4893 4924 4933
4 3732 3713 3717 3733
4 3749 3729 3753 3774
4 2633 2676 2671 2680
4 3658 3627 3638 3621
4 1328 1349 1336 1346
4 1328 1349 1346 1330
4 5432 5482 5495 5452
4 5432 5482 5452 5433
4 2299 2300 2292 2281
4 5607 5676 5647 5641
4 5349 5304 5364 5311
4 5517 5583 5573 5575
4 857 851 867 836
4 904 924 923 901
4 3119 3145 3136 3132
4 3119 3145 3132 3114
4 3373 3381 3348 3334
4 2526 2518 2480 2469
4 3561 3527 3566 3512
4 3561 3527 3512 3517
4 4141 4147 4094 4113
4 4752 4712 4721 4700
4 5285 5254 5236 5314
4 1447 1456 1482 1470
4 5151 5148 5149 5215
4 1548 1576 1540 1549
4 5633 5614 5586 5532
4 3489 3520 3512 3517
4 3868 3893 3928 3922
4 3868 3893 3922 3880
4 880 887 867 901
4 3398 3432 3397 3447
4 3398 3432 3447 3434
4 5215 5223 5236 5285
4 880 862 867 844
4 5050 5021 5070 5077
4 2099 2071 2116 2125
4 5460 5399 5422 5385
4 3627 3645 3638 3605
4 3645 3638 3605 3648
4 4759 4741 4725 4776
4 4479 4466 4432 4448
4 3578 3597 3567 3592
4 5127 5184 5189 5205
4 2495 2537 2534 2508
4 2534 2495 2508 2469
4 3559 3576 3561 3605
4 3155 3140 3154 3105
4 4887 4842 4845 4857
4 4887 4842 4857 4904
4 1716 1715 1746 1708
4 3248 3292 3267 3297
4 1426 1405 1416 1412
4 5149 5107 5087 5105
4 5223 5173 5236 5254
4 1033 1045 1024 1032
4 3058 3094 3066 3075
4 2655 2663 2673 2710
4 4931 4965 4941 5003
4 4666 4685 4716 4669
4 709 712 723 694
4 2660 2648 2631 2643
4 4239 4226 4212 4161
4 2616 2594 2648 2605
4 3381 3389 3406 3432
4 3055 3090 3073 3100
4 5905 5893 5877 5928
4 2064 2038 2065 2041
4 3039 3060 3085 3066
4 5109 5159 5114 5158
4 2081 2097 2100 2112
4 4889 4933 4928 4924
4 4889 4933 4924 4893
4 5531 5499 5521 5595
4 5719 5671 5713 5684
4 4749 4736 4750 4800
4 3613 3643 3629 3626
4 3613 3643 3626 3612
4 4843 4815 4800 4866
4 2314 2341 2359 2376
4 2829 2847 2827 2862
4 2847 2827 2862 2866
4 5195 5156 5149 5215
4 2232 2269 2230 2247
4 2766 2785 2765 2802
4 2785 2765 2802 2777
4 5694 5642 5705 5717
4 5705 5694 5717 5759
4 5638 5623 5603 5561
4 5638 5623 5561 5625
4 5603 5638 5561 5572
4 5877 5830 5893 5855
4 2937 2934 2929 2975
4 3713 3733 3696 3717
4 3883 3834 3816 3838
4 3834 3816 3838 3815
4 3838 3834 3815 3883
4 3816 3838 3815 3754
4 5291 5258 5225 5294
4 5258 5225 5294 5236
4 5126 5153 5155 5128
4 5153 5155 5128 5193
4 5370 5322 5315 5328
4 3174 3183 3205 3163
4 5153 5179 5155 5206
4 5179 5155 5206 5186
4 5155 5153 5206 5193
4 2753 2766 2765 2748
4 2766 2765 2748 2802
4 1919 1899 1912 1915
4 3545 3569 3584 3609
4 3007 3018 3040 2992
4 3040 3007 2992 3025
4 4506 4502 4527 4556
4 5778 5830 5827 5785
4 4110 4090 4067 4129
4 5523 5570 5525 5561
4 2128 2113 2116 2131
4 6141 6138 6083 6085
4 5570 5576 5623 5561
4 2104 2131 2148 2107
4 2815 2811 2845 2861
4 4974 4923 4912 4961
4 4974 4923 4961 4904
4 4923 4912 4961 4904
4 5078 5083 5095 5030
4 2599 2554 2567 2544
4 4026 4064 4017 4021
4 4954 4955 4908 4912
4 3094 3060 3066 3085
4 2526 2523 2566 2567
4 2552 2523 2510 2567
4 4816 4822 4791 4856
4 4617 4642 4631 4661
4 6093 6156 6106 6078
4 2579 2607 2645 2588
4 1440 1416 1441 1443
4 3286 3318 3304 3269
4 3462 3438 3463 3472
4 711 712 694 723
4 711 712 723 744
4 5731 5721 5761 5831
4 3978 3938 3936 3973
4 3978 3938 3973 4039
4 1506 1507 1536 1532
4 4720 4748 4775 4687
4 1404 1400 1431 1412
4 1490 1501 1495 1502
4 1490 1501 1502 1519
4 4736 4697 4750 4707
4 5519 5574 5525 5520
4 3163 3167 3174 3114
4 6080 6055 6039 6012
4 3479 3497 3465 3478
4 3497 3465 3478 3484
4 3087 3077 3109 3128
4 5620 5631 5684 5659
4 5039 5078 5036 5030
4 2960 2952 2962 2925
4 2952 2962 2925 2974
4 1759 1769 1756 1771
4 5903 5873 5918 5921
4 4536 4495 4497 4504
4 4862 4908 4912 4859
4 2278 2291 2294 2266
4 2291 2294 2266 2292
4 3352 3345 3387 3366
4 2704 2722 2751 2748
4 3489 3472 3460 3464
4 4503 4466 4479 4511
4 4466 4479 4511 4448
4 4479 4503 4511 4551
4 3909 3907 3883 3928
4 4586 4597 4624 4567
4 3324 3342 3305 3334
4 2504 2532 2527 2496
4 1312 1297 1309 1295
4 6086 6116 6115 6077
4 5783 5825 5828 5888
4 5841 5861 5907 5895
4 2091 2080 2063 2062
4 2951 2986 2969 2984
4 4027 4017 4085 4070
4 6109 6151 6155 6149
4 3293 3285 3324 3304
4 4771 4813 4796 4799
4 4771 4813 4799 4790
4 4813 4799 4790 4845
4 4813 4799 4845 4796
4 4799 4790 4845 4780
4 4799 4771 4790 4722
4 4796 4771 4799 4758
4 2496 2483 2527 2504
4 4970 5021 4989 4943
4 4893 4878 4914 4924
4 3538 3545 3498 3553
4 1966 1950 1936 1949
4 2092 2067 2077 2108
4 4866 4843 4823 4800
4 1663 1648 1661 1617
4 2482 2517 2499 2481
4 2482 2517 2481 2510
4 5520 5470 5525 5447
4 2526 2517 2567 2544
4 4072 4065 4118 4105
4 5674 5624 5639 5645
4 5230 5257 5220 5294
4 1124 1146 1139 1136
4 1124 1146 1136 1131
4 1136 1124 1131 1100
4 1146 1136 1131 1166
4 5861 5927 5907 5895
4 3484 3498 3513 3551
4 2157 2147 2182 2177
4 2157 2147 2177 2131
4 5021 4980 4943 4995
4 2722 2704 2677 2702
4 3728 3749 3721 3689
4 3847 3863 3804 3788
4 1536 1535 1506 1532
4 1870 1848 1861 1862
4 3073 3090 3104 3100
4 4075 4101 4118 4105
4 1225 1243 1230 1263
4 2704 2724 2691 2714
4 2704 2724 2714 2747
4 2714 2704 2747 2730
4 3509 3550 3526 3560
4 2648 2660 2679 2682
4 2648 2660 2682 2643
4 3161 3149 3201 3142
4 6090 6163 6097 6157
4 5287 5341 5294 5320
4 5287 5341 5320 5300
4 5320 5287 5300 5230
4 5294 5287 5320 5230
4 1123 1139 1136 1124
4 1123 1139 1124 1133
4 1136 1123 1124 1107
4 1123 1124 1107 1112
4 1525 1542 1541 1565
4 5038 5035 4977 5011
4 5038 5035 5011 5071
4 5038 5035 5071 5097
4 5035 5071 5097 5051
4 5035 5071 5051 5076
4 5160 5173 5108 5095
4 4551 4581 4548 4559
4 4551 4581 4559 4561
4 4548 4551 4559 4528
4 2415 2438 2440 2434
4 2438 2440 2434 2458
4 2440 2434 2458 2451
4 2452 2484 2465 2479
4 1921 1958 1932 1974
4 2533 2506 2565 2562
4 4062 4080 3999 4017
4 1268 1254 1247 1267
4 1247 1268 1267 1249
4 1627 1628 1652 1678
4 3775 3782 3795 3726
4 3753 3745 3752 3693
4 3678 3649 3628 3658
4 948 937 923 956
4 948 937 956 963
4 3347 3380 3366 3346
4 6086 6120 6122 6115
4 5409 5447 5437 5390
4 2637 2659 2655 2661
4 2367 2385 2418 2415
4 3888 3887 3955 3983
4 4088 4099 4121 4094
4 3888 3899 3934 3983
4 5838 5890 5888 5885
4 5838 5890 5885 5827
4 5890 5888 5885 5931
4 4172 4179 4209 4130
4 4172 4179 4130 4112
4 3834 3835 3828 3761
4 3122 3155 3149 3142
4 6045 6070 6040 6025
4 6045 6070 6025 6035
4 6040 6045 6025 6001
4 851 868 867 844
4 5620 5559 5631 5575
4 3190 3155 3203 3185
4 2623 2659 2637 2661
4 4127 4178 4158 4141
4 2891 2920 2904 2914
4 5127 5080 5104 5058
4 2952 2992 2962 2974
4 5711 5671 5695 5639
4 2295 2291 2292 2335
4 4862 4845 4859 4912
4 3911 3972 3974 3937
4 4962 4987 4928 4985
4 4987 4928 4985 4977
4 3151 3176 3128 3114
4 5908 5848 5888 5912
4 5888 5908 5912 5931
4 1063 1083 1080 1100
4 3246 3273 3249 3217
4 2954 2974 2998 2926
4 1627 1607 1628 1580
4 3674 3678 3707 3658
4 2960 2992 3007 3025
4 4286 4313 4280 4312
4 2112 2126 2140 2096
4 3796 3798 3840 3832
4 3135 3116 3085 3100
4 1760 1747 1763 1715
4 2765 2785 2769 2777
4 2769 2765 2777 2733
4 4134 4127 4077 4083
4 2518 2508 2480 2469
4 1555 1567 1565 1568
4 1441 1426 1443 1416
4 5347 5385 5307 5353
4 6051 6094 6039 6080
4 2554 2592 2567 2566
4 2592 2567 2566 2630
4 2592 2567 2630 2619
4 1599 1621 1593 1635
4 3643 3665 3629 3647
4 4179 4214 4209 4235
4 662 676 679 698
4 4609 4650 4611 4643
4 4597 4646 4624 4615
4 3814 3832 3858 3838
4 3949 3914 3951 3993
4 2505 2527 2562 2550
4 2527 2562 2550 2552
4 2527 2562 2552 2545
4 2505 2527 2550 2496
4 2527 2562 2545 2506
4 2550 2527 2552 2532
4 2527 2550 2496 2532
4 3040 3055 3073 3066
4 3073 3040 3066 3075
4 4632 4687 4667 4663
4 2054 2048 2072 2029
4 3155 3122 3105 3115
4 3122 3105 3115 3094
4 3122 3105 3094 3120
4 3115 3122 3094 3104
4 5737 5741 5785 5720
4 3150 3122 3149 3162
4 2678 2682 2691 2662
4 808 802 776 785
4 5359 5364 5317 5388
4 1541 1532 1567 1568
4 5738 5777 5826 5711
4 2052 2025 2046 2048
4 4650 4626 4611 4663
4 4650 4626 4663 4688
4 4626 4663 4688 4660
4 4663 4688 4660 4661
4 4626 4663 4660 4617
4 4660 4663 4661 4617
4 1184 1203 1198 1210
4 3363 3338 3333 3316
4 5539 5588 5591 5612
4 4427 4444 4462 4435
4 4880 4881 4848 4891
4 2249 2278 2297 2251
4 3218 3249 3239 3217
4 4859 4907 4908 4912
4 1915 1886 1899 1912
4 5378 5439 5358 5450
4 4349 4319 4354 4296
4 4349 4319 4296 4305
4 4499 4536 4497 4529
4 1986 2011 1974 2004
4 3348 3331 3312 3318
4 5676 5715 5647 5709
4 1899 1919 1908 1915
4 2298 2325 2294 2341
4 2272 2248 2255 2224
4 2768 2752 2725 2760
4 5784 5834 5758 5768
4 5830 5893 5855 5827
4 5246 5311 5285 5304
4 4285 4267 4323 4290
4 3726 3721 3749 3689
4 5095 5107 5057 5030
4 2477 2490 2529 2485
4 4661 4632 4593 4617
4 2247 2208 2220 2218
4 4078 4072 4129 4105
4 5786 5793 5858 5879
4 4239 4285 4286 4290
4 3954 4017 3999 3993
4 3954 4017 3993 3983
4 4017 3993 3983 4021
4 3993 3983 4021 3937
4 4021 3993 3937 3963
4 3937 4021 3963 3972
4 4017 3993 4021 4050
4 4017 3993 4050 3999
4 3993 4021 4050 4002
4 4021 3993 3963 4002
4 4575 4556 4560 4617
4 5603 5638 5572 5614
4 5778 5737 5785 5827
4 1487 1503 1508 1507
4 1503 1508 1507 1532
4 5774 5780 5711 5826
4 5774 5780 5826 5851
4 3380 3347 3348 3346
4 4083 4077 4021 4087
4 5519 5501 5447 5437
4 5519 5501 5437 5479
4 5519 5501 5479 5578
4 2629 2633 2671 2680
4 3759 3726 3749 3782
4 5921 5875 5873 5918
4 4775 4741 4776 4737
4 3184 3151 3147 3150
4 2682 2702 2660 2679
4 5723 5693 5754 5689
4 5362 5399 5380 5432
4 5380 5362 5432 5392
4 4306 4323 4267 4287
4 3176 3167 3128 3114
4 2454 2440 2456 2431
4 4851 4889 4852 4866
4 4961 5015 5004 5017
4 3572 3591 3589 3559
4 5439 5442 5424 5499
4 5395 5351 5388 5385
4 2820 2834 2824 2822
4 3397 3412 3448 3406
4 3397 3412 3406 3394
4 3104 3073 3100 3094
4 4475 4522 4499 4520
4 6153 6163 6090 6157
4 5409 5384 5340 5437
4 5409 5384 5437 5479
4 923 937 901 924
4 5362 5330 5346 5392
4 3629 3613 3626 3610
4 3613 3626 3610 3592
4 3626 3610 3592 3596
4 3626 3629 3610 3647
4 3610 3626 3647 3618
4 3610 3626 3618 3596
4 3647 3610 3618 3629
4 3626 3647 3618 3645
4 3610 3592 3596 3597
4 3613 3626 3592 3612
4 3610 3613 3592 3597
4 3592 3626 3596 3605
4 3618 3610 3596 3597
4 3596 3592 3605 3561
4 3626 3618 3596 3645
4 3626 3647 3645 3643
4 3626 3629 3647 3643
4 3647 3618 3645 3646
4 3592 3626 3605 3612
4 2693 2672 2679 2721
4 2693 2672 2721 2696
4 5573 5594 5545 5483
4 3658 3678 3642 3628
4 3678 3642 3628 3667
4 802 808 836 823
4 4788 4752 4721 4756
4 4546 4587 4611 4558
4 4546 4587 4558 4580
4 4181 4186 4231 4209
4 4186 4231 4209 4247
4 4196 4207 4253 4229
4 4253 4196 4229 4212
4 5667 5670 5634 5720
4 3316 3310 3339 3344
4 2896 2926 2890 2915
4 4110 4124 4126 4180
4 4081 4043 4100 4094
4 978 982 997 1004
4 978 982 1004 1000
4 982 997 1004 989
4 3055 3090 3100 3051
4 5149 5148 5095 5173
4 1807 1797 1771 1799
4 4815 4800 4866 4852
4 3351 3379 3332 3359
4 5854 5827 5893 5890
4 2998 3014 2971 2989
4 2998 3014 2989 3018
4 2491 2475 2510 2527
4 1107 1104 1100 1080
4 4776 4819 4791 4852
4 4776 4819 4852 4779
4 1051 1053 1079 1067
4 2605 2566 2578 2552
4 2605 2566 2552 2567
4 2566 2552 2567 2523
4 2566 2552 2523 2532
4 2578 2605 2552 2562
4 1965 1966 1964 2019
4 1309 1311 1307 1336
4 5662 5693 5682 5579
4 4405 4432 4374 4448
4 4520 4535 4522 4499
4 4799 4796 4758 4785
4 4796 4758 4785 4753
4 2459 2432 2420 2442
4 4737 4779 4773 4776
4 4737 4779 4776 4780
4 2427 2434 2403 2395
4 4242 4239 4286 4290
4 4842 4845 4857 4785
4 3150 3190 3187 3209
4 1777 1801 1780 1827
4 5095 5075 5030 5066
4 1187 1168 1173 1180
4 1168 1173 1180 1163
4 5695 5659 5652 5639
4 2002 1970 1988 1966
4 4864 4865 4890 4871
4 4296 4290 4354 4349
4 5825 5773 5828 5852
4 5887 5847 5876 5909
4 2325 2361 2341 2326
4 844 836 808 824
4 1619 1623 1599 1635
4 3863 3827 3788 3832
4 1004 1008 978 1000
4 5525 5523 5561 5510
4 4553 4527 4556 4506
4 5793 5795 5879 5825
4 5225 5220 5291 5294
4 4081 4100 4063 4126
4 3141 3111 3127 3128
4 2127 2147 2131 2100
4 3039 2999 3019 3036
4 5546 5583 5575 5628
4 5847 5887 5874 5909
4 4155 4157 4118 4215
4 4393 4405 4374 4406
4 4134 4135 4127 4083
4 5254 5193 5173 5236
4 3149 3155 3185 3142
4 3185 3149 3142 3201
4 4866 4878 4924 4888
4 2778 2777 2772 2819
4 2778 2777 2819 2823
4 1004 1015 1024 1011
4 2991 2999 3016 2974
4 2991 2999 2974 2975
4 2999 3016 2974 2998
4 2974 2999 2998 2992
4 2999 3016 2998 3036
4 2974 2999 2992 2975
4 2999 2998 2992 3036
4 3016 2998 3036 3051
4 4986 5030 5057 5027
4 4986 5030 5027 4969
4 5027 4986 4969 4937
4 4559 4551 4561 4510
4 4559 4551 4510 4528
4 6089 6038 6043 6057
4 6038 6043 6057 6009
4 6043 6089 6057 6109
4 6089 6057 6109 6149
4 5873 5836 5891 5918
4 4388 4421 4389 4407
4 4388 4421 4407 4408
4 5427 5467 5414 5510
4 1420 1440 1441 1431
4 2073 2058 2054 2029
4 2073 2058 2029 2018
4 2068 2073 2054 2072
4 2073 2054 2072 2029
4 1279 1261 1274 1264
4 6076 6050 6028 6063
4 1033 1015 1032 1024
4 1033 1015 1024 1008
4 5723 5741 5662 5682
4 2249 2278 2251 2270
4 6119 6107 6128 6124
4 4737 4729 4736 4688
4 3335 3304 3346 3324
4 4799 4845 4796 4785
4 5589 5547 5627 5595
4 5589 5547 5595 5531
4 2635 2630 2566 2605
4 5780 5847 5817 5876
4 2213 2241 2200 2208
4 2213 2241 2208 2219
4 4924 4931 4941 4914
4 4931 4941 4914 5005
4 1599 1623 1602 1603
4 4823 4797 4818 4749
4 6083 6146 6088 6138
4 3781 3774 3798 3769
4 6088 6109 6043 6062
4 6088 6109 6062 6138
4 6043 6088 6062 6034
4 6088 6062 6034 6083
4 6062 6034 6083 6037
4 6088 6062 6083 6138
4 6062 6043 6034 6009
4 1886 1862 1861 1915
4 5823 5803 5874 5831
4 2722 2704 2702 2730
4 5170 5225 5149 5174
4 5839 5781 5776 5770
4 3145 3136 3132 3149
4 3136 3132 3149 3122
4 4890 4897 4953 4871
4 4890 4897 4871 4865
4 2116 2149 2131 2125
4 2116 2149 2125 2145
4 2149 2125 2145 2131
4 2125 2116 2145 2075
4 5559 5544 5494 5499
4 5347 5307 5272 5353
4 2226 2218 2200 2252
4 2340 2366 2373 2362
4 1107 1085 1091 1104
4 1107 1085 1104 1080
4 3249 3269 3239 3217
4 3271 3239 3257 3272
4 2962 2925 2974 2955
4 2974 2962 2955 2975
4 2962 2955 2975 2925
4 2975 2962 2925 2934
4 2962 2925 2934 2960
4 2975 2962 2934 2990
4 2974 2962 2975 2992
4 2975 2962 2990 2992
4 3782 3744 3805 3795
4 3805 3782 3795 3819
4 5573 5516 5575 5557
4 3963 4002 4046 4021
4 4505 4519 4461 4473
4 5420 5356 5358 5396
4 5356 5358 5396 5294
4 5667 5634 5722 5720
4 4750 4697 4747 4698
4 2562 2550 2552 2578
4 2176 2149 2145 2171
4 2827 2862 2866 2823
4 2827 2862 2823 2845
4 2823 2827 2845 2802
4 2823 2827 2802 2777
4 2827 2862 2845 2825
4 2862 2823 2845 2849
4 4581 4548 4559 4590
4 4548 4559 4590 4528
4 4559 4581 4590 4602
4 4590 4559 4602 4528
4 4559 4581 4602 4561
4 3483 3509 3459 3493
4 3111 3130 3160 3127
4 4037 4072 4025 4063
4 3119 3100 3114 3132
4 3119 3100 3132 3136
4 3100 3114 3132 3135
4 3132 3100 3135 3122
4 3100 3132 3136 3122
4 3696 3665 3676 3647
4 4569 4586 4588 4624
4 5784 5767 5790 5718
4 5865 5851 5910 5887
4 5910 5865 5887 5915
4 5887 5910 5915 5941
4 4659 4712 4700 4640
4 5706 5731 5709 5803
4 5803 5780 5817 5706
4 1199 1186 1175 1212
4 5727 5783 5773 5828
4 1148 1131 1136 1166
4 2506 2491 2527 2483
4 6070 6086 6122 6115
4 4688 4737 4684 4704
4 5784 5834 5768 5776
4 4752 4739 4700 4756
4 4739 4700 4756 4701
4 2702 2730 2721 2722
4 4626 4611 4663 4617
4 3120 3135 3085 3122
4 3839 3862 3812 3828
4 5784 5833 5872 5834
4 5784 5833 5834 5845
4 5834 5784 5845 5776
4 2645 2607 2630 2605
4 836 844 867 861
4 2100 2131 2113 2147
4 2408 2415 2399 2442
4 1043 1033 1024 1008
4 1032 1011 1024 1015
4 4376 4415 4423 4431
4 1268 1271 1267 1285
4 1267 1268 1285 1288
4 4431 4446 4477 4499
4 4661 4660 4617 4642
4 4660 4617 4642 4678
4 1774 1796 1778 1756
4 4535 4584 4577 4593
4 5726 5770 5787 5762
4 2474 2482 2443 2456
4 3242 3203 3224 3257
4 3250 3270 3219 3209
4 5929 5883 5913 5936
4 4273 4311 4294 4328
4 5639 5626 5671 5659
4 1062 1063 1067 1043
4 4231 4275 4282 4268
4 4231 4275 4268 4283
4 2499 2511 2526 2482
4 2747 2751 2704 2724
4 6067 6107 6119 6124
4 5609 5674 5645 5624
4 1114 1123 1112 1133
4 3447 3434 3475 3431
4 3447 3434 3431 3398
4 2451 2453 2475 2483
4 3630 3668 3647 3653
4 3630 3668 3653 3683
4 2104 2131 2107 2125
4 2107 2104 2125 2071
4 4525 4560 4506 4535
4 4506 4525 4535 4499
4 4525 4560 4535 4577
4 4535 4525 4577 4536
4 4525 4535 4499 4536
4 6059 6029 6008 6046
4 1090 1108 1100 1080
4 5885 5890 5931 5893
4 1184 1203 1210 1212
4 1203 1210 1212 1227
4 2863 2829 2825 2862
4 5009 4984 5013 4937
4 2703 2737 2722 2755
4 3645 3627 3596 3605
4 4987 5013 5057 4985
4 1827 1851 1830 1879
4 5390 5425 5370 5355
4 5390 5425 5355 5409
4 5370 5390 5355 5322
4 5390 5355 5322 5340
4 5390 5355 5340 5409
4 5370 5390 5322 5404
4 5322 5370 5404 5414
4 3397 3400 3366 3387
4 2295 2291 2335 2336
4 5076 5126 5103 5106
4 5076 5126 5106 5071
4 3745 3788 3752 3754
4 5893 5877 5928 5846
4 1557 1583 1569 1580
4 1569 1557 1580 1539
4 1583 1569 1580 1607
4 1580 1569 1539 1536
4 4081 4070 4027 4085
4 1263 1261 1264 1242
4 6051 6039 6005 6022
4 4940 4967 4980 5040
4 3303 3293 3305 3334
4 3303 3293 3334 3318
4 4716 4666 4669 4683
4 4716 4666 4683 4671
4 4666 4669 4683 4624
4 4683 4666 4624 4671
4 1535 1536 1569 1567
4 4965 4941 5003 5012
4 1154 1143 1151 1157
4 4519 4525 4506 4473
4 6063 6098 6139 6076
4 2617 2588 2579 2645
4 2617 2588 2645 2643
4 1658 1682 1685 1664
4 3009 2975 2994 2990
4 3009 2975 2990 2992
4 2975 2994 2990 2934
4 4623 4622 4602 4659
4 4525 4505 4529 4499
4 3612 3576 3592 3613
4 5627 5631 5557 5652
4 1458 1466 1463 1441
4 5193 5254 5243 5236
4 2147 2127 2112 2100
4 5215 5209 5258 5225
4 5258 5215 5225 5236
4 5285 5319 5272 5307
4 4636 4594 4577 4615
4 4636 4594 4615 4597
4 5727 5705 5720 5828
4 4834 4782 4788 4756
4 2811 2845 2861 2825
4 1000 983 978 982
4 983 978 982 956
4 978 982 956 963
4 1985 1961 1972 1974
4 5417 5414 5370 5328
4 3928 3938 3868 3922
4 3928 3938 3922 3936
4 3484 3464 3448 3478
4 3484 3464 3478 3510
4 3478 3484 3510 3497
4 3448 3484 3478 3447
4 3484 3478 3447 3465
4 3464 3448 3478 3510
4 3478 3448 3447 3465
4 3478 3448 3465 3479
4 3478 3448 3479 3510
4 3510 3478 3497 3479
4 4827 4790 4780 4845
4 3681 3711 3660 3690
4 4878 4843 4914 4818
4 2777 2769 2733 2772
4 2777 2769 2772 2816
4 5160 5148 5173 5095
4 6102 6065 6078 6152
4 4290 4296 4247 4302
4 4290 4296 4302 4349
4 4247 4290 4302 4267
4 4435 4431 4477 4499
4 4261 4306 4287 4249
4 1777 1780 1753 1728
4 2923 2890 2893 2884
4 2923 2890 2884 2926
4 2890 2893 2884 2864
4 2893 2884 2864 2876
4 2893 2923 2884 2925
4 1726 1728 1703 1678
4 5642 5631 5705 5717
4 5631 5705 5717 5652
4 1392 1420 1412 1404
4 3302 3265 3279 3300
4 4123 4092 4137 4077
4 3039 3016 3036 3051
4 4760 4722 4731 4790
4 4760 4722 4790 4771
4 3550 3577 3526 3560
4 2739 2724 2747 2714
4 2374 2361 2393 2326
4 4842 4796 4845 4785
4 2594 2616 2578 2605
4 5783 5799 5857 5888
4 2232 2204 2206 2220
4 5845 5836 5776 5839
4 3155 3122 3115 3142
4 4257 4242 4280 4312
4 1464 1459 1490 1470
4 2823 2819 2828 2777
4 3616 3641 3594 3624
4 1932 1949 1921 1974
4 5721 5709 5761 5676
4 1400 1404 1383 1370
4 1400 1404 1370 1392
4 1949 1970 1964 1966
4 3105 3115 3094 3065
4 5711 5738 5774 5826
4 2019 2031 2017 2044
4 2031 2017 2044 2016
4 3621 3638 3605 3627
4 3529 3536 3497 3519
4 3066 3073 3075 3094
4 3066 3073 3094 3085
4 2554 2526 2566 2567
4 2003 1988 1966 2017
4 2003 1988 2017 2016
4 5904 5896 5893 5931
4 2877 2862 2873 2907
4 2862 2873 2907 2884
4 2873 2907 2884 2926
4 2862 2873 2884 2845
4 2884 2862 2845 2849
4 2907 2862 2884 2894
4 4427 4411 4462 4428
4 2373 2403 2371 2395
4 1534 1536 1532 1568
4 5304 5258 5291 5317
4 5304 5258 5317 5285
4 2734 2743 2711 2776
4 1431 1435 1448 1424
4 5831 5761 5734 5721
4 5761 5734 5721 5676
4 1896 1894 1884 1873
4 4980 5045 4989 5006
4 2208 2230 2241 2265
4 3782 3831 3785 3855
4 5784 5758 5718 5768
4 5758 5718 5768 5673
4 5916 5884 5883 5936
4 4667 4687 4731 4707
4 5517 5516 5448 5503
4 5517 5516 5503 5575
4 5516 5448 5503 5483
4 5516 5503 5575 5557
4 5351 5364 5388 5317
4 5838 5799 5783 5888
4 5329 5300 5368 5341
4 4349 4354 4355 4290
4 5158 5175 5224 5241
4 2672 2673 2630 2677
4 5206 5155 5193 5243
4 5206 5155 5243 5204
4 5206 5155 5204 5186
4 4580 4541 4568 4558
4 4580 4541 4558 4546
4 4541 4558 4546 4529
4 4558 4546 4529 4577
4 4541 4558 4529 4532
4 4558 4529 4532 4567
4 4290 4272 4312 4242
4 4985 4965 5012 4941
4 3546 3562 3567 3529
4 3546 3562 3529 3520
4 3562 3529 3520 3566
4 5935 5893 5928 5925
4 5935 5893 5925 5931
4 5307 5244 5243 5310
4 5307 5244 5310 5306
4 5310 5307 5306 5362
4 5310 5307 5362 5339
4 5857 5795 5825 5879
4 5012 5020 5079 5007
4 5012 5020 5007 4941
4 4564 4597 4567 4594
4 3415 3444 3395 3423
4 2487 2504 2474 2456
4 6033 6081 6077 6066
4 6081 6077 6066 6115
4 6033 6081 6066 6069
4 5385 5362 5307 5339
4 2832 2857 2842 2841
4 3114 3092 3128 3116
4 1885 1891 1925 1903
4 3150 3135 3162 3174
4 1163 1154 1155 1168
4 2827 2829 2862 2825
4 5108 5097 5038 5075
4 5108 5097 5075 5111
4 5108 5097 5111 5173
4 5097 5075 5111 5038
4 5075 5111 5038 5066
4 3546 3511 3548 3520
4 5679 5621 5650 5665
4 5679 5621 5665 5578
4 2190 2192 2220 2171
4 5759 5727 5773 5705
4 3805 3795 3845 3878
4 5526 5561 5510 5572
4 1785 1815 1812 1799
4 2072 2044 2029 2048
4 2726 2721 2733 2696
4 4186 4181 4160 4209
4 5753 5689 5703 5726
4 4017 4027 3973 4070
4 2510 2475 2456 2504
4 1011 996 1022 1021
4 4253 4229 4239 4212
4 1697 1721 1715 1698
4 5887 5915 5894 5941
4 3648 3612 3605 3645
4 5460 5457 5433 5482
4 5916 5911 5953 5936
4 5307 5254 5285 5314
4 5383 5395 5422 5385
4 5113 5105 5057 5149
4 3671 3648 3707 3658
4 2771 2796 2788 2776
4 6157 6148 6093 6111
4 6157 6148 6111 6153
4 6111 6157 6153 6090
4 6148 6093 6111 6074
4 6093 6157 6111 6097
4 6093 6157 6097 6106
4 5877 5841 5907 5895
4 4327 4357 4294 4374
4 4327 4357 4374 4393
4 5803 5847 5874 5878
4 4078 4063 4100 4126
4 4078 4063 4126 4129
4 3241 3270 3209 3217
4 3209 3241 3217 3190
4 3217 3209 3190 3205
4 3217 3209 3205 3246
4 3209 3241 3190 3203
4 3241 3217 3190 3257
4 2099 2116 2113 2131
4 2099 2116 2131 2125
4 4017 3973 3999 4070
4 4387 4416 4411 4342
4 4989 5050 5006 5045
4 3136 3104 3100 3122
4 836 825 813 802
4 3475 3487 3519 3467
4 4587 4560 4611 4617
4 1704 1697 1695 1705
4 1796 1782 1756 1790
4 5424 5442 5472 5503
4 3404 3434 3387 3418
4 2362 2367 2336 2322
4 1349 1371 1346 1370
4 5107 5149 5057 5105
4 3559 3588 3605 3628
4 5880 5929 5913 5894
4 5929 5913 5894 5940
4 5929 5913 5940 5962
4 3312 3303 3334 3318
4 2777 2755 2772 2733
4 4247 4242 4290 4239
4 4787 4776 4791 4759
4 3999 3951 3954 3993
4 5470 5447 5426 5390
4 3380 3378 3397 3348
4 5724 5695 5652 5706
4 2876 2864 2849 2884
4 2926 2936 2967 2954
4 4546 4525 4529 4577
4 4537 4564 4536 4594
4 5931 5944 5972 5935
4 4687 4720 4731 4775
4 4261 4225 4249 4287
4 4405 4430 4467 4406
4 4061 4101 4075 4105
4 1309 1328 1336 1346
4 5107 5072 5057 5030
4 5002 5015 5017 5106
4 2850 2825 2824 2861
4 2208 2177 2220 2218
4 3788 3827 3803 3798
4 3827 3803 3798 3864
4 3788 3827 3798 3832
4 4429 4389 4421 4407
4 4429 4389 4407 4431
4 4421 4429 4407 4463
4 4407 4421 4463 4408
4 1697 1704 1721 1705
4 5448 5475 5422 5385
4 3851 3835 3800 3812
4 5880 5902 5929 5894
4 4002 4018 4050 3993
4 4018 4050 3993 3999
4 5128 5097 5187 5173
4 5628 5575 5659 5583
4 4083 4046 4021 3974
4 1966 1936 1964 1949
4 4479 4467 4485 4406
4 4313 4340 4312 4318
4 2992 2960 2990 3025
4 5358 5341 5413 5396
4 5358 5341 5396 5294
4 4669 4646 4667 4615
4 4669 4646 4615 4624
4 4667 4669 4615 4707
4 2220 2249 2251 2243
4 2249 2251 2243 2270
4 3252 3273 3214 3270
4 5711 5706 5639 5695
4 5711 5706 5695 5777
4 5706 5639 5695 5652
4 3286 3318 3269 3312
4 4866 4924 4892 4888
4 4892 4866 4888 4823
4 5155 5128 5193 5111
4 4313 4286 4318 4312
4 2866 2877 2883 2894
4 2883 2866 2894 2837
4 5525 5570 5574 5625
4 5225 5195 5149 5215
4 1024 1008 1017 1043
4 5726 5787 5753 5764
4 3347 3318 3348 3346
4 2433 2418 2415 2399
4 1565 1590 1568 1567
4 5822 5836 5875 5839
4 5875 5822 5839 5835
4 5822 5839 5835 5770
4 5839 5835 5770 5762
4 5839 5875 5835 5892
4 5835 5839 5892 5853
4 5834 5891 5845 5884
4 5574 5560 5525 5625
4 2298 2269 2270 2278
4 4646 4597 4636 4615
4 5918 5891 5920 5845
4 5413 5431 5488 5497
4 3858 3838 3816 3814
4 4686 4688 4650 4697
4 2817 2785 2802 2777
4 5847 5803 5817 5878
4 4353 4393 4327 4328
4 5905 5935 5928 5949
4 5780 5731 5706 5803
4 956 962 978 937
4 1663 1647 1648 1617
4 5514 5540 5460 5493
4 5460 5514 5493 5475
4 4479 4503 4551 4485
4 1470 1443 1440 1441
4 6089 6091 6038 6057
4 4187 4161 4137 4178
4 5831 5805 5863 5823
4 2919 2960 2909 2961
4 3832 3814 3818 3781
4 3352 3387 3398 3397
4 4070 4080 4017 4085
4 5532 5495 5452 5510
4 5370 5322 5328 5414
4 2310 2294 2341 2298
4 4775 4790 4731 4780
4 4731 4775 4780 4737
4 4790 4731 4780 4799
4 5767 5750 5687 5718
4 5254 5307 5243 5314
4 4364 4381 4412 4438
4 3973 3978 4039 4027
4 3285 3294 3324 3272
4 6078 6054 6029 6024
4 6054 6029 6024 6008
4 4498 4463 4489 4488
4 4498 4463 4488 4465
4 1940 1933 1944 1976
4 4081 4124 4113 4164
4 3665 3675 3676 3647
4 5540 5584 5532 5493
4 5743 5731 5823 5805
4 4438 4465 4473 4506
4 6119 6118 6084 6069
4 6077 6086 6035 6070
4 5019 4994 5050 5086
4 5759 5773 5717 5705
4 5773 5717 5705 5755
4 5717 5705 5755 5652
4 5773 5717 5755 5724
4 5717 5755 5724 5652
4 5773 5717 5724 5786
4 3887 3937 3878 3923
4 2347 2335 2299 2292
4 5802 5837 5863 5823
4 1038 1017 1043 1024
4 6065 6102 6076 6147
4 2531 2510 2517 2567
4 4002 3963 3949 3993
4 2567 2607 2579 2552
4 6089 6109 6155 6149
4 2909 2877 2907 2894
4 2811 2797 2845 2825
4 2847 2827 2866 2828
4 3432 3447 3448 3397
4 4337 4323 4287 4336
4 4337 4323 4336 4407
4 4287 4337 4336 4343
4 4337 4336 4343 4407
4 5719 5711 5695 5777
4 5706 5674 5645 5709
4 5645 5706 5709 5701
4 2827 2802 2825 2845
4 4318 4376 4355 4321
4 4906 4859 4856 4827
4 4856 4906 4827 4892
4 4859 4856 4827 4821
4 4827 4859 4821 4845
4 4856 4827 4821 4775
4 4859 4821 4845 4813
4 1412 1420 1441 1431
4 2265 2247 2218 2208
4 3094 3058 3105 3065
4 3094 3058 3065 3075
4 2769 2785 2756 2816
4 5575 5590 5659 5620
4 2765 2748 2802 2782
4 2802 2765 2782 2777
4 2765 2782 2777 2755
4 2294 2278 2266 2269
4 5222 5234 5241 5144
4 1199 1221 1212 1210
4 1212 1199 1210 1175
4 3520 3472 3512 3464
4 5589 5591 5634 5664
4 5589 5591 5664 5627
4 5664 5589 5627 5670
4 5627 5664 5670 5705
4 5627 5664 5705 5678
4 5664 5670 5705 5720
4 5670 5627 5705 5631
4 5664 5670 5720 5634
4 5705 5664 5720 5678
4 5627 5705 5631 5652
4 4685 4669 4667 4722
4 4685 4669 4722 4716
4 4921 4953 4975 4928
4 6031 6063 6022 6028
4 4852 4896 4892 4889
4 3576 3605 3592 3561
4 4285 4239 4247 4290
4 4887 4862 4912 4845
4 2887 2890 2896 2858
4 3803 3783 3804 3788
4 6051 6031 6022 6005
4 1184 1163 1166 1175
4 1163 1166 1175 1146
4 1166 1184 1175 1212
4 3085 3116 3079 3092
4 4830 4864 4890 4871
4 2998 3036 3018 2992
4 3880 3888 3934 3887
4 5584 5540 5514 5493
4 3490 3472 3462 3501
4 3249 3218 3246 3217
4 4800 4779 4736 4780
4 5715 5752 5761 5676
4 5639 5706 5645 5652
4 3162 3145 3174 3132
4 3162 3145 3132 3149
4 3174 3162 3132 3135
4 3162 3132 3135 3122
4 3132 3162 3149 3122
4 3788 3753 3752 3798
4 4250 4247 4231 4186
4 6065 6076 6028 6060
4 5341 5320 5300 5368
4 5320 5300 5368 5316
4 5877 5907 5928 5895
4 4889 4928 4896 4892
4 4928 4896 4892 4906
4 4066 4109 4119 4103
4 2765 2753 2748 2721
4 3092 3114 3090 3100
4 3092 3114 3100 3116
4 4659 4623 4640 4602
4 4790 4821 4813 4845
4 4906 4856 4896 4892
4 5703 5665 5689 5578
4 2562 2552 2545 2579
4 4823 4866 4800 4892
4 3811 3815 3868 3788
4 1370 1362 1400 1379
4 659 628 646 615
4 5883 5833 5843 5845
4 5424 5359 5396 5388
4 2922 2907 2926 2952
4 4141 4186 4160 4130
4 6159 6095 6149 6153
4 3689 3707 3717 3749
4 4540 4564 4567 4536
4 4564 4567 4536 4594
4 4567 4540 4536 4497
4 4536 4567 4497 4529
4 5863 5887 5894 5823
4 2269 2232 2270 2243
4 2269 2232 2243 2249
4 2270 2269 2243 2249
4 2232 2270 2243 2206
4 4505 4465 4498 4488
4 2828 2819 2837 2777
4 3338 3344 3300 3316
4 1091 1112 1095 1107
4 5050 5091 5086 4994
4 5224 5211 5191 5288
4 5825 5783 5857 5888
4 5857 5825 5888 5879
4 3128 3158 3141 3180
4 5934 5918 5920 5954
4 2955 2974 2923 2925
4 2858 2850 2887 2861
4 5587 5624 5609 5645
4 4062 3999 4070 4017
4 5648 5650 5625 5725
4 6097 6042 6090 6071
4 6090 6097 6071 6111
4 6097 6042 6071 6093
4 6071 6097 6093 6111
4 6093 6071 6111 6074
4 6093 6071 6074 6032
4 6093 6071 6032 6042
4 5780 5706 5711 5777
4 3863 3868 3880 3832
4 4135 4137 4127 4083
4 5285 5311 5351 5364
4 4161 4187 4212 4178
4 3345 3357 3387 3340
4 5684 5631 5717 5659
4 5304 5359 5317 5291
4 4179 4214 4235 4249
4 2482 2526 2480 2469
4 2480 2482 2469 2436
4 5767 5715 5761 5790
4 3785 3749 3783 3753
4 5573 5639 5594 5652
4 4053 4083 4021 3974
4 4593 4556 4617 4560
4 5927 5907 5895 5928
4 2408 2399 2420 2442
4 5726 5679 5770 5650
4 5494 5442 5481 5499
4 3831 3855 3864 3785
4 2775 2751 2782 2748
4 3815 3811 3800 3756
4 5013 4986 5057 5027
4 5013 4986 5027 4937
4 2919 2909 2894 2961
4 5052 5008 5081 5013
4 5300 5309 5316 5205
4 1663 1685 1660 1661
4 1660 1663 1661 1617
4 4906 4885 4921 4928
4 3672 3717 3729 3689
4 937 923 956 947
4 5433 5385 5460 5493
4 5460 5433 5493 5482
4 3190 3149 3185 3201
4 2873 2907 2926 2892
4 2873 2907 2892 2877
4 3612 3648 3643 3645
4 5111 5071 5038 5011
4 2827 2866 2828 2823
4 2828 2827 2823 2777
4 4475 4499 4446 4506
4 5310 5307 5339 5243
4 3334 3316 3348 3373
4 3993 3954 3983 3914
4 2752 2768 2775 2760
4 5833 5884 5834 5845
4 5567 5514 5584 5556
4 3658 3672 3707 3671
4 2068 2081 2100 2085
4 6072 6049 6038 6023
4 6072 6049 6023 6041
4 6049 6038 6023 6000
4 4593 4535 4556 4560
4 5422 5460 5385 5475
4 4857 4887 4904 4912
4 4857 4887 4912 4845
4 5341 5294 5320 5366
4 5294 5320 5366 5318
4 5320 5341 5366 5413
4 3814 3832 3838 3788
4 3814 3832 3788 3769
4 3814 3832 3769 3781
4 3674 3648 3658 3707
4 4977 5038 5011 5066
4 1268 1267 1249 1288
4 6065 6076 6060 6143
4 6110 6063 6139 6099
4 6110 6063 6099 6080
4 6139 6110 6099 6124
4 6110 6063 6080 6051
4 6099 6110 6080 6124
4 2960 2962 2990 2934
4 2534 2526 2511 2469
4 4775 4827 4780 4801
4 4506 4525 4499 4446
4 3729 3749 3689 3717
4 3729 3749 3717 3774
4 2479 2508 2469 2480
4 5254 5243 5236 5314
4 5241 5273 5224 5281
4 5224 5241 5281 5242
4 5281 5224 5242 5288
4 5831 5805 5823 5731
4 2009 2038 2041 2021
4 2038 2041 2021 2065
4 2041 2021 2065 2047
4 4296 4275 4247 4302
4 4296 4275 4302 4349
4 4275 4247 4302 4267
4 4275 4302 4349 4336
4 4296 4275 4349 4305
4 2002 2029 2018 2017
4 2002 2029 2017 1988
4 2018 2002 2017 1966
4 2029 2017 1988 2016
4 2017 2002 1988 1966
4 2029 2018 2017 2044
4 2017 2029 2044 2016
4 3562 3529 3566 3551
4 3529 3566 3551 3510
4 3551 3529 3510 3519
4 3529 3566 3510 3520
4 3510 3529 3520 3473
4 3529 3510 3519 3497
4 3529 3510 3497 3479
4 3529 3510 3479 3473
4 4209 4179 4235 4164
4 4160 4186 4209 4130
4 1276 1271 1285 1295
4 1271 1285 1295 1267
4 1175 1166 1148 1136
4 2125 2145 2131 2171
4 3432 3430 3381 3389
4 3432 3430 3389 3417
4 5187 5193 5201 5153
4 5437 5519 5479 5473
4 6085 6037 6082 6068
4 6085 6037 6068 6062
4 6082 6085 6068 6130
4 6085 6068 6130 6138
4 1243 1225 1242 1263
4 4070 4039 4027 3973
4 4141 4160 4113 4130
4 4160 4113 4130 4179
4 5623 5570 5561 5625
4 2825 2802 2797 2845
4 4889 4928 4892 4924
4 3079 3116 3128 3092
4 1295 1285 1307 1287
4 5621 5578 5560 5665
4 2532 2550 2578 2552
4 2578 2532 2552 2566
4 5721 5641 5709 5676
4 1885 1896 1894 1903
4 3831 3798 3785 3864
4 2975 3009 2999 2992
4 5525 5519 5520 5447
4 2594 2631 2648 2588
4 2453 2475 2483 2487
4 2433 2415 2442 2399
4 2752 2747 2725 2760
4 2785 2769 2777 2816
4 4989 4970 4943 4930
4 1881 1879 1901 1930
4 5557 5559 5499 5544
4 2919 2934 2960 2961
4 2824 2825 2811 2861
4 2567 2566 2630 2605
4 2920 2951 2904 2914
4 5715 5633 5647 5640
4 5633 5647 5640 5532
4 5891 5934 5884 5916
4 5304 5246 5258 5285
4 2824 2869 2850 2861
4 5641 5607 5645 5647
4 2876 2849 2837 2828
4 2876 2849 2828 2894
4 2876 2849 2894 2884
4 1508 1530 1532 1512
4 5399 5457 5432 5433
4 4130 4148 4137 4186
4 2866 2862 2894 2852
4 2866 2862 2852 2823
4 2894 2866 2852 2828
4 2866 2852 2828 2823
4 2852 2828 2823 2849
4 2852 2828 2849 2894
4 2823 2852 2849 2862
4 2849 2852 2894 2862
4 1503 1512 1495 1508
4 1881 1853 1879 1830
4 4584 4632 4577 4593
4 3675 3696 3676 3717
4 4736 4697 4707 4688
4 4707 4736 4688 4737
4 3529 3511 3520 3473
4 2374 2399 2378 2436
4 2336 2310 2322 2341
4 1785 1763 1768 1799
4 1768 1785 1799 1797
4 5664 5589 5670 5634
4 5146 5112 5174 5113
4 5174 5146 5113 5149
4 5146 5112 5113 5058
4 5113 5174 5149 5150
4 5112 5174 5113 5079
4 5113 5174 5150 5079
4 2672 2673 2677 2733
4 1812 1785 1799 1763
4 2336 2335 2322 2291
4 4878 4914 4924 4941
4 4878 4914 4941 4898
4 4878 4914 4898 4818
4 4914 4941 4898 5005
4 4924 4878 4941 4888
4 5726 5665 5650 5708
4 5726 5665 5708 5689
4 4924 4892 4888 4985
4 3689 3707 3749 3726
4 4389 4388 4407 4323
4 2884 2893 2925 2894
4 6097 6093 6106 6042
4 3380 3366 3346 3397
4 6148 6111 6153 6144
4 6111 6153 6144 6072
4 5231 5280 5283 5268
4 5231 5280 5268 5310
4 5280 5268 5310 5283
4 5231 5280 5310 5244
4 5268 5231 5310 5206
4 5268 5231 5206 5204
4 5310 5268 5206 5243
4 5268 5206 5243 5204
4 5310 5268 5243 5339
4 5115 5084 5091 5158
4 5115 5084 5158 5109
4 5356 5359 5291 5294
4 4894 4932 4936 4850
4 2682 2678 2648 2645
4 2682 2678 2645 2643
4 2682 2678 2643 2662
4 2643 2682 2662 2683
4 3040 3055 3066 3036
4 4663 4650 4688 4707
4 4688 4663 4707 4687
4 4663 4650 4707 4643
4 4663 4707 4687 4667
4 5836 5875 5839 5918
4 5005 5034 5058 5104
4 6147 6152 6143 6065
4 5450 5462 5499 5396
4 2017 2019 2044 2047
4 5594 5639 5645 5652
4 6024 6065 6028 6060
4 3335 3304 3324 3340
4 2504 2523 2474 2456
4 1919 1908 1915 1950
4 5921 5875 5918 5892
4 5702 5699 5612 5662
4 3018 3036 3040 2992
4 5544 5575 5557 5559
4 5431 5413 5407 5497
4 3517 3506 3520 3559
4 4654 4650 4643 4697
4 4654 4650 4697 4717
4 4697 4654 4717 4735
4 4643 4654 4697 4698
4 4650 4697 4717 4686
4 1930 1954 1931 1980
4 5353 5351 5385 5307
4 3009 3019 2992 2990
4 3009 3019 2990 2994
4 3019 2992 2990 3025
4 3036 3039 3051 3085
4 6065 6078 6152 6143
4 3811 3815 3788 3745
4 6062 6083 6138 6085
4 6062 6083 6085 6037
4 4842 4796 4785 4817
4 2630 2673 2663 2677
4 4271 4232 4251 4273
4 4271 4232 4273 4215
4 4232 4251 4273 4215
4 3324 3352 3334 3346
4 3352 3334 3346 3381
4 3324 3352 3346 3366
4 3352 3346 3366 3397
4 1746 1760 1715 1721
4 2890 2861 2873 2858
4 3464 3484 3512 3510
4 3484 3512 3510 3551
4 3512 3464 3510 3520
4 3510 3512 3520 3566
4 3512 3510 3551 3566
4 3512 3520 3566 3561
4 3512 3520 3561 3517
4 695 694 671 666
4 5127 5112 5058 5104
4 5112 5058 5104 5079
4 5127 5112 5104 5189
4 5112 5058 5079 5113
4 4126 4078 4129 4174
4 5883 5843 5913 5920
4 5831 5863 5894 5823
4 4287 4326 4343 4249
4 2482 2523 2510 2456
4 6043 6057 6009 6062
4 3241 3270 3217 3269
4 3241 3270 3269 3293
4 3241 3270 3293 3242
4 3270 3269 3293 3273
4 3217 3241 3269 3257
4 3270 3269 3273 3209
4 3269 3241 3293 3257
4 2703 2722 2677 2733
4 5908 5931 5948 5912
4 5911 5916 5883 5936
4 2177 2175 2131 2171
4 3827 3863 3880 3832
4 1146 1155 1136 1175
4 5526 5512 5451 5427
4 2986 2969 2984 3017
4 5123 5175 5158 5144
4 5447 5437 5390 5470
4 1262 1249 1267 1288
4 2487 2504 2456 2475
4 5709 5645 5701 5647
4 3484 3513 3512 3551
4 5737 5720 5699 5662
4 1874 1857 1898 1908
4 4212 4247 4178 4187
4 4529 4525 4499 4536
4 5427 5417 5357 5328
4 5621 5650 5665 5560
4 5621 5650 5560 5625
4 1370 1362 1379 1346
4 1370 1362 1346 1330
4 1370 1362 1330 1341
4 3671 3648 3658 3645
4 6071 6111 6074 6053
4 6071 6111 6053 6072
4 6070 6040 6025 6068
4 3475 3447 3431 3465
4 5770 5835 5787 5762
4 2894 2907 2925 2884
4 2907 2925 2884 2923
4 2907 2925 2923 2952
4 2884 2907 2923 2926
4 2907 2923 2926 2952
4 5887 5837 5851 5876
4 5837 5851 5876 5780
4 5561 5526 5603 5572
4 5595 5627 5557 5521
4 5761 5715 5676 5709
4 5133 5123 5063 5040
4 1903 1906 1925 1896
4 1811 1785 1812 1777
4 4405 4432 4448 4467
4 4625 4649 4609 4568
4 4305 4349 4342 4275
4 5945 5929 5940 5962
4 2630 2672 2677 2605
4 5470 5525 5447 5437
4 1886 1899 1912 1861
4 5482 5532 5452 5493
4 4933 4928 4924 4985
4 3815 3811 3756 3745
4 3352 3349 3381 3398
4 4467 4479 4432 4448
4 4467 4479 4448 4406
4 4716 4758 4753 4785
4 5918 5934 5952 5954
4 5934 5952 5954 5963
4 5934 5952 5963 5916
4 5659 5719 5724 5717
4 5724 5659 5717 5652
4 3055 3073 3066 3085
4 4912 4974 4961 4955
4 2663 2710 2703 2673
4 5785 5827 5838 5885
4 5753 5764 5689 5726
4 4147 4160 4164 4113
4 4186 4178 4237 4247
4 5509 5545 5516 5573
4 5545 5516 5573 5483
4 4135 4156 4109 4150
4 4135 4156 4150 4192
4 2430 2452 2465 2411
4 4953 4937 4928 4896
4 4928 4953 4896 4921
4 2765 2753 2721 2733
4 2278 2247 2266 2269
4 4059 4082 4083 4135
4 2483 2527 2504 2475
4 6057 6043 6109 6062
4 6109 6057 6062 6140
4 6063 6051 6022 6080
4 1503 1474 1508 1495
4 6076 6028 6060 6063
4 3216 3248 3267 3231
4 5560 5519 5525 5473
4 5874 5823 5831 5894
4 5831 5874 5894 5880
4 5891 5836 5845 5918
4 4479 4511 4448 4528
4 4479 4511 4528 4551
4 5503 5516 5483 5557
4 4611 4609 4643 4558
4 2765 2748 2782 2722
4 3864 3855 3819 3785
4 4540 4569 4588 4507
4 5231 5206 5244 5310
4 4186 4141 4137 4130
4 5627 5664 5678 5591
4 6133 6126 6124 6075
4 6133 6126 6075 6137
4 6126 6124 6075 6058
4 5609 5587 5645 5545
4 1001 1000 1004 982
4 4247 4275 4231 4209
4 5607 5584 5645 5580
4 5607 5584 5580 5532
4 2782 2751 2755 2722
4 4697 4750 4707 4698
4 5920 5891 5884 5845
4 5717 5684 5659 5719
4 4431 4394 4376 4355
4 4148 4187 4137 4186
4 3269 3273 3312 3293
4 2802 2803 2797 2748
4 5767 5715 5790 5718
4 2155 2130 2166 2108
4 2648 2679 2672 2682
4 5764 5830 5741 5846
4 4465 4429 4463 4456
4 4465 4429 4456 4431
4 5468 5448 5397 5424
4 4306 4326 4287 4249
4 5769 5720 5785 5828
4 5887 5823 5874 5894
4 5874 5887 5894 5941
4 2989 3018 2992 2998
4 4194 4155 4174 4215
4 4885 4856 4921 4896
4 5911 5883 5929 5936
4 1721 1715 1747 1760
4 2220 2249 2243 2232
4 6077 6086 6070 6115
4 5767 5832 5843 5761
4 3596 3645 3605 3626
4 5902 5929 5894 5940
4 5894 5902 5940 5915
4 5940 5894 5915 5941
4 5915 5940 5941 5956
4 5915 5940 5956 5945
4 5940 5941 5956 5976
4 4922 4880 4943 4930
4 5928 5935 5925 5966
4 2861 2845 2873 2825
4 4294 4327 4374 4328
4 2579 2607 2588 2562
4 6089 6091 6057 6149
4 3803 3788 3798 3753
4 3798 3803 3753 3785
4 3798 3803 3785 3864
4 5687 5750 5681 5718
4 5867 5894 5915 5902
4 5867 5894 5902 5880
4 5291 5258 5294 5317
4 5258 5294 5317 5236
4 3782 3805 3855 3819
4 4878 4823 4818 4898
4 1974 1951 1949 1921
4 1974 1988 2016 2029
4 5482 5540 5532 5493
4 4593 4617 4631 4661
4 1210 1212 1227 1239
4 1210 1212 1239 1221
4 2484 2513 2465 2479
4 1827 1830 1803 1780
4 6038 6043 6009 5993
4 4231 4275 4283 4209
4 5687 5614 5640 5681
4 5640 5687 5681 5718
4 5681 5640 5718 5638
4 5681 5640 5638 5614
4 5718 5681 5638 5673
4 5640 5718 5638 5658
4 5638 5718 5673 5658
4 5638 5640 5658 5572
4 5638 5640 5572 5614
4 5640 5572 5614 5532
4 5673 5638 5658 5625
4 2934 2894 2876 2929
4 2934 2894 2929 2961
4 1239 1249 1223 1212
4 1239 1249 1212 1227
4 5189 5230 5174 5248
4 6007 6024 6028 5992
4 6007 6024 5992 6008
4 1580 1569 1536 1568
4 6045 6025 6001 6035
4 5858 5914 5870 5882
4 5858 5914 5882 5879
4 5870 5858 5882 5777
4 4498 4541 4505 4488
4 4498 4541 4488 4489
4 2721 2702 2722 2672
4 4525 4506 4473 4465
4 2003 2019 2017 1966
4 2204 2232 2208 2220
4 2673 2672 2696 2733
4 1811 1797 1785 1762
4 4687 4731 4707 4737
4 5682 5693 5689 5579
4 3304 3271 3257 3272
4 6148 6093 6074 6078
4 5773 5825 5786 5852
4 5584 5609 5645 5545
4 5355 5340 5281 5322
4 2415 2395 2434 2427
4 4601 4602 4672 4653
4 4601 4602 4653 4585
4 4601 4602 4585 4528
4 3783 3803 3753 3788
4 4561 4559 4510 4585
4 3387 3398 3397 3431
4 5475 5545 5493 5483
4 4959 4906 4921 4975
4 4407 4388 4408 4337
4 4836 4792 4848 4891
4 4495 4497 4504 4462
4 4497 4504 4462 4507
4 4336 4287 4343 4283
4 5195 5225 5209 5215
4 5273 5322 5281 5241
4 5273 5322 5241 5234
4 2523 2482 2474 2456
4 1338 1328 1336 1312
4 1766 1762 1785 1797
4 1785 1766 1797 1768
4 4214 4209 4235 4287
4 2730 2748 2721 2722
4 5128 5193 5111 5173
4 5193 5111 5173 5150
4 5111 5173 5150 5095
4 2748 2766 2802 2803
4 2847 2866 2883 2816
4 4006 4021 3937 3974
4 4771 4799 4758 4722
4 5787 5726 5762 5708
4 2877 2862 2907 2894
4 2862 2873 2845 2825
4 1950 1965 1936 1912
4 6064 6084 6036 6069
4 5913 5929 5936 5962
4 3116 3085 3100 3092
4 1193 1184 1198 1180
4 1184 1198 1180 1210
4 5895 5853 5892 5924
4 5892 5895 5924 5951
4 4775 4791 4856 4852
4 2605 2648 2654 2672
4 923 904 901 880
4 3269 3239 3217 3257
4 2147 2112 2113 2100
4 3406 3381 3432 3397
4 3406 3381 3397 3348
4 3432 3406 3397 3448
4 6144 6149 6140 6079
4 6149 6140 6079 6057
4 6140 6144 6079 6134
4 4977 4954 4906 4960
4 4896 4871 4921 4953
4 1848 1861 1862 1815
4 2866 2847 2828 2816
4 3439 3473 3445 3448
4 3445 3439 3448 3406
4 3439 3473 3448 3464
4 3439 3448 3406 3432
4 3433 3400 3448 3447
4 5699 5634 5612 5660
4 5699 5634 5660 5720
4 5660 5699 5720 5662
4 5720 5660 5662 5678
4 5038 4977 5075 5066
4 3312 3273 3303 3293
4 5913 5894 5940 5941
4 4214 4235 4249 4287
4 2775 2797 2803 2748
4 6072 6091 6149 6057
4 6072 6091 6057 6038
4 5185 5230 5220 5225
4 1536 1535 1532 1567
4 2044 2071 2029 2047
4 3800 3834 3816 3761
4 2482 2481 2456 2510
4 4650 4611 4643 4663
4 6122 6125 6082 6130
4 4581 4623 4602 4561
4 4229 4195 4239 4212
4 3519 3498 3551 3545
4 3551 3519 3545 3567
4 3519 3498 3545 3487
4 2992 2952 2989 2998
4 3333 3363 3316 3373
4 2796 2788 2776 2841
4 3241 3190 3203 3257
4 5035 5011 5071 5002
4 5071 5035 5002 5076
4 5035 5011 5002 4960
4 5011 5002 4960 5017
4 5002 5035 4960 4954
4 5011 5002 5017 5071
4 4960 5011 5017 5007
4 5011 5017 5007 5079
4 3798 3840 3832 3827
4 3798 3840 3827 3864
4 4961 5002 5017 4960
4 4961 5002 4960 4955
4 4712 4721 4700 4640
4 4273 4294 4215 4252
4 5833 5790 5843 5845
4 6095 6090 6041 6072
4 5510 5526 5572 5495
4 2325 2298 2326 2341
4 4823 4878 4888 4898
4 3832 3880 3893 3868
4 5115 5123 5158 5144
4 5115 5123 5144 5040
4 4181 4160 4209 4224
4 4181 4160 4224 4164
4 4349 4365 4387 4416
4 2367 2378 2399 2418
4 5351 5285 5364 5317
4 5719 5713 5777 5786
4 1063 1080 1067 1043
4 1063 1080 1043 1055
4 6097 6090 6157 6111
4 2751 2782 2748 2722
4 2270 2243 2206 2251
4 4364 4389 4438 4376
4 1603 1590 1567 1568
4 5843 5831 5880 5874
4 4779 4737 4736 4780
4 6071 6090 6111 6072
4 5764 5682 5689 5708
4 4376 4415 4431 4438
4 4101 4155 4118 4105
4 5884 5883 5936 5920
4 4275 4305 4283 4342
4 4305 4283 4342 4325
4 4283 4342 4325 4343
4 3937 3914 3993 3983
4 4446 4431 4438 4465
4 4438 4446 4465 4506
4 4649 4654 4609 4643
4 4577 4535 4593 4560
4 5174 5185 5170 5225
4 1623 1617 1648 1647
4 4431 4446 4499 4465
4 5452 5432 5433 5362
4 1768 1799 1771 1797
4 2077 2067 2041 2108
4 5918 5903 5921 5952
4 1431 1435 1424 1404
4 1431 1435 1404 1420
4 1431 1435 1420 1440
4 6111 6148 6074 6144
4 4856 4827 4775 4852
4 4856 4827 4852 4892
4 4510 4559 4528 4585
4 3417 3440 3472 3439
4 4147 4094 4113 4164
4 5659 5656 5684 5620
4 4463 4489 4488 4433
4 4488 4463 4433 4456
4 4488 4463 4456 4465
4 4433 4488 4456 4468
4 4456 4488 4465 4529
4 4488 4456 4468 4497
4 4463 4489 4433 4408
4 4456 4488 4529 4497
4 2172 2177 2147 2131
4 2811 2797 2825 2803
4 2325 2322 2294 2341
4 5722 5634 5699 5720
4 1379 1356 1371 1346
4 3190 3150 3162 3205
4 2361 2374 2341 2326
4 2461 2499 2459 2482
4 3292 3317 3267 3297
4 4700 4756 4701 4695
4 2748 2765 2721 2722
4 5726 5770 5762 5650
4 4268 4231 4283 4209
4 5547 5497 5591 5521
4 2077 2092 2108 2133
4 3855 3878 3819 3805
4 3344 3363 3373 3316
4 4050 4087 4021 4077
4 4750 4736 4707 4780
4 4092 4050 4064 4077
4 3901 3954 3993 3914
4 3901 3954 3914 3880
4 4928 4896 4906 4885
4 5847 5817 5876 5909
4 4669 4667 4722 4731
4 5045 4980 5040 5010
4 5045 4980 5010 5006
4 5040 5045 5010 5115
4 1818 1815 1812 1848
4 4123 4137 4083 4077
4 5413 5488 5462 5497
4 6057 6038 6009 6023
4 5545 5514 5493 5584
4 1287 1288 1285 1307
4 1287 1288 1307 1329
4 3135 3116 3100 3114
4 4747 4750 4698 4768
4 4747 4750 4768 4810
4 4747 4750 4810 4823
4 5876 5900 5910 5932
4 5876 5900 5932 5922
4 5900 5910 5932 5950
4 5932 5900 5950 5922
4 5910 5932 5950 5941
4 5497 5431 5508 5407
4 2579 2545 2531 2552
4 5057 5095 5030 5066
4 5030 5057 5066 4987
4 6147 6102 6152 6065
4 4654 4697 4698 4747
4 4654 4697 4747 4735
4 2338 2363 2350 2384
4 5057 5095 5066 5149
4 6029 6024 6008 5994
4 6029 6024 5994 6030
4 6029 6024 6030 6078
4 6008 6029 5994 6032
4 6008 6029 6032 6046
4 6029 6032 6046 6078
4 6029 6032 6078 6030
4 6029 6032 6030 5994
4 2953 2952 2926 2967
4 2953 2952 2967 2998
4 4667 4632 4663 4611
4 4632 4663 4611 4617
4 5225 5220 5294 5230
4 3440 3464 3472 3439
4 6076 6065 6147 6143
4 6147 6076 6143 6139
4 6069 6114 6081 6117
4 3668 3653 3683 3693
4 3668 3653 3693 3647
4 3653 3683 3693 3682
4 3653 3693 3647 3696
4 6111 6153 6072 6090
4 3357 3367 3387 3418
4 2998 2974 2992 2952
4 2998 2974 2952 2926
4 6062 6034 6037 6014
4 6062 6034 6014 6009
4 3270 3209 3217 3269
4 3209 3217 3269 3273
4 5826 5876 5780 5817
4 5826 5876 5817 5882
4 5780 5826 5817 5777
4 5826 5817 5777 5882
4 5780 5826 5777 5711
4 2374 2393 2399 2436
4 4688 4707 4737 4687
4 6140 6079 6057 6061
4 6140 6079 6061 6134
4 6079 6057 6061 6053
4 6079 6057 6053 6072
4 6053 6079 6072 6111
4 6079 6057 6072 6149
4 6072 6079 6149 6144
4 6061 6079 6053 6108
4 6053 6079 6111 6108
4 6072 6079 6144 6111
4 6079 6144 6111 6108
4 6144 6111 6108 6074
4 6079 6144 6108 6134
4 6144 6108 6134 6137
4 6108 6134 6137 6073
4 6108 6144 6074 6148
4 6108 6134 6073 6061
4 6144 6108 6137 6148
4 6111 6108 6074 6053
4 6134 6137 6073 6126
4 6137 6108 6073 6074
4 6137 6108 6074 6148
4 6108 6073 6074 6053
4 6074 6137 6148 6143
4 6057 6053 6072 6023
4 6053 6072 6023 6041
4 6072 6057 6023 6038
4 6061 6079 6108 6134
4 2659 2655 2661 2710
4 4750 4707 4698 4780
4 2181 2214 2224 2197
4 2214 2224 2197 2255
4 4779 4815 4851 4852
4 4815 4851 4852 4866
4 2092 2129 2108 2133
4 6090 6095 6153 6072
4 6095 6153 6072 6149
4 6153 6072 6149 6144
4 4224 4268 4270 4283
4 4224 4268 4283 4209
4 4267 4247 4211 4209
4 6078 6152 6143 6148
4 1936 1965 1964 1931
4 3345 3305 3357 3294
4 1931 1930 1980 1964
4 5847 5874 5878 5909
4 5878 5847 5909 5817
4 5874 5878 5909 5923
4 5878 5909 5923 5930
4 5878 5909 5930 5882
4 5803 5817 5878 5789
4 5803 5817 5789 5701
4 5878 5803 5789 5840
4 3433 3465 3467 3431
4 3433 3465 3431 3447
4 4731 4687 4775 4737
4 5839 5875 5892 5918
4 4212 4239 4161 4195
4 5091 5115 5158 5161
4 5115 5158 5161 5144
4 1648 1617 1613 1661
4 1131 1136 1100 1108
4 5876 5849 5922 5870
4 4790 4799 4722 4731
4 1965 1936 1912 1931
4 5737 5741 5720 5662
4 3239 3217 3257 3223
4 5768 5776 5725 5673
4 5150 5111 5095 5066
4 5150 5111 5066 5079
4 4977 5036 5075 5030
4 4376 4355 4321 4389
4 4355 4321 4389 4323
4 4355 4321 4323 4290
4 4389 4355 4323 4407
4 4376 4355 4389 4431
4 4389 4355 4407 4431
4 4906 4859 4827 4845
4 3444 3414 3395 3459
4 5893 5928 5925 5846
4 4302 4275 4267 4287
4 4323 4287 4336 4302
4 4336 4323 4302 4355
4 4323 4302 4355 4290
4 4302 4355 4290 4349
4 4323 4287 4302 4267
4 4302 4323 4267 4290
4 4336 4323 4355 4407
4 4287 4336 4302 4275
4 4302 4336 4355 4349
4 2894 2876 2884 2893
4 1210 1184 1212 1175
4 5340 5390 5409 5437
4 3829 3795 3878 3845
4 2605 2552 2562 2607
4 2605 2552 2607 2567
4 5634 5612 5660 5591
4 5612 5660 5591 5662
4 5612 5660 5662 5699
4 5660 5591 5662 5678
4 5660 5634 5591 5664
4 5591 5660 5664 5678
4 5660 5634 5664 5720
4 5664 5660 5720 5678
4 5591 5612 5662 5579
4 5612 5662 5579 5693
4 2252 2241 2292 2265
4 2252 2241 2265 2200
4 2265 2252 2200 2218
4 1404 1400 1412 1392
4 5631 5559 5557 5575
4 5557 5631 5575 5652
4 2420 2459 2442 2433
4 4489 4488 4433 4468
4 5396 5358 5450 5413
4 3434 3475 3431 3418
4 3431 3434 3418 3387
4 3431 3434 3387 3398
4 3418 3431 3387 3416
4 3418 3431 3416 3467
4 3431 3416 3467 3433
4 3431 3387 3416 3400
4 3431 3416 3433 3400
4 3433 3431 3400 3447
4 6024 6065 6060 6030
4 6065 6060 6030 6143
4 6024 6065 6030 6078
4 6060 6024 6030 6028
4 6030 6060 6028 6018
4 6030 6060 6018 6044
4 6030 6060 6044 6074
4 6024 6030 6028 5992
4 6060 6028 6018 6063
4 6060 6018 6044 6099
4 5035 5011 4960 4977
4 5011 4960 4977 4985
4 6119 6084 6064 6069
4 2643 2631 2588 2648
4 4374 4405 4448 4404
4 4374 4405 4404 4406
4 4405 4404 4406 4448
4 3812 3839 3828 3780
4 4775 4827 4801 4852
4 4827 4801 4852 4892
4 3086 3113 3048 3112
4 4594 4577 4615 4567
4 5705 5773 5755 5828
4 5773 5755 5828 5852
4 5341 5294 5366 5396
4 5366 5341 5396 5413
4 5851 5910 5887 5876
4 5910 5887 5876 5932
4 5910 5887 5932 5941
4 5887 5932 5941 5909
4 5932 5941 5909 5959
4 5887 5932 5909 5876
4 5932 5909 5876 5917
4 5932 5941 5959 5950
4 5909 5932 5959 5917
4 5941 5887 5909 5874
4 5941 5909 5959 5923
4 5876 5932 5917 5922
4 6023 6049 6000 6041
4 2677 2645 2630 2605
4 2511 2526 2482 2469
4 5695 5724 5777 5706
4 3242 3241 3257 3293
4 5149 5170 5174 5146
4 5495 5532 5586 5614
4 5823 5803 5831 5731
4 5725 5770 5690 5679
4 5725 5770 5679 5650
4 2511 2503 2469 2461
4 5755 5773 5724 5817
4 6152 6078 6156 6148
4 5307 5385 5339 5314
4 5339 5307 5314 5243
4 2594 2562 2605 2578
4 5079 5012 5007 5011
4 4797 4800 4736 4749
4 3974 4010 4083 4046
4 2443 2480 2436 2482
4 2340 2322 2372 2362
4 3698 3693 3683 3745
4 5148 5149 5215 5173
4 3379 3350 3332 3395
4 5503 5544 5557 5499
4 5557 5503 5499 5483
4 5503 5544 5499 5442
4 4085 4064 4080 4017
4 1915 1919 1950 1912
4 2765 2721 2722 2733
4 2721 2722 2733 2672
4 2214 2248 2224 2255
4 3545 3519 3487 3552
4 3545 3519 3552 3567
4 4064 4099 4080 4130
4 6063 6139 6099 6076
4 3346 3352 3381 3397
4 3381 3346 3397 3348
4 4021 4017 4050 4064
4 1288 1307 1329 1309
4 1307 1329 1309 1336
4 2923 2974 2926 2952
4 6038 6009 6023 6000
4 5057 5066 4987 4985
4 5066 4987 4985 4977
4 1617 1647 1611 1660
4 2510 2527 2545 2491
4 4780 4775 4801 4776
4 4775 4801 4776 4852
4 4801 4776 4852 4779
4 4801 4776 4779 4780
4 4852 4801 4779 4800
4 4801 4779 4800 4780
4 4852 4801 4800 4892
4 3484 3519 3551 3510
4 3484 3519 3510 3497
4 5727 5773 5705 5828
4 5448 5395 5424 5388
4 5448 5395 5388 5385
4 5433 5452 5362 5339
4 6106 6078 6046 6093
4 6046 6106 6093 6042
4 5236 5215 5285 5258
4 5050 4994 5006 5091
4 4683 4716 4671 4753
4 2469 2480 2436 2479
4 6042 6090 6071 6041
4 6090 6071 6041 6072
4 2314 2341 2376 2326
4 2314 2341 2326 2298
4 5929 5936 5962 5953
4 6077 6066 6115 6070
4 2909 2877 2894 2883
4 5934 5884 5916 5920
4 2796 2832 2788 2841
4 1603 1613 1611 1567
4 1715 1746 1708 1762
4 5351 5285 5317 5314
4 5351 5285 5314 5307
4 5285 5317 5314 5236
4 5317 5351 5314 5388
4 5285 5317 5236 5258
4 5314 5317 5388 5318
4 5314 5317 5318 5236
4 5317 5388 5318 5366
4 5317 5388 5366 5359
4 5318 5314 5236 5243
4 5318 5317 5366 5294
4 5317 5366 5294 5359
4 5318 5317 5294 5236
4 5294 5317 5359 5291
4 5388 5314 5318 5339
4 5314 5318 5339 5243
4 5388 5318 5366 5398
4 5366 5388 5398 5462
4 4857 4842 4785 4817
4 4857 4842 4817 4904
4 4785 4857 4817 4826
4 4817 4785 4826 4753
4 4817 4785 4753 4796
4 5682 5689 5708 5665
4 5682 5689 5665 5579
4 5708 5682 5665 5619
4 5708 5682 5619 5662
4 5682 5665 5619 5579
4 5665 5708 5619 5650
4 5682 5619 5662 5579
4 5619 5665 5650 5560
4 2017 2019 2047 2018
4 2017 2019 2018 1966
4 2019 2047 2018 2021
4 2047 2017 2018 2044
4 2047 2018 2021 2065
4 4305 4283 4325 4270
4 4283 4325 4270 4299
4 4325 4270 4299 4328
4 4270 4283 4299 4235
4 4270 4283 4235 4224
4 4283 4299 4235 4287
4 4632 4593 4617 4560
4 1921 1908 1934 1949
4 4688 4737 4704 4687
4 3345 3357 3340 3294
4 3665 3629 3647 3654
4 3665 3629 3654 3682
4 3629 3647 3654 3609
4 3647 3665 3654 3696
4 3665 3654 3696 3682
4 3629 3654 3682 3600
4 3654 3696 3682 3653
4 3682 3654 3653 3600
4 5175 5222 5241 5144
4 3149 3190 3162 3201
4 5786 5773 5852 5817
4 3577 3549 3526 3594
4 6057 6109 6149 6140
4 6109 6149 6140 6151
4 6140 6109 6151 6138
4 6140 6109 6138 6062
4 4411 4387 4342 4325
4 5578 5519 5560 5473
4 4560 4546 4611 4577
4 4611 4560 4577 4632
4 4577 4611 4632 4636
4 3815 3800 3816 3762
4 3815 3800 3762 3756
4 3816 3815 3762 3754
4 3762 3815 3756 3745
4 3756 3762 3745 3683
4 3762 3816 3754 3741
4 3596 3592 3561 3562
4 3596 3592 3562 3567
4 5841 5764 5787 5846
4 1330 1329 1309 1288
4 1330 1329 1288 1299
4 5982 5978 5951 5971
4 5978 5951 5971 5927
4 5951 5982 5971 5965
4 5838 5769 5785 5828
4 3880 3840 3887 3914
4 5777 5719 5786 5724
4 3536 3567 3552 3519
4 5005 5058 5020 5104
4 5362 5346 5339 5452
4 4928 4987 4975 4977
4 4975 4928 4977 4906
4 3745 3752 3693 3754
4 2645 2607 2605 2588
4 3051 3092 3090 3100
4 2029 2016 2048 2044
4 6052 6007 6028 6006
4 2673 2655 2710 2661
4 1970 2002 1964 1966
4 1911 1915 1949 1936
4 1911 1915 1936 1912
4 1915 1936 1912 1950
4 1911 1915 1912 1861
4 1936 1911 1912 1930
4 1915 1949 1936 1950
4 5784 5790 5845 5776
4 5790 5845 5776 5840
4 5718 5673 5658 5776
4 5793 5786 5825 5879
4 4113 4124 4179 4164
4 5914 5870 5882 5922
4 3462 3438 3472 3417
4 4716 4758 4785 4722
4 3205 3217 3201 3190
4 3217 3201 3190 3223
4 5719 5724 5717 5786
4 2967 2926 2954 2998
4 2967 2926 2998 2952
4 4081 4100 4126 4124
4 4081 4100 4124 4164
4 5103 5076 5106 5015
4 5076 5106 5015 5002
4 3972 3974 3937 4021
4 4172 4173 4112 4108
4 4173 4112 4108 4110
4 2673 2696 2661 2710
4 2322 2335 2292 2291
4 5057 5113 5149 5066
4 5057 5113 5066 4985
4 5113 5149 5066 5150
4 5066 5113 5150 5079
4 5706 5709 5701 5803
4 4632 4577 4593 4560
4 4954 4906 4960 4912
4 2891 2865 2842 2904
4 2990 2960 2934 2961
4 2990 2960 2961 3025
4 3346 3380 3397 3348
4 4653 4601 4585 4645
4 6138 6131 6140 6061
4 4649 4654 4643 4698
4 5828 5825 5852 5888
4 5591 5547 5521 5627
4 3696 3676 3717 3693
4 3676 3717 3693 3647
4 3693 3676 3647 3696
4 4750 4810 4823 4780
4 2510 2531 2491 2545
4 2510 2531 2545 2552
4 2510 2531 2552 2567
4 1915 1886 1912 1861
4 5790 5784 5718 5776
4 5591 5539 5612 5508
4 5944 5948 5972 5986
4 5948 5972 5986 5981
4 5972 5986 5981 5996
4 5972 5986 5996 5983
4 5972 5986 5983 5944
4 4922 4880 4930 4891
4 4930 4922 4891 4994
4 4735 4749 4818 4797
4 5002 4955 4954 4960
4 4955 4954 4960 4912
4 4960 4955 4912 4961
4 4912 4960 4961 4911
4 4912 4960 4911 4882
4 4960 4961 4911 5017
4 4961 4912 4911 4857
4 4912 4960 4882 4906
4 4960 4882 4906 4892
4 4882 4906 4892 4827
4 4882 4906 4827 4845
4 4827 4882 4845 4835
4 4912 4911 4857 4845
4 4892 4882 4827 4835
4 4892 4882 4835 4911
4 4882 4912 4906 4845
4 4882 4912 4845 4911
4 4882 4845 4835 4911
4 5641 5709 5676 5647
4 5058 5012 5079 5113
4 4463 4433 4456 4407
4 4433 4456 4407 4468
4 4463 4433 4407 4408
4 4433 4407 4408 4409
4 4408 4433 4409 4457
4 4408 4433 4457 4489
4 4433 4407 4409 4468
4 4456 4463 4407 4429
4 4407 4456 4429 4431
4 4433 4409 4457 4468
4 4433 4457 4489 4468
4 2433 2443 2436 2482
4 4505 4465 4488 4529
4 4505 4465 4529 4499
4 4488 4505 4529 4541
4 1885 1896 1903 1925
4 2367 2341 2336 2322
4 3756 3745 3698 3683
4 5309 5368 5316 5382
4 5935 5928 5949 5966
4 5928 5949 5966 5947
4 5928 5949 5947 5927
4 4323 4337 4388 4407
4 1930 1931 1902 1881
4 2594 2648 2605 2588
4 5189 5127 5205 5104
4 5320 5366 5318 5398
4 1726 1728 1678 1709
4 1726 1728 1709 1763
4 2338 2305 2315 2350
4 2206 2192 2145 2171
4 2206 2192 2171 2220
4 2491 2475 2527 2483
4 6077 6033 6066 6035
4 6033 6066 6035 6010
4 6066 6077 6035 6070
4 6033 6066 6010 6017
4 4540 4504 4536 4497
4 4540 4504 4497 4507
4 3536 3497 3519 3552
4 5826 5777 5870 5882
4 4113 4094 4081 4164
4 1747 1715 1709 1763
4 4559 4602 4528 4585
4 4559 4602 4585 4561
4 5918 5920 5954 5924
4 5910 5915 5941 5956
4 2376 2378 2418 2436
4 3312 3348 3318 3334
4 4792 4757 4756 4701
4 3203 3190 3185 3223
4 3509 3482 3459 3526
4 2398 2429 2411 2384
4 2429 2411 2384 2412
4 2429 2411 2412 2465
4 2411 2384 2412 2350
4 2384 2429 2412 2436
4 3397 3398 3447 3431
4 3100 3135 3122 3085
4 5311 5285 5304 5364
4 3562 3529 3551 3567
4 5620 5631 5659 5575
4 5631 5659 5575 5652
4 5631 5659 5652 5717
4 5875 5921 5869 5892
4 3303 3312 3293 3318
4 2442 2433 2399 2420
4 2433 2399 2420 2436
4 3785 3819 3795 3782
4 3785 3819 3782 3855
4 3143 3170 3113 3112
4 2857 2842 2841 2891
4 5843 5880 5913 5874
4 5913 5843 5874 5840
4 5843 5874 5840 5803
4 5843 5874 5803 5831
4 5874 5840 5803 5878
4 4941 4878 4898 4888
4 5268 5310 5283 5346
4 5268 5310 5346 5339
4 5545 5594 5645 5580
4 5288 5340 5384 5334
4 4078 4100 4105 4174
4 5902 5945 5940 5915
4 3136 3104 3122 3142
4 1859 1862 1898 1911
4 6025 6040 6001 5990
4 4848 4880 4891 4930
4 5839 5835 5762 5853
4 2607 2588 2562 2605
4 3432 3440 3417 3439
4 4387 4411 4428 4325
4 4525 4505 4499 4465
4 4525 4505 4465 4473
4 5920 5934 5954 5963
4 5920 5934 5963 5916
4 4970 4922 4930 4994
4 3619 3609 3569 3553
4 6036 6012 6047 6004
4 6012 6047 6004 6015
4 6012 6047 6015 6058
4 6047 6015 6058 6069
4 6047 6036 6004 6069
4 6047 6004 6015 6069
4 6004 6012 6015 5981
4 6012 6015 5981 5996
4 978 956 937 963
4 2702 2721 2679 2672
4 4326 4337 4408 4388
4 5173 5215 5236 5149
4 6043 6009 5993 6034
4 3551 3529 3519 3567
4 4930 4894 4936 4848
4 1166 1175 1146 1136
4 5658 5673 5625 5725
4 1580 1569 1568 1611
4 1915 1908 1949 1950
4 5639 5573 5575 5652
4 6122 6115 6121 6070
4 6121 6122 6070 6068
4 2605 2648 2672 2677
4 2648 2672 2677 2682
4 2433 2418 2399 2436
4 5717 5713 5719 5786
4 5424 5396 5439 5499
4 5215 5225 5236 5149
4 1728 1726 1777 1763
4 1936 1964 1949 1911
4 1936 1964 1911 1930
4 4251 4273 4215 4252
4 5322 5273 5328 5234
4 1124 1136 1107 1100
4 4688 4650 4697 4707
4 4650 4697 4707 4643
4 5721 5731 5805 5831
4 4615 4669 4624 4683
4 5071 5155 5126 5106
4 5155 5126 5106 5186
4 5071 5155 5106 5111
4 3036 3039 3085 3066
4 5912 5955 5937 5939
4 5912 5955 5939 5948
4 5955 5939 5948 5981
4 5912 5955 5948 5908
4 5955 5937 5939 5977
4 5937 5912 5939 5879
4 5939 5912 5948 5931
4 5955 5948 5908 5944
4 3019 2990 2994 3025
4 5931 5944 5935 5904
4 4940 4980 4936 5010
4 4980 4936 5010 5006
4 4448 4479 4528 4487
4 3645 3605 3626 3612
4 2785 2817 2816 2777
4 2243 2220 2232 2206
4 3815 3838 3788 3754
4 5561 5510 5572 5568
4 5561 5510 5568 5525
4 5510 5572 5568 5532
4 5935 5946 5944 5972
4 5925 5928 5966 5947
4 2765 2782 2755 2722
4 5320 5300 5316 5248
4 5320 5300 5248 5230
4 1328 1309 1330 1346
4 5364 5304 5317 5285
4 2415 2367 2399 2418
4 3643 3626 3612 3645
4 4497 4499 4529 4456
4 3397 3400 3387 3431
4 3094 3122 3120 3085
4 3094 3122 3085 3100
4 3094 3122 3100 3104
4 3085 3094 3100 3073
4 5768 5784 5776 5718
4 5776 5768 5718 5673
4 2663 2703 2677 2673
4 6138 6141 6130 6085
4 3584 3545 3609 3597
4 6039 6051 6080 6022
4 4941 4924 4888 4985
4 5189 5230 5248 5300
4 3972 3963 4046 4021
4 4110 4126 4129 4180
4 4126 4129 4180 4174
4 5494 5544 5442 5499
4 5941 5956 5976 5990
4 5424 5442 5503 5499
4 3465 3497 3467 3475
4 4187 4211 4247 4186
4 5341 5329 5413 5368
4 3597 3567 3592 3596
4 4758 4799 4785 4722
4 1785 1811 1762 1777
4 2029 2011 2016 1974
4 5877 5928 5846 5895
4 2828 2866 2816 2837
4 2828 2866 2837 2894
4 4064 4077 4137 4092
4 5876 5826 5870 5882
4 5111 5108 5173 5095
4 3840 3880 3827 3901
4 5764 5741 5682 5708
4 5764 5741 5708 5846
4 5741 5682 5708 5662
4 2041 2021 2047 2019
4 2192 2176 2145 2171
4 2974 2923 2925 2952
4 2743 2771 2788 2776
4 4850 4788 4853 4781
4 4853 4850 4781 4826
4 5497 5508 5591 5543
4 5497 5508 5543 5477
4 5497 5508 5477 5407
4 4799 4845 4785 4835
4 4799 4845 4835 4780
4 2847 2817 2828 2816
4 5647 5715 5640 5718
4 1349 1346 1330 1370
4 4602 4672 4653 4659
4 3066 3058 3075 3025
4 3075 3066 3025 3040
4 3066 3025 3040 2992
4 3040 3066 2992 3036
4 4129 4072 4118 4105
4 6031 6022 6005 5983
4 4906 4977 4960 4928
4 4349 4394 4416 4355
4 5715 5687 5640 5718
4 4242 4286 4280 4312
4 3641 3615 3594 3660
4 4977 4954 4960 5035
4 2071 2031 2075 2019
4 5888 5838 5885 5828
4 5838 5885 5828 5785
4 5841 5787 5853 5846
4 5853 5841 5846 5895
4 5846 5853 5895 5924
4 4342 4349 4387 4416
4 2607 2579 2552 2562
4 3479 3448 3473 3510
4 4697 4643 4698 4707
4 5493 5475 5483 5385
4 4541 4558 4532 4568
4 4558 4532 4568 4596
4 4532 4541 4568 4489
4 4558 4532 4596 4567
4 4532 4568 4596 4562
4 4532 4568 4562 4489
4 2733 2726 2696 2756
4 2696 2733 2756 2729
4 2733 2756 2729 2772
4 2969 2951 2984 2914
4 4536 4567 4529 4577
4 4536 4567 4577 4594
4 4577 4536 4594 4537
4 4932 4940 4853 4876
4 3373 3339 3344 3316
4 2842 2832 2841 2788
4 5755 5724 5652 5701
4 5724 5652 5701 5706
4 5913 5880 5894 5874
4 5894 5913 5874 5941
4 5232 5189 5205 5300
4 5004 5015 5076 5103
4 5004 5015 5103 5017
4 5390 5404 5470 5423
4 5390 5404 5423 5336
4 5404 5470 5423 5463
4 5390 5404 5336 5322
4 5404 5470 5463 5510
4 3293 3269 3257 3304
4 3293 3269 3304 3318
4 3105 3155 3115 3154
4 3155 3115 3154 3142
4 5741 5785 5720 5678
4 3589 3628 3588 3559
4 3798 3774 3749 3753
4 3798 3774 3753 3752
4 4294 4273 4328 4252
4 5479 5437 5473 5434
4 5521 5462 5497 5513
4 5521 5462 5513 5483
4 2465 2452 2479 2429
4 2465 2452 2429 2411
4 2659 2676 2715 2711
4 2676 2715 2711 2707
4 4654 4649 4717 4735
4 4654 4649 4735 4747
4 3795 3819 3878 3805
4 6039 6005 6022 6012
4 3561 3566 3562 3520
4 4741 4775 4687 4737
4 5830 5893 5827 5846
4 4569 4588 4507 4554
4 4569 4588 4554 4616
4 4569 4588 4616 4624
4 5790 5767 5843 5761
4 2009 1982 1980 2021
4 1982 1980 2021 1992
4 1982 1980 1992 1931
4 1980 2021 1992 2018
4 2021 1992 2018 2019
4 1992 2018 2019 1964
4 1992 2018 1964 1980
4 1964 1992 1980 1931
4 5330 5346 5392 5283
4 1811 1815 1847 1859
4 4283 4275 4342 4336
4 4342 4283 4336 4343
4 4336 4342 4343 4409
4 4275 4342 4336 4349
4 4342 4336 4349 4416
4 4343 4336 4409 4407
4 5519 5479 5473 5578
4 5447 5519 5437 5525
4 5830 5827 5785 5846
4 5640 5718 5658 5647
4 5658 5640 5647 5580
4 5516 5573 5483 5557
4 5935 5925 5966 5972
4 5114 5086 5158 5191
4 2504 2487 2483 2475
4 3653 3630 3683 3619
4 3683 3653 3619 3652
4 4611 4546 4558 4577
4 4435 4431 4499 4497
4 3400 3366 3387 3416
4 2459 2420 2461 2449
4 2461 2459 2449 2482
4 2459 2449 2482 2433
4 2449 2482 2433 2436
4 2459 2420 2449 2433
4 2449 2461 2482 2436
4 2420 2449 2433 2436
4 4794 4834 4848 4756
4 5940 5941 5976 5962
4 5976 5940 5962 5945
4 5300 5232 5309 5205
4 3294 3285 3242 3224
4 3545 3498 3553 3487
4 6068 6082 6130 6122
4 3289 3317 3332 3267
4 5174 5189 5248 5169
4 5174 5189 5169 5112
4 5189 5169 5112 5104
4 4186 4178 4247 4187
4 5468 5503 5448 5424
4 3155 3154 3203 3185
4 3155 3154 3185 3142
4 2272 2244 2224 2288
4 3132 3174 3135 3114
4 6036 6039 6012 5997
4 6012 6036 5997 6004
4 6036 5997 6004 6017
4 5997 6004 6017 5977
4 6004 6017 5977 5995
4 5997 6012 6004 5981
4 6004 6036 6017 6069
4 6004 6017 5995 6010
4 6017 6004 6069 6066
4 5322 5281 5241 5336
4 5936 5913 5962 5923
4 3145 3174 3132 3114
4 6033 5995 6017 6010
4 6033 5995 6010 6035
4 3104 3073 3094 3075
4 3163 3145 3114 3174
4 2433 2456 2482 2459
4 2393 2374 2326 2376
4 2393 2374 2376 2436
4 4974 4961 5004 4904
4 5395 5448 5422 5385
4 5638 5561 5572 5568
4 2682 2702 2679 2672
4 3150 3190 3209 3205
4 5761 5831 5843 5803
4 6124 6133 6075 6099
4 6133 6075 6099 6044
4 6124 6133 6099 6139
4 6075 6124 6099 6080
4 6133 6099 6139 6143
4 5341 5320 5368 5413
4 4928 4924 4985 4892
4 4985 4928 4892 4960
4 5231 5206 5204 5186
4 5482 5452 5433 5493
4 5452 5433 5493 5438
4 5452 5433 5438 5339
4 5433 5493 5438 5385
4 6081 6112 6115 6117
4 4544 4537 4536 4577
4 3400 3397 3448 3447
4 3711 3730 3660 3690
4 3711 3730 3690 3761
4 3058 3009 3065 2994
4 5570 5525 5561 5625
4 5384 5340 5437 5373
4 5384 5340 5373 5334
4 5437 5384 5373 5434
4 5373 5384 5334 5434
4 2398 2363 2384 2411
4 6005 5979 5983 5986
4 6005 5979 5986 6012
4 5979 5983 5986 5944
4 5983 6005 5986 6022
4 5986 5979 5944 5948
4 5986 5979 5948 5955
4 6005 5986 6022 6012
4 5979 5986 6012 5955
4 5979 5944 5948 5955
4 5005 5020 4941 4898
4 4160 4113 4179 4164
4 4179 4160 4164 4209
4 4179 4160 4209 4130
4 5057 5013 5081 5008
4 5845 5836 5839 5918
4 4551 4561 4510 4485
4 4561 4510 4485 4513
4 4510 4485 4513 4479
4 4510 4485 4479 4551
4 4479 4510 4551 4528
4 4479 4510 4528 4513
4 4561 4510 4513 4585
4 5283 5231 5268 5204
4 5547 5531 5521 5595
4 3934 3888 3983 3887
4 1412 1379 1392 1400
4 5106 5076 5071 5002
4 2154 2181 2166 2197
4 2181 2166 2197 2224
4 5243 5268 5204 5279
4 5243 5268 5279 5339
4 5268 5204 5279 5275
4 5268 5204 5275 5283
4 5275 5268 5283 5346
4 2722 2703 2755 2733
4 5126 5103 5106 5186
4 2071 2075 2116 2125
4 4792 4794 4848 4756
4 4701 4700 4695 4653
4 4701 4700 4653 4672
4 4700 4695 4653 4640
4 4695 4701 4653 4645
4 4700 4653 4672 4659
4 4653 4701 4672 4601
4 4653 4700 4640 4659
4 4173 4179 4112 4110
4 4506 4525 4446 4465
4 5224 5241 5242 5161
4 2065 2041 2047 2075
4 2190 2177 2149 2171
4 3520 3510 3473 3464
4 3901 3914 3827 3840
4 3345 3324 3294 3340
4 3345 3324 3340 3366
4 2011 2004 2016 1974
4 5281 5340 5288 5242
4 2272 2305 2288 2315
4 5948 5931 5972 5939
4 6009 6057 6023 6021
4 6009 6057 6021 6014
4 4415 4376 4364 4438
4 2314 2359 2313 2376
4 2044 2071 2047 2019
4 5883 5913 5936 5920
4 5892 5919 5951 5942
4 5892 5919 5942 5921
4 5919 5951 5942 5965
4 5919 5942 5921 5965
4 5942 5921 5965 5954
4 5965 5942 5954 5980
4 5965 5942 5980 5971
4 5942 5954 5980 5971
4 5294 5320 5318 5248
4 5320 5318 5248 5316
4 5050 5045 5115 5006
4 5956 5940 5976 5945
4 4827 4780 4801 4835
4 4827 4780 4835 4845
4 6067 6080 6124 6075
4 5224 5158 5241 5161
4 6082 6040 6070 6068
4 6082 6040 6068 6037
4 5384 5437 5479 5434
4 3868 3863 3788 3832
4 2073 2071 2107 2047
4 3335 3366 3340 3324
4 1966 1965 2003 2019
4 2143 2172 2131 2149
4 2148 2131 2171 2107
4 4721 4752 4700 4756
4 4700 4721 4756 4695
4 5174 5149 5150 5236
4 4235 4249 4287 4299
4 2743 2707 2711 2715
4 5645 5706 5701 5652
4 2862 2884 2894 2849
4 5193 5111 5150 5155
4 3285 3293 3242 3257
4 3285 3293 3257 3304
4 3242 3285 3257 3224
4 1184 1180 1175 1210
4 1249 1239 1237 1227
4 4462 4416 4435 4497
4 1237 1247 1267 1249
4 3597 3629 3600 3609
4 3334 3346 3381 3348
4 3334 3346 3348 3318
4 5787 5726 5708 5764
4 4273 4311 4328 4251
4 5741 5830 5785 5846
4 5726 5762 5708 5650
4 4092 4130 4137 4064
4 3334 3324 3346 3293
4 3324 3346 3293 3304
4 1698 1709 1708 1661
4 3285 3294 3272 3224
4 4286 4242 4290 4312
4 2904 2891 2914 2842
4 2696 2673 2733 2710
4 5946 5935 5949 5966
4 5946 5935 5966 5972
4 5081 5113 5057 5008
4 2756 2769 2816 2772
4 3248 3267 3231 3297
4 5540 5460 5493 5482
4 1980 1982 1955 1931
4 1934 1951 1921 1949
4 5936 5884 5920 5916
4 6138 6130 6131 6068
4 4669 4716 4683 4733
4 4669 4716 4733 4722
4 4716 4683 4733 4785
4 4683 4669 4733 4698
4 4733 4669 4722 4731
4 4733 4683 4698 4768
4 6004 6017 6010 6066
4 4698 4733 4768 4750
4 3475 3434 3487 3418
4 1346 1329 1336 1309
4 4850 4834 4788 4756
4 5493 5460 5475 5385
4 3733 3769 3754 3752
4 3733 3769 3752 3774
4 3769 3754 3752 3788
4 3754 3733 3752 3693
4 3752 3769 3788 3798
4 3733 3752 3693 3717
4 5309 5329 5368 5407
4 5329 5368 5407 5413
4 5368 5309 5407 5382
4 5368 5407 5413 5445
4 5407 5368 5382 5445
4 5945 5929 5962 5953
4 2041 2009 2021 1982
4 5173 5193 5150 5236
4 5150 5173 5236 5149
4 5526 5603 5572 5614
4 3086 3048 3046 3112
4 4495 4497 4462 4435
4 3838 3868 3788 3832
4 4214 4225 4267 4287
4 2934 2929 2975 2994
4 3812 3828 3761 3780
4 1108 1100 1080 1136
4 1678 1677 1726 1708
4 6074 6093 6032 6078
4 4756 4701 4695 4723
4 5595 5557 5499 5521
4 5557 5499 5521 5483
4 3170 3143 3177 3112
4 6025 6001 6035 6010
4 4602 4653 4585 4640
4 5086 5091 5158 5191
4 5790 5843 5845 5840
4 5790 5843 5840 5766
4 5790 5843 5766 5761
4 5843 5840 5766 5803
4 5840 5766 5803 5789
4 2133 2154 2166 2197
4 3609 3653 3647 3654
4 3609 3653 3654 3600
4 3653 3647 3654 3696
4 5911 5929 5945 5953
4 5158 5224 5191 5161
4 4160 4209 4224 4164
4 1569 1580 1607 1627
4 2071 2073 2029 2047
4 5709 5731 5761 5803
4 3048 3017 3046 2969
4 3628 3589 3591 3559
4 2817 2827 2828 2777
4 1812 1785 1763 1777
4 5495 5432 5452 5392
4 5020 5058 5079 5104
4 4194 4232 4215 4174
4 1227 1237 1210 1239
4 5705 5627 5678 5652
4 2567 2579 2531 2552
4 2704 2722 2748 2730
4 2777 2765 2755 2733
4 6058 6064 6069 6119
4 3475 3431 3418 3467
4 5724 5755 5817 5701
4 5885 5888 5828 5897
4 5885 5888 5897 5939
4 5828 5885 5897 5886
4 5888 5897 5939 5879
4 5828 5885 5886 5785
4 5885 5897 5886 5938
4 5885 5897 5938 5939
4 5897 5938 5939 5943
4 5939 5897 5943 5926
4 5939 5897 5926 5879
4 5885 5888 5939 5931
4 5897 5938 5943 5930
4 5938 5943 5930 5970
4 5943 5930 5970 5959
4 5938 5943 5970 5981
4 5943 5930 5959 5917
4 5943 5930 5917 5882
4 5890 5885 5827 5893
4 5066 5113 5079 5012
4 5594 5645 5580 5663
4 5594 5645 5663 5701
4 5645 5663 5701 5647
4 5663 5594 5701 5652
4 5701 5663 5652 5678
4 5663 5594 5652 5596
4 5594 5701 5652 5645
4 5594 5652 5596 5557
4 5645 5580 5663 5647
4 5580 5594 5663 5596
4 5652 5701 5678 5755
4 4411 4416 4462 4468
4 4411 4416 4468 4409
4 4468 4411 4409 4428
4 4411 4409 4428 4325
4 4411 4416 4409 4342
4 4409 4411 4342 4325
4 5462 5499 5396 5483
4 4554 4569 4616 4596
4 3752 3753 3693 3717
4 3752 3753 3717 3774
4 3239 3257 3272 3223
4 3257 3272 3223 3224
4 2075 2071 2019 2047
4 2075 2071 2047 2107
4 2019 2075 2047 2041
4 2075 2071 2107 2125
4 5560 5525 5625 5550
4 5560 5525 5550 5473
4 5625 5560 5550 5650
4 3285 3257 3224 3272
4 3285 3257 3272 3304
4 5897 5886 5938 5930
4 6007 6028 6006 5992
4 6028 6006 5992 5996
4 5997 6004 5977 5955
4 5942 5892 5921 5918
4 5921 5942 5918 5954
4 5942 5918 5954 5924
4 5918 5921 5954 5952
4 4985 5008 5013 5057
4 5939 5948 5981 5972
4 5346 5392 5283 5344
4 5346 5392 5344 5414
4 5283 5346 5344 5275
4 5344 5283 5275 5328
4 5275 5344 5328 5322
4 5392 5344 5414 5328
4 5344 5414 5328 5322
4 5344 5346 5414 5336
4 5346 5344 5275 5336
4 2588 2645 2643 2648
4 5659 5575 5652 5639
4 3092 3051 3085 3100
4 5002 5017 5071 5106
4 5708 5619 5650 5654
4 5708 5619 5654 5678
4 5650 5708 5654 5762
4 4407 4408 4409 4343
4 2788 2743 2776 2715
4 6119 6124 6117 6058
4 6060 6076 6063 6099
4 6060 6076 6099 6143
4 6063 6060 6099 6018
4 3752 3733 3774 3717
4 3696 3733 3754 3693
4 3696 3733 3693 3717
4 5870 5882 5922 5876
4 2934 2990 2961 2994
4 2990 2961 2994 3025
4 3185 3190 3201 3223
4 3201 3185 3223 3142
4 3185 3223 3142 3194
4 4456 4407 4468 4416
4 4733 4669 4731 4698
4 3387 3352 3366 3397
4 3058 3065 3075 3025
4 4411 4462 4428 4468
4 5519 5437 5525 5473
4 3217 3209 3246 3273
4 4130 4148 4186 4209
4 3475 3431 3467 3465
4 5923 5878 5930 5886
4 6124 6067 6075 6058
4 6067 6075 6058 6012
4 6124 6067 6058 6119
4 4695 4756 4723 4761
4 4695 4756 4761 4721
4 4723 4695 4761 4692
4 4723 4695 4692 4645
4 4761 4723 4692 4747
4 4695 4692 4645 4634
4 4695 4692 4634 4705
4 4645 4695 4634 4653
4 4695 4692 4705 4761
4 4705 4695 4761 4721
4 4634 4695 4705 4668
4 4695 4634 4653 4640
4 4634 4695 4668 4640
4 4695 4705 4668 4721
4 4723 4695 4645 4701
4 4692 4634 4705 4698
4 4692 4705 4761 4747
4 4705 4634 4668 4616
4 4705 4634 4616 4698
4 1412 1420 1431 1404
4 4683 4716 4753 4785
4 4100 4126 4124 4164
4 3609 3619 3600 3553
4 4002 4046 4021 4050
4 3744 3782 3726 3795
4 6074 6071 6053 6032
4 4488 4529 4497 4532
4 4488 4529 4532 4541
4 4532 4488 4541 4489
4 4532 4488 4489 4468
4 4532 4488 4468 4497
4 2232 2269 2247 2249
4 5853 5892 5924 5881
4 5853 5892 5881 5839
4 5892 5881 5839 5918
4 5892 5924 5881 5918
4 5924 5853 5881 5889
4 5881 5839 5918 5845
4 5881 5839 5845 5776
4 5845 5881 5776 5824
4 5845 5881 5824 5920
4 5776 5845 5824 5840
4 5845 5881 5920 5918
4 5845 5824 5840 5920
4 5881 5920 5918 5924
4 5853 5881 5889 5824
4 5881 5839 5776 5762
4 5881 5889 5824 5920
4 5881 5853 5839 5762
4 5924 5853 5889 5846
4 5853 5889 5846 5788
4 5846 5853 5788 5787
4 5853 5889 5788 5824
4 5889 5788 5824 5789
4 5881 5924 5889 5920
4 4810 4747 4823 4818
4 4823 4810 4818 4898
4 2702 2682 2677 2672
4 3317 3332 3267 3297
4 3317 3332 3297 3359
4 3332 3267 3297 3329
4 3332 3297 3359 3329
4 3359 3332 3329 3391
4 5997 6012 5981 5955
4 2314 2278 2298 2270
4 1777 1780 1728 1763
4 1777 1780 1763 1812
4 5396 5366 5413 5462
4 5396 5366 5462 5388
4 5396 5366 5388 5359
4 5396 5366 5359 5294
4 5366 5413 5462 5445
4 5413 5462 5445 5497
4 5462 5445 5497 5513
4 5462 5445 5513 5398
4 5445 5413 5497 5407
4 5445 5497 5513 5543
4 5497 5513 5543 5591
4 5513 5445 5543 5491
4 5513 5445 5491 5398
4 5543 5513 5491 5619
4 5497 5445 5407 5477
4 5445 5497 5543 5477
4 5445 5543 5491 5477
4 5543 5513 5619 5591
4 1827 1830 1780 1812
4 1827 1830 1812 1861
4 4596 4532 4562 4554
4 2894 2876 2929 2871
4 2816 2828 2837 2777
4 2816 2828 2777 2817
4 4733 4683 4768 4785
4 4768 4733 4785 4835
4 4785 4768 4835 4826
4 4785 4768 4826 4753
4 4785 4768 4753 4683
4 4857 4817 4826 4904
4 5938 5939 5943 5981
4 6068 6085 6062 6138
4 6093 6032 6078 6046
4 6093 6032 6046 6042
4 6032 6046 6042 6002
4 2241 2200 2208 2265
4 3840 3880 3901 3914
4 6067 6080 6075 6012
4 2315 2338 2350 2384
4 2350 2315 2384 2348
4 2350 2315 2348 2288
4 2384 2350 2348 2412
4 2350 2315 2288 2305
4 5155 5106 5111 5150
4 5155 5193 5243 5150
4 5594 5573 5652 5557
4 4393 4327 4328 4374
4 4904 4857 4912 4961
4 6070 6025 6035 6066
4 2951 2904 2914 2969
4 4497 4499 4456 4431
4 5612 5591 5508 5579
4 5572 5638 5568 5658
4 5638 5568 5658 5561
4 6115 6121 6070 6066
4 3769 3752 3774 3798
4 5385 5433 5339 5438
4 4892 4928 4906 4960
4 6044 6060 6099 6143
4 1930 1931 1881 1912
4 4733 4716 4785 4722
4 2100 2081 2112 2085
4 5572 5510 5495 5532
4 5495 5572 5532 5614
4 3459 3444 3493 3423
4 3459 3444 3423 3395
4 3493 3459 3423 3454
4 3423 3459 3395 3454
4 3493 3459 3454 3524
4 1815 1812 1848 1861
4 3798 3788 3832 3769
4 5388 5318 5398 5339
4 4850 4853 4932 4936
4 5884 5920 5845 5883
4 3304 3318 3346 3293
4 5909 5878 5817 5882
4 4457 4408 4489 4487
4 5911 5929 5953 5936
4 2125 2145 2171 2133
4 2224 2197 2255 2223
4 2224 2197 2223 2166
4 2255 2224 2223 2288
4 2255 2224 2288 2272
4 2288 2255 2272 2315
4 2288 2255 2315 2287
4 2288 2255 2287 2223
4 2315 2288 2287 2348
4 5943 5939 5926 5974
4 5943 5939 5974 5981
4 5939 5926 5974 5977
4 5926 5943 5974 5957
4 5926 5943 5957 5917
4 5974 5926 5957 5958
4 5943 5957 5917 5959
4 5974 5926 5958 5977
4 5958 5974 5977 5995
4 5926 5957 5958 5922
4 5974 5977 5995 6004
4 5974 5977 6004 5955
4 5974 5977 5955 5939
4 5943 5974 5957 5985
4 5943 5974 5985 5981
4 5974 5957 5985 5995
4 5957 5943 5985 5959
4 5957 5926 5917 5922
4 5917 5957 5922 5932
4 5957 5974 5958 5995
4 3594 3577 3624 3560
4 3594 3577 3560 3526
4 3624 3594 3560 3587
4 3560 3594 3526 3587
4 5423 5404 5463 5336
4 4750 4736 4780 4800
4 5473 5479 5434 5534
4 5204 5279 5275 5229
4 5204 5279 5229 5196
4 5275 5204 5229 5194
4 5279 5229 5196 5265
4 5204 5229 5194 5144
4 5229 5196 5265 5161
4 5229 5194 5144 5241
4 5229 5194 5241 5275
4 5194 5144 5241 5234
4 5194 5144 5234 5133
4 5194 5144 5133 5103
4 5241 5229 5275 5336
4 5241 5194 5234 5275
4 5234 5194 5133 5186
4 5194 5234 5275 5186
4 5275 5194 5186 5204
4 5194 5186 5204 5106
4 5279 5229 5265 5336
4 5279 5275 5229 5336
4 5229 5204 5196 5145
4 5229 5204 5145 5144
4 5204 5196 5145 5106
4 5196 5229 5145 5161
4 5229 5145 5161 5144
4 5145 5161 5144 5115
4 5144 5145 5115 5065
4 5144 5145 5065 5103
4 5115 5144 5065 5040
4 5196 5279 5265 5248
4 5204 5279 5196 5243
4 3526 3509 3560 3493
4 3526 3509 3493 3459
4 3560 3526 3493 3524
4 3493 3526 3459 3524
4 4643 4611 4558 4615
4 4643 4611 4615 4663
4 4611 4615 4663 4667
4 5547 5521 5627 5595
4 4209 4211 4148 4186
4 4209 4211 4186 4247
4 2220 2203 2171 2251
4 5012 4985 4941 4966
4 5012 4985 4966 5011
4 5012 4985 5011 5066
4 5012 4985 5066 5113
4 5508 5543 5477 5579
4 5508 5543 5579 5591
4 1678 1677 1708 1660
4 1678 1677 1660 1628
4 4866 4892 4852 4800
4 5241 5242 5161 5229
4 5241 5242 5229 5336
4 5161 5241 5229 5144
4 4328 4273 4251 4252
4 3788 3814 3769 3754
4 5959 5932 5950 5957
4 2041 2077 2108 2075
4 5909 5876 5917 5882
4 5876 5917 5882 5922
4 5917 5882 5922 5926
4 5917 5882 5926 5943
4 5949 5947 5927 5978
4 5947 5927 5978 5971
4 5978 5947 5971 5992
4 5947 5927 5971 5924
4 5971 5947 5924 5964
4 5971 5947 5964 5992
4 5947 5924 5964 5925
4 5924 5971 5964 5960
4 5924 5971 5960 5954
4 5971 5964 5960 5994
4 5964 5924 5960 5889
4 5971 5964 5994 5992
4 5994 5971 5992 5978
4 5994 5971 5978 5982
4 5994 5971 5982 5980
4 5971 5982 5980 5965
4 5994 5971 5980 5954
4 5982 5994 5980 6032
4 5982 5980 5965 6002
4 5982 5980 6002 6032
4 5980 5965 6002 5954
4 4467 4405 4406 4448
4 6024 5994 6030 5992
4 6024 5994 5992 6008
4 5994 6030 5992 5989
4 5992 5994 5989 5964
4 5994 6030 5989 6011
4 5989 5992 5964 5966
4 6030 5989 6011 6044
4 5992 5964 5966 5947
4 5964 5966 5947 5925
4 5964 5989 5966 5967
4 5966 5964 5967 5925
4 5964 5989 5967 5968
4 5964 5989 5968 5960
4 5968 5964 5960 5889
4 5964 5967 5925 5933
4 5967 5966 5925 5972
4 5989 5967 5968 5970
4 5967 5968 5970 5933
4 5967 5968 5933 5964
4 5968 5970 5933 5923
4 5970 5967 5933 5886
4 5968 5933 5964 5889
4 5968 5933 5889 5923
4 5994 5989 5964 5960
4 5994 6030 6011 6032
4 6030 6011 6032 6074
4 6011 5994 6032 5980
4 6011 6032 6074 6053
4 5989 5994 6011 5960
4 3815 3788 3745 3762
4 3788 3745 3762 3754
4 3745 3762 3754 3683
4 4569 4540 4497 4507
4 6130 6131 6068 6121
4 4683 4669 4698 4643
4 4698 4683 4643 4616
4 5243 5193 5236 5150
4 4792 4848 4891 4828
4 4792 4848 4828 4756
4 4848 4891 4828 4895
4 4848 4891 4895 4930
4 4828 4848 4895 4820
4 4891 4895 4930 4945
4 4895 4848 4930 4936
4 4930 4895 4936 5006
4 4828 4848 4820 4756
4 4891 4828 4895 4855
4 4891 4828 4855 4792
4 4828 4895 4855 4844
4 4855 4828 4844 4723
4 4848 4895 4820 4936
4 4828 4855 4792 4723
4 4895 4855 4844 4898
4 4895 4828 4820 4844
4 4828 4820 4844 4761
4 4820 4895 4844 4879
4 4844 4820 4879 4826
4 4820 4879 4826 4936
4 4844 4820 4826 4761
4 4879 4844 4826 4835
4 4820 4895 4879 4936
4 4820 4826 4761 4781
4 4895 4844 4879 4898
4 4895 4879 4936 4944
4 4936 4895 4944 5006
4 4895 4879 4944 4898
4 4879 4936 4944 4963
4 4936 4944 4963 5010
4 4936 4944 5010 5006
4 4963 4936 5010 4940
4 4944 5010 5006 5037
4 5010 5006 5037 5115
4 5006 4944 5037 4996
4 5006 4944 4996 4945
4 4944 5037 4996 5007
4 4944 4996 4945 4898
4 4996 5006 4945 5046
4 4944 5037 5007 4963
4 4996 5006 5046 5037
4 4945 4996 5046 5005
4 4879 4936 4963 4904
4 4944 4879 4963 4911
4 5340 5437 5373 5423
4 5437 5373 5423 5473
4 5437 5373 5473 5434
4 5423 5437 5473 5525
4 5268 5279 5339 5346
4 2131 2107 2125 2171
4 5789 5878 5840 5886
4 5334 5373 5434 5382
4 1267 1287 1285 1295
4 5470 5390 5423 5437
4 5390 5423 5437 5340
4 4232 4251 4215 4174
4 4643 4698 4707 4669
4 6131 6140 6061 6134
4 5189 5248 5169 5226
4 5189 5248 5226 5205
4 5226 5189 5205 5104
4 5248 5169 5226 5265
4 5169 5189 5226 5104
4 6081 6066 6069 6117
4 6081 6066 6117 6115
4 6066 6117 6115 6121
4 6030 6060 6074 6143
4 1400 1370 1379 1392
4 4529 4525 4536 4577
4 6015 6012 6058 6027
4 6015 6012 6027 5996
4 6058 6015 6027 6020
4 6058 6015 6020 6010
4 6015 6027 6020 5988
4 6012 6027 5996 6022
4 6027 5996 6022 6018
4 5996 6022 6018 6028
4 6027 5996 6018 5989
4 5996 6012 6022 5986
4 6022 6027 6018 6099
4 6022 5996 5986 5983
4 6015 6027 5988 5996
4 6020 6015 5988 5985
4 6015 5988 5985 5981
4 5988 6020 5985 5984
4 5985 5988 5984 5970
4 5988 5984 5970 5989
4 5985 5988 5970 5943
4 5988 5970 5943 5981
4 6018 5996 6028 5992
4 6020 6015 5985 6010
4 5988 5985 5981 5943
4 5996 6012 5986 5981
4 6012 5986 5981 5955
4 6015 5988 5981 5996
4 5988 5981 5996 5967
4 5988 5981 5967 5970
4 5967 5988 5970 5989
4 6020 5985 5984 5999
4 6020 5985 5999 6010
4 5985 5984 5999 5959
4 5984 6020 5999 6019
4 5984 6020 6019 6013
4 6020 5999 6019 6048
4 6019 5984 6013 5991
4 6019 6020 6048 6073
4 6019 5984 5991 5976
4 5999 5984 6019 5976
4 6020 5999 6048 6010
4 5985 5999 6010 5957
4 6020 6019 6013 6073
4 6013 6019 5991 6021
4 6019 5991 6021 6014
4 5991 6013 6021 6011
4 5984 6020 6013 5988
4 5999 6019 6048 6025
4 6048 5999 6025 6010
4 5999 6025 6010 6001
4 5999 6025 6001 5990
4 6027 6058 6020 6073
4 5984 6013 5991 5989
4 5996 6018 5989 5992
4 5970 5985 5943 5959
4 6027 6020 5988 6013
4 6027 5988 5996 5989
4 5984 5985 5970 5959
4 5075 5030 5066 4977
4 3552 3567 3600 3545
4 1379 1370 1346 1371
4 5346 5362 5392 5452
4 5392 5346 5452 5414
4 5320 5366 5398 5368
4 5320 5366 5368 5413
4 5095 5149 5173 5150
4 5095 5149 5150 5066
4 3073 3055 3100 3085
4 5017 4960 5007 4911
4 5766 5803 5789 5701
4 5766 5803 5701 5709
4 5766 5803 5709 5761
4 5701 5766 5709 5647
4 5709 5766 5761 5715
4 5766 5761 5715 5790
4 4615 4636 4611 4577
4 4611 4615 4577 4558
4 5773 5755 5852 5817
4 4721 4781 4788 4756
4 4940 4980 5010 5040
4 5404 5336 5322 5414
4 5404 5336 5414 5463
4 5414 5404 5463 5510
4 5463 5414 5510 5452
4 4615 4669 4683 4643
4 4615 4669 4643 4707
4 6122 6121 6130 6068
4 4342 4325 4343 4409
4 3019 3039 3036 3066
4 4827 4892 4835 4801
4 1627 1628 1678 1661
4 1627 1628 1661 1613
4 1627 1628 1613 1580
4 6057 6053 6023 6021
4 6053 6023 6021 6003
4 6053 6023 6003 6041
4 6057 6053 6021 6061
4 6021 6053 6003 6011
4 6053 6003 6011 6026
4 6003 6011 6026 6002
4 6021 6057 6061 6014
4 6053 6003 6026 6041
4 6023 6021 6003 5987
4 6023 6021 5987 6009
4 6021 6003 5987 5991
4 5987 6021 5991 6014
4 6003 6023 5987 6000
4 6021 6003 5991 6011
4 6003 5987 5991 5973
4 6003 5987 5973 5954
4 5987 5991 5973 5962
4 6053 6021 6061 6013
4 6021 5987 6009 6014
4 5987 6023 6009 6000
4 6071 6042 6041 6026
4 6071 6042 6026 6032
4 6026 6071 6032 6053
4 6042 6041 6026 6002
4 6026 6042 6002 6032
4 6041 6071 6026 6053
4 6041 6026 6002 6000
4 6002 6026 6032 6011
4 6026 6032 6011 6053
4 5423 5390 5336 5340
4 5390 5336 5340 5322
4 1698 1685 1661 1660
4 4823 4800 4749 4750
4 4823 4800 4750 4780
4 3285 3324 3304 3272
4 4624 4683 4671 4616
4 4683 4671 4616 4705
4 4683 4671 4705 4753
4 4731 4667 4707 4669
4 3115 3154 3142 3134
4 3115 3154 3134 3096
4 3142 3115 3134 3075
4 3134 3115 3096 3075
4 4507 4569 4554 4468
4 4529 4558 4577 4567
4 4906 4859 4845 4912
4 1879 1881 1830 1861
4 1879 1881 1861 1912
4 4707 4736 4737 4780
4 4785 4857 4826 4835
4 5282 5382 5309 5316
4 5309 5282 5316 5205
4 5282 5382 5316 5334
4 5316 5282 5334 5239
4 2969 2984 3017 3046
4 2029 2018 2044 2047
4 3332 3379 3395 3359
4 3379 3395 3359 3423
4 3395 3332 3359 3391
4 3395 3359 3423 3391
4 3423 3395 3391 3454
4 5950 5910 5941 5956
4 5010 5045 5006 5115
4 4124 4179 4164 4180
4 5785 5741 5846 5788
4 5086 5091 5191 5138
4 5086 5091 5138 5046
4 5086 5091 5046 4994
4 5840 5790 5766 5746
4 5840 5790 5746 5776
4 5790 5766 5746 5647
4 5766 5840 5746 5789
4 5790 5746 5776 5658
4 3497 3465 3484 3475
4 5545 5493 5483 5580
4 5545 5493 5580 5584
4 5493 5580 5584 5532
4 5580 5545 5584 5645
4 6099 6075 6080 6012
4 2461 2511 2482 2469
4 2482 2461 2469 2436
4 5497 5521 5513 5591
4 4707 4663 4643 4615
4 5106 5071 5111 5017
4 6110 6139 6128 6124
4 4283 4275 4336 4287
4 5909 5874 5923 5941
4 5294 5320 5248 5230
4 5886 5885 5938 5925
4 5885 5938 5925 5931
4 5938 5886 5925 5967
4 5925 5938 5967 5972
4 5885 5938 5931 5939
4 5938 5967 5972 5981
4 2341 2374 2376 2326
4 6073 6134 6126 6103
4 6073 6134 6103 6061
4 6134 6126 6103 6121
4 6126 6073 6103 6058
4 5936 5913 5923 5920
4 4577 4615 4567 4558
4 5432 5452 5392 5362
4 5368 5320 5316 5398
4 5897 5828 5886 5852
4 5897 5828 5852 5888
4 4456 4465 4431 4499
4 3154 3185 3142 3194
4 2479 2465 2429 2469
4 4733 4768 4750 4810
4 2934 2929 2994 2961
4 2837 2876 2828 2894
4 5275 5268 5346 5279
4 2058 2073 2107 2047
4 5575 5659 5583 5639
4 4129 4078 4105 4174
4 6075 6099 6044 6027
4 6044 6075 6027 6073
4 6044 6075 6073 6137
4 6027 6044 6073 6013
4 6044 6073 6013 6074
4 6075 6099 6027 6012
4 6073 6044 6137 6074
4 6075 6027 6073 6058
4 6075 6027 6058 6012
4 6027 6044 6013 5989
4 5050 5115 5091 5006
4 3055 3066 3036 3085
4 6137 6073 6126 6075
4 6073 6126 6075 6058
4 2659 2661 2711 2699
4 2659 2661 2699 2710
4 2661 2711 2699 2696
4 2699 2661 2696 2710
4 2711 2659 2699 2715
4 2659 2699 2715 2710
4 2699 2711 2715 2729
4 2715 2699 2729 2710
4 2699 2729 2710 2696
4 2699 2729 2696 2711
4 2729 2715 2710 2772
4 2711 2715 2729 2776
4 2710 2729 2772 2733
4 2710 2729 2733 2696
4 5470 5463 5510 5550
4 2420 2461 2449 2436
4 5897 5943 5926 5882
4 5926 5897 5882 5879
4 5169 5174 5112 5079
4 5112 5169 5079 5116
4 5112 5169 5116 5104
4 5116 5112 5104 5079
4 5169 5079 5116 5134
4 5169 5079 5134 5196
4 5134 5169 5196 5217
4 5169 5196 5217 5265
4 5196 5217 5265 5161
4 5217 5169 5265 5226
4 5265 5217 5226 5239
4 5079 5116 5134 5037
4 5134 5169 5217 5116
4 5169 5196 5265 5248
4 5217 5169 5226 5116
4 5169 5196 5248 5174
4 5196 5134 5217 5161
4 5134 5217 5161 5116
4 5196 5134 5161 5145
4 5134 5161 5145 5037
4 5196 5134 5145 5079
4 5134 5145 5079 5037
4 5217 5265 5161 5242
4 5217 5265 5242 5239
4 5161 5217 5242 5171
4 5217 5242 5171 5239
4 5242 5171 5239 5191
4 5171 5217 5239 5226
4 5242 5171 5191 5161
4 5161 5217 5171 5116
4 5171 5239 5191 5138
4 5171 5239 5138 5205
4 5191 5171 5138 5091
4 5171 5138 5091 5116
4 5171 5138 5116 5104
4 4653 4701 4601 4645
4 2813 2871 2837 2816
4 1661 1660 1617 1613
4 5158 5175 5241 5144
4 3058 3019 2994 3025
4 5927 5895 5951 5924
4 5927 5895 5924 5928
4 4624 4597 4615 4567
4 4597 4615 4567 4594
4 4615 4624 4567 4616
4 3800 3762 3756 3741
4 4896 4928 4921 4885
4 5981 5972 5996 5967
4 5972 5996 5967 5966
4 5925 5893 5846 5885
4 6063 6099 6080 6022
4 6063 6099 6022 6018
4 6022 6063 6018 6028
4 1859 1862 1911 1861
4 1859 1862 1861 1815
4 5503 5448 5424 5483
4 3835 3812 3761 3800
4 6032 6008 6046 6002
4 4818 4823 4749 4747
4 4155 4118 4105 4174
4 4155 4118 4174 4215
4 4118 4105 4174 4129
4 3346 3334 3293 3318
4 6066 6035 6010 6025
4 4287 4343 4283 4299
4 4287 4343 4299 4249
4 4343 4283 4299 4325
4 4299 4343 4325 4363
4 4299 4343 4363 4331
4 4325 4299 4363 4328
4 2503 2469 2461 2465
4 1915 1911 1862 1861
4 1611 1602 1603 1568
4 6119 6114 6069 6117
4 4456 4468 4497 4416
4 3551 3584 3562 3567
4 5225 5149 5174 5236
4 5281 5340 5242 5336
4 4137 4141 4064 4130
4 2841 2842 2788 2813
4 2841 2842 2813 2871
4 2841 2842 2871 2914
4 5943 5897 5930 5882
4 2172 2177 2131 2149
4 6028 6030 6018 5992
4 5413 5368 5445 5366
4 3216 3170 3177 3231
4 3170 3177 3231 3194
4 3177 3231 3194 3223
4 3170 3177 3194 3134
4 6018 6030 6044 5989
4 6018 6030 5989 5992
4 2314 2313 2251 2287
4 2314 2313 2287 2348
4 2314 2313 2348 2376
4 2313 2251 2287 2255
4 2313 2287 2348 2315
4 2313 2348 2376 2315
4 2313 2287 2315 2255
4 1532 1567 1568 1536
4 1567 1568 1536 1569
4 1567 1568 1569 1594
4 1567 1568 1594 1611
4 1568 1594 1611 1569
4 1569 1567 1594 1613
4 1567 1594 1613 1611
4 1594 1613 1611 1569
4 5340 5373 5334 5297
4 5373 5334 5297 5316
4 5340 5373 5297 5336
4 2645 2682 2643 2648
4 2243 2220 2206 2251
4 5645 5607 5580 5647
4 5607 5580 5647 5532
4 2866 2883 2816 2837
4 2420 2399 2393 2436
4 1881 1879 1930 1912
4 6006 6028 6031 6022
4 5972 5931 5935 5925
4 6009 6038 5993 6000
4 3217 3190 3257 3223
4 3475 3487 3467 3418
4 3318 3269 3312 3293
4 5825 5786 5852 5879
4 4525 4499 4446 4465
4 3780 3730 3761 3812
4 5853 5787 5835 5762
4 5853 5787 5762 5788
4 5762 5853 5788 5824
4 5788 5762 5824 5746
4 5824 5788 5746 5789
4 4100 4078 4126 4174
4 5385 5339 5314 5388
4 5091 5115 5161 5037
4 1580 1569 1611 1613
4 1580 1569 1613 1627
4 4960 5011 5007 4966
4 5011 5007 4966 5012
4 5007 4966 5012 4941
4 4960 5011 4966 4985
4 5007 4960 4966 4911
4 4966 5007 4911 4944
4 4960 4966 4911 4892
4 4966 5007 4944 4996
4 4653 4602 4659 4640
4 6033 6017 6069 6066
4 5158 5091 5161 5191
4 4409 4457 4468 4447
4 4409 4457 4447 4396
4 4468 4409 4447 4428
4 4457 4447 4396 4487
4 4409 4447 4428 4363
4 4457 4468 4447 4516
4 4457 4468 4516 4532
4 4468 4447 4516 4507
4 4447 4457 4516 4513
4 4516 4447 4513 4507
4 4409 4457 4396 4408
4 4447 4409 4396 4363
4 4336 4342 4409 4416
4 2819 2837 2777 2772
4 5038 5111 5011 5066
4 5351 5385 5307 5314
4 5351 5385 5314 5388
4 5882 5914 5922 5926
4 5882 5914 5926 5879
4 5914 5926 5879 5937
4 5914 5926 5937 5958
4 5914 5926 5958 5922
4 5926 5879 5937 5939
4 5937 5926 5939 5977
4 5926 5937 5958 5977
4 5983 5972 5944 5946
4 3594 3641 3660 3624
4 3641 3660 3624 3690
4 3660 3594 3624 3652
4 3660 3624 3690 3652
4 3066 3019 3025 2992
4 3066 3019 2992 3036
4 4888 4892 4823 4835
4 4888 4892 4835 4911
4 4823 4888 4835 4810
4 4835 4888 4911 4879
4 4823 4888 4810 4898
4 4835 4823 4810 4780
4 4888 4892 4911 4966
4 4911 4888 4966 4944
4 4888 4835 4810 4844
4 4888 4892 4966 4985
4 2378 2418 2436 2399
4 5948 5955 5981 5986
4 2021 2041 1982 2019
4 2677 2722 2702 2672
4 2677 2722 2672 2733
4 5817 5878 5789 5852
4 4235 4179 4249 4180
4 6053 6071 6072 6041
4 5020 5079 5007 5037
4 5007 5020 5037 4996
4 5079 5007 5037 5069
4 5007 5037 5069 5017
4 5069 5007 5017 5079
4 5007 5037 5017 4963
4 5037 5069 5017 5065
4 5020 5037 4996 5116
4 5017 5007 4963 4911
4 5069 5017 5065 5106
4 5069 5017 5106 5111
4 5017 5069 5079 5111
4 5037 5069 5065 5145
4 5069 5065 5145 5106
4 5145 5069 5106 5131
4 5069 5106 5131 5079
4 5145 5069 5131 5079
4 4835 4799 4780 4785
4 5638 5658 5625 5561
4 4235 4283 4287 4209
4 4235 4283 4209 4224
4 5766 5843 5803 5761
4 2960 3007 2961 3025
4 5545 5594 5580 5483
4 2278 2249 2269 2270
4 4623 4640 4602 4561
4 5949 5966 5947 5992
4 1780 1777 1827 1812
4 2733 2721 2672 2696
4 4698 4747 4768 4705
4 4404 4374 4406 4328
4 5940 5913 5941 5962
4 3473 3448 3464 3510
4 5242 5224 5161 5191
4 5242 5224 5191 5288
4 5191 5242 5288 5239
4 5242 5288 5239 5297
4 5242 5288 5297 5340
4 5239 5242 5297 5265
4 5242 5297 5265 5336
4 5288 5297 5340 5334
4 5297 5265 5336 5343
4 5297 5265 5343 5316
4 5336 5297 5343 5373
4 5265 5343 5316 5248
4 5297 5343 5373 5316
4 5297 5265 5316 5226
4 5297 5265 5226 5239
4 4756 4792 4701 4723
4 5783 5838 5888 5828
4 4407 4456 4431 4416
4 4456 4431 4416 4497
4 2703 2710 2755 2733
4 2703 2710 2733 2673
4 5030 4977 4987 5066
4 3629 3597 3618 3609
4 5952 5954 5963 6000
4 4906 4921 4975 4928
4 5932 5959 5917 5957
4 5912 5888 5931 5939
4 5912 5888 5939 5879
4 1100 1107 1080 1136
4 3730 3660 3690 3741
4 2411 2384 2350 2363
4 3653 3683 3682 3652
4 3832 3769 3781 3798
4 3693 3653 3682 3696
4 3682 3693 3696 3754
4 5627 5557 5521 5596
4 5627 5557 5596 5652
4 5557 5521 5596 5483
4 3816 3834 3828 3761
4 3115 3094 3065 3075
4 4569 4567 4624 4616
4 1567 1603 1568 1611
4 4776 4775 4737 4780
4 5982 6008 5978 5994
4 4336 4355 4349 4416
4 5720 5705 5678 5755
4 5705 5678 5755 5652
4 1950 1934 1908 1949
4 4465 4456 4529 4499
4 5652 5663 5596 5678
4 5596 5652 5678 5627
4 5678 5596 5627 5591
4 1830 1827 1879 1861
4 3122 3115 3142 3104
4 6022 6039 6012 6080
4 2077 2065 2133 2107
4 3214 3273 3209 3270
4 4568 4596 4562 4645
4 4731 4780 4799 4707
4 4731 4780 4707 4737
4 3190 3162 3201 3205
4 5954 5920 5963 5973
4 5954 5920 5973 5960
4 5973 5954 5960 6003
4 5963 5954 5973 5987
4 5973 5963 5987 5962
4 5954 5920 5960 5924
4 5920 5973 5960 5968
4 5973 5960 5968 5989
4 5960 5973 6003 5989
4 5762 5787 5708 5788
4 5708 5762 5788 5654
4 4588 4554 4616 4613
4 4588 4554 4613 4561
4 4554 4616 4613 4634
4 4616 4613 4634 4668
4 4613 4634 4668 4640
4 4668 4613 4640 4671
4 4616 4588 4613 4671
4 4554 4616 4634 4596
4 4616 4613 4668 4671
4 4616 4634 4596 4698
4 3553 3545 3487 3552
4 3553 3545 3552 3600
4 3065 3058 2994 3025
4 5470 5423 5463 5550
4 2021 1982 1992 2019
4 6133 6099 6143 6044
4 3567 3597 3600 3545
4 4892 4882 4911 4960
4 5368 5316 5382 5400
4 5368 5316 5400 5398
4 5382 5368 5400 5445
4 5368 5400 5445 5398
4 5318 5294 5248 5236
4 6034 6037 6014 5998
4 6037 6014 5998 6016
4 5998 6037 6016 5990
4 6016 5998 5990 5976
4 6037 6014 6016 6068
4 6014 5998 6016 5976
4 6016 6037 6068 6040
4 6016 6037 6040 5990
4 6040 6016 5990 6025
4 6040 6016 6025 6068
4 6016 5990 6025 5999
4 6025 6016 5999 6019
4 5874 5878 5923 5840
4 5878 5923 5840 5886
4 1708 1697 1698 1660
4 2166 2133 2197 2171
4 4124 4110 4179 4180
4 2645 2677 2648 2605
4 2648 2645 2605 2588
4 5382 5477 5407 5445
4 1440 1463 1441 1431
4 2145 2149 2131 2171
4 2108 2133 2166 2145
4 5761 5731 5831 5803
4 4567 4569 4497 4532
4 2108 2077 2133 2107
4 2145 2125 2075 2108
4 6065 6030 6078 6143
4 6009 5993 6034 6014
4 6009 5993 6014 5962
4 4663 4707 4667 4615
4 5882 5858 5879 5786
4 5882 5858 5786 5777
4 2208 2200 2218 2265
4 5950 5932 5922 5957
4 5103 5106 5186 5194
4 5186 5103 5194 5133
4 5575 5573 5557 5652
4 4275 4247 4267 4209
4 4609 4643 4558 4596
4 4609 4643 4596 4630
4 4643 4596 4630 4698
4 4558 4609 4596 4568
4 4596 4609 4630 4568
4 4630 4596 4568 4645
4 5279 5243 5339 5318
4 5204 5275 5283 5186
4 4768 4747 4810 4761
4 5241 5281 5242 5336
4 3267 3231 3297 3258
4 3267 3231 3258 3194
4 3297 3267 3258 3329
4 4845 4857 4785 4835
4 4845 4857 4835 4911
4 4857 4835 4911 4879
4 4299 4270 4235 4241
4 4299 4270 4241 4328
4 4270 4235 4241 4164
4 4235 4299 4241 4252
4 6143 6137 6133 6044
4 4179 4173 4249 4180
4 6039 6012 5997 6005
4 5780 5817 5706 5777
4 1762 1763 1777 1726
4 6037 6068 6062 6014
4 5230 5174 5248 5294
4 5909 5923 5930 5959
4 5930 5909 5959 5917
4 5930 5909 5917 5882
4 2813 2837 2772 2816
4 1715 1709 1763 1762
4 5640 5658 5572 5580
4 3190 3203 3257 3223
4 5724 5773 5786 5817
4 3815 3762 3754 3788
4 4698 4733 4750 4780
4 6000 6023 6041 6003
4 5913 5962 5923 5941
4 5947 5928 5927 5924
4 3115 3105 3154 3065
4 3345 3387 3366 3340
4 6070 6122 6082 6068
4 5770 5839 5762 5776
4 3545 3553 3609 3600
4 4124 4126 4180 4164
4 6139 6099 6076 6143
4 3914 3864 3827 3840
4 4800 4801 4780 4823
4 4800 4801 4823 4892
4 5827 5785 5846 5885
4 2002 2018 1964 1966
4 5852 5825 5879 5888
4 5788 5762 5746 5654
4 3223 3257 3224 3203
4 4396 4447 4363 4404
4 4363 4396 4404 4331
4 4396 4447 4404 4487
4 4363 4396 4331 4343
4 4363 4396 4343 4409
4 4396 4343 4409 4408
4 4404 4363 4331 4328
4 5037 5069 5145 5079
4 4448 4374 4404 4410
4 4404 4448 4410 4487
4 4374 4404 4410 4331
4 4404 4410 4331 4396
4 4404 4410 4396 4487
4 4410 4331 4396 4326
4 4374 4404 4331 4328
4 4410 4396 4487 4457
4 4410 4396 4457 4408
4 4911 4961 4857 4963
4 4911 4961 4963 5017
4 4961 4963 5017 5004
4 4961 4963 5004 4904
4 4961 4963 4904 4857
4 1930 1931 1912 1936
4 1930 1931 1936 1964
4 5279 5339 5346 5371
4 5339 5346 5371 5452
4 5279 5339 5371 5343
4 5346 5279 5371 5336
4 5279 5371 5336 5343
4 5371 5336 5343 5423
4 5371 5336 5423 5463
4 5336 5343 5423 5373
4 5423 5371 5463 5436
4 5463 5423 5436 5550
4 5371 5463 5436 5438
4 5463 5436 5438 5515
4 5436 5371 5438 5398
4 5436 5438 5515 5469
4 5438 5436 5398 5469
4 5436 5398 5469 5513
4 5371 5463 5438 5452
4 5438 5463 5515 5452
4 5515 5436 5469 5513
4 5463 5436 5515 5550
4 5515 5463 5550 5510
4 5438 5515 5469 5493
4 5398 5438 5469 5388
4 5469 5398 5388 5462
4 5343 5423 5373 5400
4 5373 5343 5400 5316
4 5343 5400 5316 5398
4 5343 5400 5398 5436
4 5398 5343 5436 5371
4 5400 5398 5436 5491
4 5423 5371 5436 5343
4 5436 5515 5550 5513
4 5343 5423 5400 5436
4 5423 5336 5373 5340
4 5515 5463 5510 5452
4 3397 3400 3431 3447
4 4468 4516 4532 4554
4 4468 4516 4554 4507
4 4516 4554 4507 4513
4 4516 4554 4513 4566
4 4516 4532 4554 4562
4 4554 4516 4562 4566
4 4516 4532 4562 4457
4 4554 4507 4513 4561
4 4516 4562 4566 4487
4 4562 4554 4566 4634
4 4513 4554 4561 4585
4 4513 4554 4585 4566
4 4562 4566 4487 4489
4 4721 4700 4640 4668
4 4700 4640 4668 4695
4 4640 4721 4668 4671
4 4721 4700 4668 4695
4 5495 5572 5614 5526
4 5925 5964 5933 5889
4 5933 5925 5889 5886
4 5889 5933 5886 5923
4 5933 5925 5886 5967
4 5925 5889 5886 5846
4 5889 5886 5846 5788
4 5889 5886 5788 5789
4 3100 3055 3051 3085
4 5701 5706 5803 5817
4 6138 6131 6061 6068
4 4940 4936 4853 4904
4 5007 5020 4996 4957
4 5007 5020 4957 4941
4 5020 4957 4941 4898
4 4957 4941 4898 4888
4 4957 4941 4888 4966
4 4957 4941 4966 5007
4 4966 4957 5007 4996
4 5020 4996 4957 4898
4 4888 4957 4966 4898
4 4966 4957 4996 4898
4 4941 4888 4966 4985
4 5881 5776 5824 5762
4 5776 5824 5762 5746
4 5776 5824 5746 5840
4 5824 5746 5840 5789
4 5840 5824 5789 5889
4 5840 5824 5889 5920
4 5983 5972 5946 5966
4 5248 5189 5300 5205
4 5469 5438 5493 5385
4 5958 5969 5922 5957
4 5958 5969 5957 5995
4 5969 5922 5957 5950
4 4826 4817 4753 4781
4 5925 5928 5947 5924
4 2047 2065 2075 2107
4 5434 5473 5534 5477
4 4828 4820 4761 4756
4 4820 4761 4756 4781
4 5951 5942 5965 5971
4 5951 5942 5971 5924
4 5942 5971 5924 5954
4 5971 5951 5924 5927
4 5493 5452 5438 5515
4 6004 5997 5981 5955
4 2065 2077 2075 2107
4 1628 1611 1660 1613
4 1628 1611 1613 1580
4 2837 2876 2894 2871
4 6031 6022 5983 6006
4 1815 1812 1861 1859
4 6025 6048 6010 6066
4 3304 3324 3340 3272
4 4431 4376 4438 4389
4 2722 2765 2733 2755
4 5925 5938 5972 5931
4 5938 5972 5931 5939
4 5701 5724 5706 5817
4 4799 4780 4785 4733
4 4722 4733 4731 4799
4 4785 4799 4733 4722
4 4799 4780 4733 4707
4 4780 4785 4733 4835
4 4733 4731 4799 4707
4 4733 4731 4707 4698
4 4780 4733 4707 4698
4 4731 4707 4698 4669
4 5785 5741 5788 5678
4 4630 4643 4698 4649
4 4630 4643 4649 4609
4 4649 4630 4609 4568
4 4649 4630 4568 4645
4 5953 5916 5936 5963
4 5936 5953 5963 5962
4 5963 5936 5962 5973
4 5963 5936 5973 5920
4 5963 5936 5920 5916
4 5953 5916 5963 5952
4 5936 5973 5920 5923
4 5963 5953 5952 6000
4 5279 5196 5243 5269
4 5243 5279 5269 5318
4 5279 5269 5318 5343
4 5279 5196 5269 5248
4 5196 5269 5248 5150
4 5196 5243 5269 5150
4 5269 5243 5318 5236
4 5318 5269 5236 5248
4 5318 5269 5248 5343
4 5269 5236 5248 5150
4 5269 5243 5236 5150
4 5269 5279 5248 5343
4 4850 4848 4756 4820
4 4850 4848 4820 4936
4 5006 4994 4930 4945
4 5006 4994 4945 5046
4 5006 4994 5046 5091
4 5046 5006 5091 5037
4 5006 5091 5037 5115
4 4299 4241 4252 4328
4 5580 5663 5647 5658
4 5282 5316 5205 5226
4 5282 5316 5226 5239
4 5205 5282 5226 5239
4 5316 5205 5226 5248
4 5226 5316 5248 5265
4 4944 4996 4898 4966
4 5463 5414 5452 5371
4 5463 5414 5371 5336
4 5414 5371 5336 5346
4 5414 5371 5346 5452
4 3154 3142 3134 3194
4 3134 3154 3194 3096
4 4431 4416 4355 4407
4 5503 5499 5483 5424
4 5150 5174 5236 5248
4 5294 5225 5230 5174
4 5525 5561 5625 5568
4 5561 5625 5568 5658
4 5625 5568 5658 5550
4 5625 5568 5550 5525
4 5568 5658 5550 5598
4 5550 5568 5598 5515
4 5550 5568 5515 5510
4 5568 5598 5515 5580
4 5598 5550 5515 5552
4 5568 5598 5580 5658
4 5598 5515 5580 5596
4 5550 5515 5552 5513
4 5568 5550 5525 5510
4 5515 5598 5552 5596
4 5598 5552 5596 5654
4 5552 5596 5654 5605
4 5596 5598 5654 5663
4 5596 5598 5663 5580
4 5598 5663 5580 5658
4 5552 5596 5605 5513
4 5552 5596 5513 5504
4 5513 5552 5504 5515
4 5605 5552 5513 5619
4 5552 5596 5504 5515
4 5596 5654 5605 5678
4 5598 5654 5663 5658
4 5596 5654 5678 5663
4 5605 5596 5678 5591
4 5598 5550 5552 5654
4 5605 5552 5619 5654
4 5619 5605 5654 5678
4 5658 5625 5550 5650
4 5658 5625 5650 5725
4 5552 5550 5513 5619
4 5654 5678 5663 5746
4 5515 5568 5580 5532
4 5596 5513 5504 5483
4 5504 5596 5483 5536
4 5483 5504 5536 5469
4 5483 5504 5469 5513
4 5504 5536 5469 5515
4 5504 5536 5515 5596
4 5469 5504 5515 5513
4 5536 5483 5469 5493
4 5536 5469 5515 5493
4 5536 5483 5493 5580
4 5493 5536 5580 5532
4 5515 5536 5493 5532
4 5483 5469 5493 5385
4 5536 5515 5596 5580
4 5536 5515 5580 5532
4 5536 5483 5580 5596
4 5678 5605 5591 5662
4 5605 5591 5662 5619
4 5662 5605 5619 5678
4 5605 5591 5619 5513
4 5605 5591 5513 5521
4 5605 5591 5521 5596
4 5513 5605 5521 5596
4 5568 5515 5510 5532
4 5552 5619 5654 5550
4 4406 4393 4328 4374
4 5344 5283 5328 5392
4 2904 2914 2969 2929
4 3816 3838 3754 3814
4 3643 3671 3647 3645
4 3838 3814 3788 3754
4 6022 5996 5983 6006
4 2326 2314 2298 2270
4 6061 6131 6134 6103
4 6131 6134 6103 6121
4 6103 6131 6121 6048
4 6121 6103 6048 6058
4 6061 6131 6103 6048
4 6003 6026 6041 6000
4 5619 5708 5662 5678
4 6126 6103 6121 6058
4 4457 4516 4513 4487
4 4457 4516 4487 4562
4 4516 4513 4487 4566
4 3154 3203 3185 3224
4 3203 3185 3224 3223
4 3185 3224 3223 3194
4 3185 3154 3224 3194
4 5340 5281 5322 5336
4 2177 2131 2149 2171
4 5204 5145 5144 5122
4 5145 5144 5122 5103
4 5204 5145 5122 5106
4 5145 5122 5106 5065
4 5122 5145 5103 5065
4 5122 5204 5106 5194
4 5103 5122 5065 5106
4 5103 5122 5106 5194
4 5144 5122 5103 5194
4 5144 5122 5194 5204
4 6138 6140 6062 6061
4 3800 3816 3762 3741
4 2348 2314 2376 2326
4 2348 2314 2326 2287
4 2326 2348 2287 2288
4 2376 2348 2326 2393
4 2348 2326 2393 2350
4 2314 2326 2287 2270
4 2326 2287 2270 2288
4 2376 2348 2393 2412
4 2287 2314 2270 2251
4 2270 2287 2251 2223
4 2270 2287 2223 2288
4 2287 2251 2223 2255
4 2251 2223 2255 2197
4 2251 2270 2223 2206
4 2270 2223 2206 2224
4 2223 2251 2206 2171
4 2223 2206 2224 2166
4 2376 2348 2412 2384
4 2393 2376 2412 2436
4 2206 2223 2171 2166
4 2412 2376 2384 2436
4 2348 2326 2350 2288
4 2348 2393 2412 2350
4 2376 2348 2384 2315
4 5573 5594 5483 5557
4 5741 5720 5662 5678
4 5217 5171 5116 5226
4 5396 5424 5388 5483
4 4046 3972 4021 3974
4 4944 4963 5010 5037
4 4963 5010 5037 5065
4 5010 5037 5065 5115
4 5065 5010 5115 5040
4 5065 5010 5040 5004
4 4963 5010 5065 5004
4 5817 5876 5909 5882
4 2788 2776 2841 2813
4 2788 2776 2813 2772
4 5886 5828 5785 5789
4 6117 6119 6058 6069
4 5989 5992 5966 5996
4 5974 5985 5981 6004
4 6068 6062 6014 6061
4 6068 6062 6061 6138
4 6062 6014 6061 6057
4 6061 6062 6057 6140
4 6062 6014 6057 6009
4 6053 6061 6108 6073
4 5923 5874 5840 5913
4 5923 5874 5913 5941
4 5840 5923 5913 5920
4 2772 2777 2816 2837
4 5452 5532 5510 5515
4 5994 6008 6032 5982
4 4510 4528 4513 4585
4 5111 5071 5011 5017
4 2073 2058 2018 2047
4 2058 2018 2047 2107
4 5470 5525 5437 5423
4 5470 5525 5423 5550
4 5470 5525 5550 5510
4 4914 4898 4818 4855
4 5300 5316 5248 5205
4 5992 5994 5978 6008
4 6011 6030 6044 6074
4 4406 4404 4328 4363
4 4406 4404 4363 4447
4 3177 3194 3134 3142
4 5297 5242 5340 5336
4 5852 5897 5888 5879
4 5852 5897 5879 5882
4 5852 5897 5882 5878
4 5879 5852 5882 5786
4 5852 5882 5786 5817
4 5852 5882 5817 5878
4 5288 5239 5297 5334
4 5239 5297 5334 5316
4 4588 4507 4554 4561
4 6075 6133 6137 6044
4 2145 2125 2108 2133
4 4251 4215 4174 4210
4 4251 4215 4210 4252
4 4215 4210 4252 4180
4 4210 4252 4180 4241
4 4210 4252 4241 4251
4 4180 4210 4241 4170
4 4210 4241 4170 4251
4 4180 4210 4170 4126
4 4170 4180 4126 4164
4 4180 4210 4126 4174
4 4210 4170 4126 4174
4 4210 4170 4174 4251
4 4126 4170 4164 4100
4 4170 4164 4100 4174
4 4126 4170 4100 4174
4 4215 4174 4210 4180
4 4252 4180 4241 4235
4 4252 4241 4251 4328
4 4241 4180 4170 4235
4 4588 4613 4671 4640
4 5560 5550 5650 5619
4 5568 5572 5658 5580
4 5828 5886 5852 5789
4 5495 5452 5510 5392
4 3113 3048 3112 3096
4 3112 3113 3096 3170
4 5886 5897 5852 5878
4 5133 5144 5040 5103
4 4343 4326 4408 4396
4 5893 5827 5846 5885
4 4613 4554 4634 4585
4 4634 4613 4585 4640
4 4613 4585 4640 4561
4 4640 4613 4561 4588
4 4613 4554 4585 4561
4 4554 4634 4585 4566
4 4585 4640 4561 4602
4 5984 5999 5959 5976
4 4649 4654 4698 4747
4 4820 4826 4781 4850
4 4820 4826 4850 4936
4 5448 5424 5483 5388
4 5483 5448 5388 5385
4 5962 5936 5923 5973
4 5893 5925 5931 5885
4 5701 5663 5678 5746
4 5701 5663 5746 5766
4 5701 5663 5766 5647
4 5663 5746 5766 5647
4 5746 5701 5766 5789
4 5229 5265 5336 5242
4 5229 5265 5242 5161
4 6016 5999 6019 5976
4 5985 5957 5959 5999
4 6027 6020 6013 6073
4 5477 5534 5579 5543
4 5400 5382 5445 5491
4 5445 5400 5491 5398
4 4895 4944 5006 4945
4 5985 6015 5981 6004
4 5985 6015 6004 6010
4 4209 4214 4267 4287
4 5106 5155 5186 5204
4 5106 5155 5204 5196
4 5949 5946 5966 6006
4 5316 5382 5400 5373
4 6032 6074 6078 6030
4 4911 4857 4879 4963
4 5981 5967 5970 5938
4 5967 5970 5938 5886
4 6014 5998 5976 5993
4 5640 5572 5532 5580
4 5473 5479 5534 5578
4 4850 4788 4781 4756
4 6005 5979 6012 5997
4 5979 6012 5997 5955
4 4408 4407 4337 4343
4 5846 5785 5788 5886
4 4692 4723 4645 4649
4 3560 3526 3524 3587
4 4457 4489 4468 4532
4 4457 4489 4532 4562
4 4407 4409 4468 4416
4 4616 4588 4671 4624
4 5993 6034 6014 5998
4 5647 5715 5718 5790
4 5708 5741 5662 5678
4 4485 4561 4513 4507
4 2842 2841 2891 2914
4 6026 6003 6002 6000
4 3584 3596 3562 3567
4 5755 5705 5828 5720
4 5225 5294 5236 5174
4 2984 2969 2914 2929
4 6011 5994 5980 5954
4 5510 5526 5495 5427
4 3653 3619 3652 3600
4 3624 3594 3587 3652
4 6016 5990 5999 5976
4 4585 4601 4528 4566
4 4585 4601 4566 4645
4 4528 4585 4566 4513
4 4566 4585 4645 4634
4 5596 5594 5557 5483
4 5145 5161 5115 5037
4 4081 4100 4164 4094
4 5204 5231 5186 5283
4 6074 6137 6143 6044
4 3297 3359 3329 3340
4 5265 5336 5343 5279
4 5343 5265 5279 5248
4 3267 3216 3231 3170
4 6003 5991 6011 5989
4 6011 6003 5989 5960
4 5770 5725 5776 5762
4 5770 5725 5762 5650
4 5725 5776 5762 5658
4 4826 4857 4904 4879
4 4826 4857 4879 4835
4 4857 4904 4879 4963
4 1661 1698 1660 1708
4 1660 1661 1708 1678
4 1660 1661 1678 1628
4 1660 1661 1628 1613
4 5316 5297 5226 5239
4 4985 5011 5066 4977
4 4569 4567 4616 4596
4 5987 5991 5962 6014
4 5640 5647 5580 5532
4 4828 4792 4756 4723
4 4275 4283 4209 4287
4 3387 3357 3418 3416
4 5015 5017 5106 5103
4 5978 6008 6007 5992
4 6007 5978 5992 5949
4 4634 4645 4653 4585
4 4653 4634 4585 4640
4 5939 5974 5981 5955
4 5091 5138 5046 5116
4 2710 2755 2733 2772
4 4780 4801 4835 4823
4 5424 5396 5499 5483
4 1982 1992 2019 1965
4 1992 2019 1965 1964
4 1965 1992 1964 1931
4 1982 1992 1965 1931
4 5111 5011 5066 5079
4 3475 3519 3497 3467
4 5158 5241 5161 5144
4 4404 4406 4448 4464
4 4404 4406 4464 4447
4 4448 4404 4464 4487
4 4464 4404 4447 4487
4 4448 4479 4487 4464
4 4448 4479 4464 4406
4 4479 4464 4406 4485
4 4479 4464 4485 4513
4 4464 4485 4513 4507
4 4464 4406 4485 4428
4 4479 4464 4513 4487
4 4464 4513 4487 4447
4 4464 4513 4447 4507
4 5996 5972 5983 5966
4 6012 6027 6022 6099
4 5928 5925 5846 5924
4 5995 6010 6035 6001
4 6044 6018 5989 6027
4 6044 6018 6027 6099
4 5572 5568 5532 5580
4 4616 4683 4705 4698
4 4683 4705 4698 4768
4 3391 3423 3454 3416
4 2047 2018 2065 2107
4 5241 5322 5336 5275
4 5619 5662 5579 5591
4 4930 4895 5006 4945
4 2894 2909 2883 2961
4 6019 6048 6025 6068
4 6006 6007 5992 5949
4 4879 4826 4936 4904
4 5171 5191 5161 5091
4 5161 5171 5091 5116
4 5921 5965 5954 5952
4 3887 3914 3983 3954
4 3887 3914 3954 3880
4 4985 5008 5057 5113
4 4363 4299 4331 4328
4 5619 5650 5654 5550
4 5949 5947 5978 5992
4 2756 2696 2729 2711
4 3329 3359 3391 3340
4 2278 2314 2251 2270
4 5996 5988 5967 5989
4 5967 5996 5989 5966
4 5726 5708 5764 5689
4 5658 5673 5725 5776
4 6074 6011 6053 6013
4 3730 3690 3761 3741
4 3690 3761 3741 3754
4 3761 3730 3741 3812
4 3741 3761 3812 3800
4 3359 3423 3391 3416
4 4343 4325 4363 4409
4 5414 5427 5510 5392
4 5414 5427 5392 5328
4 5318 5320 5398 5316
4 5196 5204 5243 5155
4 4721 4781 4756 4761
4 5941 5976 5962 5959
4 5941 5976 5959 5990
4 2711 2743 2715 2776
4 5971 5960 5954 5994
4 2029 2018 2047 2073
4 4996 4945 4898 5005
4 4235 4249 4299 4252
4 5580 5594 5596 5483
4 5913 5843 5840 5920
4 4336 4409 4407 4416
4 1708 1709 1762 1726
4 1708 1709 1726 1678
4 5283 5275 5328 5234
4 4447 4468 4428 4507
4 4428 4447 4507 4464
4 4428 4447 4464 4406
4 5970 5984 5959 5961
4 5970 5984 5961 5968
4 5961 5970 5968 5923
4 5970 5984 5968 5989
4 5984 5961 5968 5991
4 5984 5961 5991 5962
4 5968 5961 5923 5973
4 5968 5961 5973 5991
4 5961 5973 5991 5962
4 5984 5959 5961 5962
4 5961 5923 5973 5962
4 5961 5923 5962 5959
4 5961 5923 5959 5930
4 5961 5923 5930 5970
4 5959 5961 5930 5970
4 5973 5968 5991 5989
4 5169 5079 5196 5150
4 5196 5169 5150 5174
4 5169 5150 5174 5079
4 1661 1678 1709 1708
4 2429 2479 2469 2436
4 4567 4497 4529 4532
4 3756 3762 3683 3741
4 5161 5134 5116 5037
4 4671 4616 4705 4668
4 4705 4671 4668 4721
4 4692 4645 4634 4630
4 4634 4692 4630 4698
4 4692 4645 4630 4649
4 4630 4692 4649 4698
4 5741 5846 5788 5708
4 5788 5741 5708 5678
4 5491 5543 5619 5534
4 5766 5709 5647 5715
4 4768 4747 4761 4705
4 3231 3258 3194 3223
4 4733 4750 4780 4810
4 6148 6074 6143 6078
4 5373 5473 5434 5400
4 6021 6019 6014 6061
4 6021 6019 6061 6013
4 6019 6014 6061 6068
4 2914 2904 2842 2871
4 2914 2904 2871 2929
4 4462 4416 4497 4468
4 4497 4462 4468 4507
4 4179 4173 4180 4110
4 5718 5658 5647 5790
4 5346 5275 5279 5336
4 3693 3683 3745 3682
4 5843 5845 5840 5920
4 5046 4996 5037 5116
4 5720 5785 5828 5755
4 6126 6124 6058 6117
4 5972 5938 5981 5939
4 5275 5283 5186 5234
4 5079 5066 5012 5011
4 3231 3297 3258 3272
4 5951 5892 5942 5924
4 5892 5942 5924 5918
4 5886 5885 5925 5846
4 5469 5398 5462 5513
4 5462 5469 5513 5483
4 5462 5469 5483 5388
4 5469 5483 5388 5385
4 3629 3654 3600 3609
4 4209 4235 4224 4164
4 5434 5477 5382 5491
4 4895 4891 4855 4945
4 5843 5883 5845 5920
4 4963 4936 4940 4904
4 5462 5445 5398 5366
4 2703 2677 2673 2733
4 5708 5787 5764 5846
4 6058 6015 6010 6066
4 6058 6015 6066 6069
4 6010 6058 6066 6020
4 4643 4596 4698 4616
4 4643 4596 4616 4615
4 4643 4596 4615 4558
4 6014 6016 6068 6019
4 6014 6016 6019 5976
4 5991 6003 5973 5989
4 2461 2469 2436 2412
4 2469 2436 2412 2429
4 2107 2075 2125 2108
4 5106 5145 5131 5196
4 5145 5131 5196 5079
4 5131 5196 5079 5150
4 5131 5196 5150 5243
4 5079 5131 5150 5111
4 5131 5150 5111 5106
4 5111 5131 5106 5079
4 5963 5954 5987 6000
4 5543 5491 5477 5534
4 5010 4940 5040 5004
4 6016 6025 6068 6019
4 5414 5344 5336 5322
4 5755 5828 5852 5789
4 5755 5828 5789 5785
4 5852 5755 5789 5817
4 5755 5789 5817 5701
4 5755 5789 5701 5678
4 5755 5789 5678 5785
4 5963 5987 5962 5953
4 5963 5987 5953 6000
4 6032 6011 5980 6002
4 4692 4705 4747 4698
4 4747 4692 4698 4649
4 5020 5079 5037 5116
4 5020 5079 5116 5104
4 3048 3046 3112 3096
4 3048 3046 3096 3030
4 3048 3046 3030 2969
4 3046 3112 3096 3075
4 3046 3096 3030 3062
4 3030 3046 3062 3025
4 3046 3096 3062 3075
4 3062 3030 3025 3065
4 3062 3030 3065 3096
4 3062 3046 3075 3025
4 3075 3062 3025 3065
4 3075 3062 3065 3096
4 5065 5144 5103 5040
4 5786 5777 5724 5817
4 5777 5724 5817 5706
4 5786 5777 5817 5882
4 5715 5766 5790 5647
4 5037 5017 4963 5065
4 5169 5226 5116 5104
4 5334 5373 5382 5316
4 6006 6028 6022 5996
4 5550 5560 5473 5491
4 5560 5473 5491 5534
4 5473 5491 5534 5477
4 5550 5560 5491 5619
4 5473 5550 5491 5436
4 5491 5473 5436 5400
4 5491 5473 5400 5434
4 5491 5473 5434 5477
4 2018 1964 1966 2019
4 3115 3094 3075 3104
4 5962 5976 5945 5993
4 6013 5984 5988 5989
4 4855 4844 4898 4818
4 1709 1763 1762 1726
4 5532 5452 5493 5515
4 4810 4835 4780 4733
4 5373 5423 5473 5400
4 6044 6013 5989 6011
4 6044 6013 6011 6074
4 6013 5989 6011 5991
4 4462 4507 4428 4468
4 2077 2108 2075 2107
4 4410 4396 4408 4326
4 5974 5981 5955 6004
4 3366 3387 3416 3340
4 5534 5473 5578 5560
4 5578 5534 5560 5665
4 4611 4560 4632 4617
4 5037 5065 5115 5145
4 1879 1827 1859 1861
4 1859 1879 1861 1911
4 1827 1859 1861 1812
4 6010 5985 5957 5995
4 6010 5985 5995 6004
4 5106 5069 5111 5079
4 4487 4410 4457 4408
4 5318 5398 5339 5343
4 5318 5398 5343 5316
4 5434 5373 5400 5382
4 5400 5434 5382 5491
4 5423 5473 5400 5436
4 5423 5473 5436 5550
4 6044 6060 6143 6074
4 5954 5960 6003 6011
4 5491 5445 5477 5382
4 5946 5983 5966 6006
4 2125 2108 2133 2107
4 2133 2125 2107 2171
4 3487 3454 3524 3467
4 5328 5275 5322 5234
4 5543 5579 5591 5619
4 5543 5579 5619 5534
4 4844 4879 4898 4888
4 4898 4844 4888 4810
4 4898 4844 4810 4818
4 4844 4810 4818 4764
4 4844 4810 4764 4761
4 4810 4818 4764 4747
4 4764 4810 4747 4761
4 4747 4764 4761 4723
4 4818 4764 4747 4735
4 4764 4747 4735 4723
4 4818 4764 4735 4723
4 4818 4844 4764 4855
4 4764 4844 4761 4723
4 4844 4764 4855 4723
4 4747 4692 4649 4735
4 4747 4692 4735 4723
4 4692 4649 4735 4723
4 3115 3142 3104 3075
4 3524 3560 3587 3552
4 2412 2469 2429 2465
4 3272 3223 3224 3258
4 5998 5990 5976 5956
4 5976 5998 5956 5993
4 4835 4810 4844 4826
4 4810 4844 4826 4768
4 4810 4844 4768 4761
4 4844 4826 4768 4761
4 4826 4810 4768 4835
4 4810 4768 4835 4733
4 4826 4768 4761 4753
4 5174 5248 5294 5236
4 3560 3624 3587 3600
4 3624 3690 3652 3682
4 4457 4447 4487 4513
4 5116 5020 5104 5005
4 5116 5020 5005 4996
4 5020 5005 4996 4898
4 5104 5116 5005 5046
4 4963 5004 4904 4940
4 3524 3553 3487 3552
4 5017 4963 5065 5004
4 3552 3553 3600 3587
4 4761 4768 4705 4753
4 4528 4566 4487 4513
4 4487 4528 4513 4479
4 5398 5438 5388 5339
4 3224 3194 3258 3223
4 4888 4911 4879 4944
4 4562 4554 4634 4596
4 4634 4562 4596 4645
4 4634 4562 4645 4566
4 4562 4645 4566 4568
4 4566 4562 4568 4489
4 6019 6061 6013 6073
4 4671 4705 4753 4721
4 4252 4294 4331 4328
4 2813 2841 2871 2816
4 3519 3497 3467 3552
4 4645 4634 4630 4596
4 4634 4630 4596 4698
4 5878 5930 5886 5897
4 6070 6025 6066 6048
4 6070 6025 6048 6068
4 6066 6070 6048 6121
4 6070 6048 6121 6068
4 5964 5924 5889 5925
4 5924 5889 5925 5846
4 4683 4615 4643 4616
4 5452 5392 5414 5510
4 4569 4567 4596 4532
4 5234 5241 5275 5322
4 3154 3115 3065 3096
4 3115 3065 3096 3075
4 4170 4180 4164 4235
4 4164 4170 4235 4241
4 4164 4170 4241 4251
4 5959 5941 5923 5962
4 6058 6066 6020 6048
4 6058 6066 6048 6121
4 6020 6058 6048 6103
4 6048 6020 6103 6073
4 6103 6048 6073 6019
4 6103 6048 6019 6061
4 6048 6019 6061 6068
4 6019 6103 6061 6073
4 3587 3619 3553 3600
4 4179 4235 4164 4180
4 5150 5131 5243 5155
4 5150 5131 5155 5106
4 5131 5155 5106 5196
4 5131 5155 5196 5243
4 4328 4406 4363 4325
4 1930 1879 1911 1912
4 4781 4820 4850 4756
4 4963 4944 4911 5007
4 4343 4326 4396 4331
4 2224 2223 2288 2270
4 5438 5371 5452 5339
4 5438 5371 5339 5398
4 3584 3596 3567 3597
4 3567 3584 3597 3545
4 5987 6009 6014 5962
4 5987 6009 5962 5993
4 5987 6009 5993 6000
4 4895 4944 4945 4898
4 5344 5275 5336 5322
4 5521 5627 5596 5591
4 3329 3357 3294 3340
4 4326 4343 4249 4299
4 4326 4343 4299 4331
4 4879 4944 4898 4888
4 5239 5171 5226 5205
4 5976 5956 5945 5993
4 3170 3177 3134 3112
4 3177 3134 3112 3142
4 5398 5436 5491 5513
4 5436 5491 5513 5550
4 5491 5513 5550 5619
4 4928 4985 4977 4960
4 2756 2729 2772 2776
4 5968 5984 5991 5989
4 4355 4336 4407 4416
4 3324 3340 3272 3294
4 5665 5689 5578 5534
4 2969 2984 3046 3030
4 2969 2984 3030 2994
4 2984 3046 3030 3025
4 3454 3418 3391 3416
4 4892 4966 4985 4960
4 4624 4615 4683 4616
4 6002 5980 5954 6011
4 5339 5279 5318 5343
4 1912 1911 1861 1879
4 5949 5966 5992 6006
4 5966 5992 6006 5996
4 6010 5999 6001 5957
4 4817 4826 4904 4853
4 4174 4118 4129 4215
4 3423 3493 3454 3467
4 5658 5550 5598 5654
4 6048 6020 6010 6066
4 5654 5650 5762 5658
4 5150 5174 5248 5196
4 5658 5718 5776 5790
4 3690 3660 3652 3741
4 3587 3624 3652 3600
4 2197 2223 2166 2171
4 2197 2223 2171 2251
4 5521 5513 5596 5483
4 3454 3493 3524 3467
4 1827 1777 1811 1812
4 1811 1827 1812 1859
4 6099 6080 6022 6012
4 5065 5103 5106 5017
4 3652 3619 3587 3600
4 5941 5959 5950 5990
4 5438 5469 5388 5385
4 2729 2715 2772 2776
4 3258 3297 3329 3272
4 5974 5985 6004 5995
4 4853 4850 4826 4936
4 5462 5396 5388 5483
4 6021 6053 6011 6013
4 3391 3357 3329 3340
4 4844 4828 4761 4723
4 2461 2420 2393 2436
4 4468 4532 4497 4569
4 5895 5924 5928 5846
4 6066 6069 6117 6058
4 6117 6066 6058 6121
4 4275 4267 4287 4209
4 5924 5960 5889 5920
4 5398 5343 5371 5339
4 5663 5654 5746 5658
4 4753 4781 4721 4761
4 6015 6010 6066 6004
4 5886 5938 5930 5970
4 3487 3418 3454 3467
4 5663 5647 5658 5746
4 5881 5853 5762 5824
4 3224 3258 3294 3272
4 5789 5878 5886 5852
4 5982 6002 6008 6032
4 5248 5318 5343 5316
4 4705 4683 4753 4768
4 5788 5708 5654 5678
4 4331 4294 4374 4328
4 4826 4817 4781 4853
4 5923 5930 5970 5933
4 5930 5970 5933 5886
4 5923 5930 5933 5886
4 4554 4569 4596 4532
4 3493 3560 3524 3552
4 5385 5339 5388 5438
4 5785 5720 5678 5755
4 2412 2411 2350 2393
4 2412 2411 2393 2461
4 3267 3231 3194 3170
4 5969 5957 5995 6010
4 5965 5954 5952 6000
4 3587 3553 3524 3552
4 5725 5762 5650 5658
4 5445 5368 5398 5366
4 5011 5017 5079 5111
4 3693 3745 3754 3682
4 6019 5991 6014 5976
4 4756 4723 4761 4828
4 5988 6027 6013 5989
4 3741 3761 3800 3816
4 5976 5962 5959 5984
4 4855 4895 4945 4898
4 4945 4855 4898 4914
4 5941 5950 5956 5990
4 5762 5776 5746 5658
4 5746 5701 5789 5678
4 4892 4823 4835 4801
4 4489 4457 4487 4562
4 3357 3387 3340 3416
4 2411 2412 2465 2461
4 3600 3597 3609 3545
4 3416 3418 3467 3454
4 4447 4428 4363 4406
4 3391 3418 3357 3416
4 6131 6061 6068 6048
4 2412 2393 2436 2461
4 5205 5226 5104 5171
4 4891 4930 4994 4945
4 4966 4888 4898 4944
4 5885 5886 5785 5846
4 3065 2994 3030 3025
4 2461 2469 2412 2465
4 2145 2206 2171 2166
4 5654 5678 5746 5788
4 6121 6117 6126 6058
4 4567 4616 4596 4615
4 4596 4567 4615 4558
4 4468 4497 4507 4569
4 5579 5619 5534 5665
4 4705 4761 4753 4721
4 5991 5984 5962 5976
4 5962 5991 5976 6014
4 5976 5962 6014 5993
4 6074 6030 6143 6078
4 5789 5840 5889 5886
4 5840 5889 5886 5923
4 5878 5930 5897 5882
4 2776 2841 2813 2816
4 5987 6003 6000 5954
4 5091 5046 5037 5116
4 3487 3519 3467 3552
4 5920 5973 5968 5923
4 6073 6013 6074 6053
4 4753 4826 4781 4761
4 3134 3170 3112 3096
4 3112 3134 3096 3075
4 3340 3272 3294 3329
4 5525 5550 5473 5423
4 3762 3754 3683 3741
4 6001 5999 5990 5975
4 5990 6001 5975 5950
4 5975 5990 5950 5959
4 5950 5975 5959 5957
4 5975 5959 5957 5999
4 6001 5975 5950 5969
4 5975 5950 5969 5957
4 5969 5975 5957 6001
4 5975 5959 5999 5990
4 6001 5999 5975 5957
4 5957 5969 6001 6010
4 2772 2813 2816 2776
4 3600 3552 3587 3560
4 3294 3258 3329 3272
4 5065 5017 5004 5103
4 5004 5065 5103 5040
4 4129 4180 4174 4215
4 5619 5665 5560 5534
4 4249 4235 4180 4252
4 2220 2206 2251 2171
4 4170 4174 4251 4164
4 4241 4270 4164 4251
4 4241 4270 4251 4328
4 5138 5046 5116 5104
4 5787 5708 5788 5846
4 2961 2994 3025 2984
4 4249 4326 4299 4252
4 6058 6020 6073 6103
4 5987 5962 5953 5993
4 6131 6121 6048 6068
4 6003 5954 6011 6002
4 5046 4996 5116 5005
4 3134 3112 3142 3075
4 2166 2133 2171 2145
4 5550 5658 5650 5654
4 4224 4270 4164 4235
4 4554 4569 4532 4468
4 3682 3653 3652 3600
4 5945 5962 5993 5953
4 3194 3134 3096 3170
4 5647 5658 5746 5790
4 5995 5969 6010 6001
4 2929 2994 2961 2984
4 5226 5116 5104 5171
4 5960 5920 5968 5889
4 6061 6013 6073 6053
4 2776 2788 2715 2772
4 3272 3223 3258 3231
4 6004 6015 6069 6066
4 2816 2756 2772 2776
4 4464 4485 4507 4428
4 3467 3416 3454 3423
4 5994 6011 5960 5954
4 5788 5746 5789 5678
4 5491 5560 5534 5619
4 4835 4888 4879 4844
4 4898 4945 4914 5005
4 5965 6002 5954 6000
4 4963 5010 5004 4940
4 5495 5510 5427 5392
4 3524 3487 3467 3552
4 5983 5966 6006 5996
4 5762 5746 5654 5658
4 2894 2929 2961 2883
4 2894 2929 2883 2871
4 2883 2894 2871 2837
4 2871 2883 2837 2816
4 3754 3745 3683 3682
4 5999 5959 5976 5990
4 3683 3682 3652 3741
4 5161 5091 5037 5116
4 3683 3754 3682 3741
4 5689 5665 5579 5534
4 3741 3761 3816 3754
4 5171 5138 5104 5205
4 4428 4409 4363 4325
4 4363 4428 4325 4406
4 5840 5889 5923 5920
4 2984 3030 2994 3025
4 2729 2711 2776 2756
4 5886 5788 5789 5785
4 3652 3690 3741 3682
4 2871 2841 2914 2883
4 3391 3357 3340 3416
4 5987 5953 6000 5993
4 2929 2883 2871 2914
4 2929 2961 2883 2914
4 3194 3177 3223 3142
4 4299 4331 4328 4252
4 4299 4331 4252 4326
4 2816 2883 2841 2871
4 4826 4853 4936 4904
4 5788 5789 5785 5678
4 4764 4818 4855 4723
4 3340 3272 3329 3297
4 6003 6000 5954 6002
4 2969 2984 2994 2929
4 3493 3524 3467 3552
4 5968 5920 5923 5889
4 3624 3652 3600 3682
4 3340 3391 3416 3359
4 2984 2914 2961 2929
4 3754 3682 3741 3690

CELL_TYPES 22633
10
10
10
10
10
10
10
10
10
10
10
10
10
10
10
10
10
10
10
10
10
10
10
10
10
10
10
10
10
10
10
10
10
10
10
10
10
10
10
10
10
10
10
10
10
10
10
10
10
10
10
10
10
10
10
10
10
10
10
10
10
10
10
10
10
10
10
10
10
10
10
10
10
10
10
10
10
10
10
10
10
10
10
10
10
10
10
10
10
10
10
10
10
10
10
10
10
10
10
10
10
10
10
10
10
10
10
10
10
10
10
10
10
10
10
10
10
10
10
10
10
10
10
10
10
10
10
10
10
10
10
10
10
10
10
10
10
10
10
10
10
10
10
10
10
10
10
10
10
10
10
10
10
10
10
10
10
10
10
10
10
10
10
10
10
10
10
10
10
10
10
10
10
10
10
10
10
10
10
10
10
10
10
10
10
10
10
10
10
10
10
10
10
10
10
10
10
10
10
10
10
10
10
10
10
10
10
10
10
10
10
10
10
10
10
10
10
10
10
10
10
10
10
10
10
10
10
10
10
10
10
10
10
10
10
10
10
10
10
10
10
10
10
10
10
10
10
10
10
10
10
10
10
10
10
10
10
10
10
10
10
10
10
10
10
10
10
10
10
10
10
10
10
10
10
10
10
10
10
10
10
10
10
10
10
10
10
10
10
10
10
10
10
10
10
10
10
10
10
10
10
10
10
10
10
10
10
10
10
10
10
10
10
10
10
10
10
10
10
10
10
10
10
10
10
10
10
10
10
10
10
10
10
10
10
10
10
10
10
10
10
10
10
10
10
10
10
10
10
10
10
10
10
10
10
10
10
10
10
10
10
10
10
10
10
10
10
10
10
10
10
10
10
10
10
10
10
10
10
10
10
10
10
10
10
10
10
10
10
10
10
10
10
10
10
10
10
10
10
10
10
10
10
10
10
10
10
10
10
10
10
10
10
10
10
10
10
10
10
10
10
10
10
10
10
10
10
10
10
10
10
10
10
10
10
10
10
10
10
10
10
10
10
10
10
10
10
10
10
10
10
10
10
10
10
10
10
10
10
10
10
10
10
10
10
10
10
10
10
10
10
10
10
10
10
10
10
10
10
10
10
10
10
10
10
10
10
10
10
10
10
10
10
10
10
10
10
10
10
10
10
10
10
10
10
10
10
10
10
10
10
10
10
10
10
10
10
10
10
10
10
10
10
10
10
10
10
10
10
10
10
10
10
10
10
10
10
10
10
10
10
10
10
10
10
10
10
10
10
10
10
10
10
10
10
10
10
10
10
10
10
10
10
10
10
10
10
10
10
10
10
10
10
10
10
10
10
10
10
10
10
10
10
10
10
10
10
10
10
10
10
10
10
10
10
10
10
10
10
10
10
10
10
10
10
10
10
10
10
10
10
10
10
10
10
10
10
10
10
10
10
10
10
10
10
10
10
10
10
10
10
10
10
10
10
10
10
10
10
10
10
10
10
10
10
10
10
10
10
10
10
10
10
10
10
10
10
10
10
10
10
10
10
10
10
10
10
10
10
10
10
10
10
10
10
10
10
10
10
10
10
10
10
10
10
10
10
10
10
10
10
10
10
10
10
10
10
10
10
10
10
10
10
10
10
10
10
10
10
10
10
10
10
10
10
10
10
10
10
10
10
10
10
10
10
10
10
10
10
10
10
10
10
10
10
10
10
10
10
10
10
10
10
10
10
10
10
10
10
10
10
10
10
10
10
10
10
10
10
10
10
10
10
10
10
10
10
10
10
10
10
10
10
10
10
10
10
10
10
10
10
10
10
10
10
10
10
10
10
10
10
10
10
10
10
10
10
10
10
10
10
10
10
10
10
10
10
10
10
10
10
10
10
10
10
10
10
10
10
10
10
10
10
10
10
10
10
10
10
10
10
10
10
10
10
10
10
10
10
10
10
10
10
10
10
10
10
10
10
10
10
10
10
10
10
10
10
10
10
10
10
10
10
10
10
10
10
10
10
10
10
10
10
10
10
10
10
10
10
10
10
10
10
10
10
10
10
10
10
10
10
10
10
10
10
10
10
10
10
10
10
10
10
10
10
10
10
10
10
10
10
10
10
10
10
10
10
10
10
10
10
10
10
10
10
10
10
10
10
10
10
10
10
10
10
10
10
10
10
10
10
10
10
10
10
10
10
10
10
10
10
10
10
10
10
10
10
10
10
10
10
10
10
10
10
10
10
10
10
10
10
10
10
10
10
10
10
10
10
10
10
10
10
10
10
10
10
10
10
10
10
10
10
10
10
10
10
10
10
10
10
10
10
10
10
10
10
10
10
10
10
10
10
10
10
10
10
10
10
10
10
10
10
10
10
10
10
10
10
10
10
10
10
10
10
10
10
10
10
10
10
10
10
10
10
10
10
10
10
10
10
10
10
10
10
10
10
10
10
10
10
10
10
10
10
10
10
10
10
10
10
10
10
10
10
10
10
10
10
10
10
10
10
10
10
10
10
10
10
10
10
10
10
10
10
10
10
10
10
10
10
10
10
10
10
10
10
10
10
10
10
10
10
10
10
10
10
10
10
10
10
10
10
10
10
10
10
10
10
10
10
10
10
10
10
10
10
10
10
10
10
10
10
10
10
10
10
10
10
10
10
10
10
10
10
10
10
10
10
10
10
10
10
10
10
10
10
10
10
10
10
10
10
10
10
10
10
10
10
10
10
10
10
10
10
10
10
10
10
10
10
10
10
10
10
10
10
10
10
10
10
10
10
10
10
10
10
10
10
10
10
10
10
10
10
10
10
10
10
10
10
10
10
10
10
10
10
10
10
10
10
10
10
10
10
10
10
10
10
10
10
10
10
10
10
10
10
10
10
10
10
10
10
10
10
10
10
10
10
10
10
10
10
10
10
10
10
10
10
10
10
10
10
10
10
10
10
10
10
10
10
10
10
10
10
10
10
10
10
10
10
10
10
10
10
10
10
10
10
10
10
10
10
10
10
10
10
10
10
10
10
10
10
10
10
10
10
10
10
10
10
10
10
10
10
10
10
10
10
10
10
10
10
10
10
10
10
10
10
10
10
10
10
10
10
10
10
10
10
10
10
10
10
10
10
10
10
10
10
10
10
10
10
10
10
10
10
10
10
10
10
10
10
10
10
10
10
10
10
10
10
10
10
10
10
10
10
10
10
10
10
10
10
10
10
10
10
10
10
10
10
10
10
10
10
10
10
10
10
10
10
10
10
10
10
10
10
10
10
10
10
10
10
10
10
10
10
10
10
10
10
10
10
10
10
10
10
10
10
10
10
10
10
10
10
10
10
10
10
10
10
10
10
10
10
10
10
10
10
10
10
10
10
10
10
10
10
10
10
10
10
10
10
10
10
10
10
10
10
10
10
10
10
10
10
10
10
10
10
10
10
10
10
10
10
10
10
10
10
10
10
10
10
10
10
10
10
10
10
10
10
10
10
10
10
10
10
10
10
10
10
10
10
10
10
10
10
10
10
10
10
10
10
10
10
10
10
10
10
10
10
10
10
10
10
10
10
10
10
10
10
10
10
10
10
10
10
10
10
10
10
10
10
10
10
10
10
10
10
10
10
10
10
10
10
10
10
10
10
10
10
10
10
10
10
10
10
10
10
10
10
10
10
10
10
10
10
10
10
10
10
10
10
10
10
10
10
10
10
10
10
10
10
10
10
10
10
10
10
10
10
10
10
10
10
10
10
10
10
10
10
10
10
10
10
10
10
10
10
10
10
10
10
10
10
10
10
10
10
10
10
10
10
10
10
10
10
10
10
10
10
10
10
10
10
10
10
10
10
10
10
10
10
10
10
10
10
10
10
10
10
10
10
10
10
10
10
10
10
10
10
10
10
10
10
10
10
10
10
10
10
10
10
10
10
10
10
10
10
10
10
10
10
10
10
10
10
10
10
10
10
10
10
10
10
10
10
10
10
10
10
10
10
10
10
10
10
10
10
10
10
10
10
10
10
10
10
10
10
10
10
10
10
10
10
10
10
10
10
10
10
10
10
10
10
10
10
10
10
10
10
10
10
10
10
10
10
10
10
10
10
10
10
10
10
10
10
10
10
10
10
10
10
10
10
10
10
10
10
10
10
10
10
10
10
10
10
10
10
10
10
10
10
10
10
10
10
10
10
10
10
10
10
10
10
10
10
10
10
10
10
10
10
10
10
10
10
10
10
10
10
10
10
10
10
10
10
10
10
10
10
10
10
10
10
10
10
10
10
10
10
10
10
10
10
10
10
10
10
10
10
10
10
10
10
10
10
10
10
10
10
10
10
10
10
10
10
10
10
10
10
10
10
10
10
10
10
10
10
10
10
10
10
10
10
10
10
10
10
10
10
10
10
10
10
10
10
10
10
10
10
10
10
10
10
10
10
10
10
10
10
10
10
10
10
10
10
10
10
10
10
10
10
10
10
10
10
10
10
10
10
10
10
10
10
10
10
10
10
10
10
10
10
10
10
10
10
10
10
10
10
10
10
10
10
10
10
10
10
10
10
10
10
10
10
10
10
10
10
10
10
10
10
10
10
10
10
10
10
10
10
10
10
10
10
10
10
10
10
10
10
10
10
10
10
10
10
10
10
10
10
10
10
10
10
10
10
10
10
10
10
10
10
10
10
10
10
10
10
10
10
10
10
10
10
10
10
10
10
10
10
10
10
10
10
10
10
10
10
10
10
10
10
10
10
10
10
10
10
10
10
10
10
10
10
10
10
10
10
10
10
10
10
10
10
10
10
10
10
10
10
10
10
10
10
10
10
10
10
10
10
10
10
10
10
10
10
10
10
10
10
10
10
10
10
10
10
10
10
10
10
10
10
10
10
10
10
10
10
10
10
10
10
10
10
10
10
10
10
10
10
10
10
10
10
10
10
10
10
10
10
10
10
10
10
10
10
10
10
10
10
10
10
10
10
10
10
10
10
10
10
10
10
10
10
10
10
10
10
10
10
10
10
10
10
10
10
10
10
10
10
10
10
10
10
10
10
10
10
10
10
10
10
10
10
10
10
10
10
10
10
10
10
10
10
10
10
10
10
10
10
10
10
10
10
10
10
10
10
10
10
10
10
10
10
10
10
10
10
10
10
10
10
10
10
10
10
10
10
10
10
10
10
10
10
10
10
10
10
10
10
10
10
10
10
10
10
10
10
10
10
10
10
10
10
10
10
10
10
10
10
10
10
10
10
10
10
10
10
10
10
10
10
10
10
10
10
10
10
10
10
10
10
10
10
10
10
10
10
10
10
10
10
10
10
10
10
10
10
10
10
10
10
10
10
10
10
10
10
10
10
10
10
10
10
10
10
10
10
10
10
10
10
10
10
10
10
10
10
10
10
10
10
10
10
10
10
10
10
10
10
10
10
10
10
10
10
10
10
10
10
10
10
10
10
10
10
10
10
10
10
10
10
10
10
10
10
10
10
10
10
10
10
10
10
10
10
10
10
10
10
10
10
10
10
10
10
10
10
10
10
10
10
10
10
10
10
10
10
10
10
10
10
10
10
10
10
10
10
10
10
10
10
10
10
10
10
10
10
10
10
10
10
10
10
10
10
10
10
10
10
10
10
10
10
10
10
10
10
10
10
10
10
10
10
10
10
10
10
10
10
10
10
10
10
10
10
10
10
10
10
10
10
10
10
10
10
10
10
10
10
10
10
10
10
10
10
10
10
10
10
10
10
10
10
10
10
10
10
10
10
10
10
10
10
10
10
10
10
10
10
10
10
10
10
10
10
10
10
10
10
10
10
10
10
10
10
10
10
10
10
10
10
10
10
10
10
10
10
10
10
10
10
10
10
10
10
10
10
10
10
10
10
10
10
10
10
10
10
10
10
10
10
10
10
10
10
10
10
10
10
10
10
10
10
10
10
10
10
10
10
10
10
10
10
10
10
10
10
10
10
10
10
10
10
10
10
10
10
10
10
10
10
10
10
10
10
10
10
10
10
10
10
10
10
10
10
10
10
10
10
10
10
10
10
10
10
10
10
10
10
10
10
10
10
10
10
10
10
10
10
10
10
10
10
10
10
10
10
10
10
10
10
10
10
10
10
10
10
10
10
10
10
10
10
10
10
10
10
10
10
10
10
10
10
10
10
10
10
10
10
10
10
10
10
10
10
10
10
10
10
10
10
10
10
10
10
10
10
10
10
10
10
10
10
10
10
10
10
10
10
10
10
10
10
10
10
10
10
10
10
10
10
10
10
10
10
10
10
10
10
10
10
10
10
10
10
10
10
10
10
10
10
10
10
10
10
10
10
10
10
10
10
10
10
10
10
10
10
10
10
10
10
10
10
10
10
10
10
10
10
10
10
10
10
10
10
10
10
10
10
10
10
10
10
10
10
10
10
10
10
10
10
10
10
10
10
10
10
10
10
10
10
10
10
10
10
10
10
10
10
10
10
10
10
10
10
10
10
10
10
10
10
10
10
10
10
10
10
10
10
10
10
10
10
10
10
10
10
10
10
10
10
10
10
10
10
10
10
10
10
10
10
10
10
10
10
10
10
10
10
10
10
10
10
10
10
10
10
10
10
10
10
10
10
10
10
10
10
10
10
10
10
10
10
10
10
10
10
10
10
10
10
10
10
10
10
10
10
10
10
10
10
10
10
10
10
10
10
10
10
10
10
10
10
10
10
10
10
10
10
10
10
10
10
10
10
10
10
10
10
10
10
10
10
10
10
10
10
10
10
10
10
10
10
10
10
10
10
10
10
10
10
10
10
10
10
10
10
10
10
10
10
10
10
10
10
10
10
10
10
10
10
10
10
10
10
10
10
10
10
10
10
10
10
10
10
10
10
10
10
10
10
10
10
10
10
10
10
10
10
10
10
10
10
10
10
10
10
10
10
10
10
10
10
10
10
10
10
10
10
10
10
10
10
10
10
10
10
10
10
10
10
10
10
10
10
10
10
10
10
10
10
10
10
10
10
10
10
10
10
10
10
10
10
10
10
10
10
10
10
10
10
10
10
10
10
10
10
10
10
10
10
10
10
10
10
10
10
10
10
10
10
10
10
10
10
10
10
10
10
10
10
10
10
10
10
10
10
10
10
10
10
10
10
10
10
10
10
10
10
10
10
10
10
10
10
10
10
10
10
10
10
10
10
10
10
10
10
10
10
10
10
10
10
10
10
10
10
10
10
10
10
10
10
10
10
10
10
10
10
10
10
10
10
10
10
10
10
10
10
10
10
10
10
10
10
10
10
10
10
10
10
10
10
10
10
10
10
10
10
10
10
10
10
10
10
10
10
10
10
10
10
10
10
10
10
10
10
10
10
10
10
10
10
10
10
10
10
10
10
10
10
10
10
10
10
10
10
10
10
10
10
10
10
10
10
10
10
10
10
10
10
10
10
10
10
10
10
10
10
10
10
10
10
10
10
10
10
10
10
10
10
10
10
10
10
10
10
10
10
10
10
10
10
10
10
10
10
10
10
10
10
10
10
10
10
10
10
10
10
10
10
10
10
10
10
10
10
10
10
10
10
10
10
10
10
10
10
10
10
10
10
10
10
10
10
10
10
10
10
10
10
10
10
10
10
10
10
10
10
10
10
10
10
10
10
10
10
10
10
10
10
10
10
10
10
10
10
10
10
10
10
10
10
10
10
10
10
10
10
10
10
10
10
10
10
10
10
10
10
10
10
10
10
10
10
10
10
10
10
10
10
10
10
10
10
10
10
10
10
10
10
10
10
10
10
10
10
10
10
10
10
10
10
10
10
10
10
10
10
10
10
10
10
10
10
10
10
10
10
10
10
10
10
10
10
10
10
10
10
10
10
10
10
10
10
10
10
10
10
10
10
10
10
10
10
10
10
10
10
10
10
10
10
10
10
10
10
10
10
10
10
10
10
10
10
10
10
10
10
10
10
10
10
10
10
10
10
10
10
10
10
10
10
10
10
10
10
10
10
10
10
10
10
10
10
10
10
10
10
10
10
10
10
10
10
10
10
10
10
10
10
10
10
10
10
10
10
10
10
10
10
10
10
10
10
10
10
10
10
10
10
10
10
10
10
10
10
10
10
10
10
10
10
10
10
10
10
10
10
10
10
10
10
10
10
10
10
10
10
10
10
10
10
10
10
10
10
10
10
10
10
10
10
10
10
10
10
10
10
10
10
10
10
10
10
10
10
10
10
10
10
10
10
10
10
10
10
10
10
10
10
10
10
10
10
10
10
10
10
10
10
10
10
10
10
10
10
10
10
10
10
10
10
10
10
10
10
10
10
10
10
10
10
10
10
10
10
10
10
10
10
10
10
10
10
10
10
10
10
10
10
10
10
10
10
10
10
10
10
10
10
10
10
10
10
10
10
10
10
10
10
10
10
10
10
10
10
10
10
10
10
10
10
10
10
10
10
10
10
10
10
10
10
10
10
10
10
10
10
10
10
10
10
10
10
10
10
10
10
10
10
10
10
10
10
10
10
10
10
10
10
10
10
10
10
10
10
10
10
10
10
10
10
10
10
10
10
10
10
10
10
10
10
10
10
10
10
10
10
10
10
10
10
10
10
10
10
10
10
10
10
10
10
10
10
10
10
10
10
10
10
10
10
10
10
10
10
10
10
10
10
10
10
10
10
10
10
10
10
10
10
10
10
10
10
10
10
10
10
10
10
10
10
10
10
10
10
10
10
10
10
10
10
10
10
10
10
10
10
10
10
10
10
10
10
10
10
10
10
10
10
10
10
10
10
10
10
10
10
10
10
10
10
10
10
10
10
10
10
10
10
10
10
10
10
10
10
10
10
10
10
10
10
10
10
10
10
10
10
10
10
10
10
10
10
10
10
10
10
10
10
10
10
10
10
10
10
10
10
10
10
10
10
10
10
10
10
10
10
10
10
10
10
10
10
10
10
10
10
10
10
10
10
10
10
10
10
10
10
10
10
10
10
10
10
10
10
10
10
10
10
10
10
10
10
10
10
10
10
10
10
10
10
10
10
10
10
10
10
10
10
10
10
10
10
10
10
10
10
10
10
10
10
10
10
10
10
10
10
10
10
10
10
10
10
10
10
10
10
10
10
10
10
10
10
10
10
10
10
10
10
10
10
10
10
10
10
10
10
10
10
10
10
10
10
10
10
10
10
10
10
10
10
10
10
10
10
10
10
10
10
10
10
10
10
10
10
10
10
10
10
10
10
10
10
10
10
10
10
10
10
10
10
10
10
10
10
10
10
10
10
10
10
10
10
10
10
10
10
10
10
10
10
10
10
10
10
10
10
10
10
10
10
10
10
10
10
10
10
10
10
10
10
10
10
10
10
10
10
10
10
10
10
10
10
10
10
10
10
10
10
10
10
10
10
10
10
10
10
10
10
10
10
10
10
10
10
10
10
10
10
10
10
10
10
10
10
10
10
10
10
10
10
10
10
10
10
10
10
10
10
10
10
10
10
10
10
10
10
10
10
10
10
10
10
10
10
10
10
10
10
10
10
10
10
10
10
10
10
10
10
10
10
10
10
10
10
10
10
10
10
10
10
10
10
10
10
10
10
10
10
10
10
10
10
10
10
10
10
10
10
10
10
10
10
10
10
10
10
10
10
10
10
10
10
10
10
10
10
10
10
10
10
10
10
10
10
10
10
10
10
10
10
10
10
10
10
10
10
10
10
10
10
10
10
10
10
10
10
10
10
10
10
10
10
10
10
10
10
10
10
10
10
10
10
10
10
10
10
10
10
10
10
10
10
10
10
10
10
10
10
10
10
10
10
10
10
10
10
10
10
10
10
10
10
10
10
10
10
10
10
10
10
10
10
10
10
10
10
10
10
10
10
10
10
10
10
10
10
10
10
10
10
10
10
10
10
10
10
10
10
10
10
10
10
10
10
10
10
10
10
10
10
10
10
10
10
10
10
10
10
10
10
10
10
10
10
10
10
10
10
10
10
10
10
10
10
10
10
10
10
10
10
10
10
10
10
10
10
10
10
10
10
10
10
10
10
10
10
10
10
10
10
10
10
10
10
10
10
10
10
10
10
10
10
10
10
10
10
10
10
10
10
10
10
10
10
10
10
10
10
10
10
10
10
10
10
10
10
10
10
10
10
10
10
10
10
10
10
10
10
10
10
10
10
10
10
10
10
10
10
10
10
10
10
10
10
10
10
10
10
10
10
10
10
10
10
10
10
10
10
10
10
10
10
10
10
10
10
10
10
10
10
10
10
10
10
10
10
10
10
10
10
10
10
10
10
10
10
10
10
10
10
10
10
10
10
10
10
10
10
10
10
10
10
10
10
10
10
10
10
10
10
10
10
10
10
10
10
10
10
10
10
10
10
10
10
10
10
10
10
10
10
10
10
10
10
10
10
10
10
10
10
10
10
10
10
10
10
10
10
10
10
10
10
10
10
10
10
10
10
10
10
10
10
10
10
10
10
10
10
10
10
10
10
10
10
10
10
10
10
10
10
10
10
10
10
10
10
10
10
10
10
10
10
10
10
10
10
10
10
10
10
10
10
10
10
10
10
10
10
10
10
10
10
10
10
10
10
10
10
10
10
10
10
10
10
10
10
10
10
10
10
10
10
10
10
10
10
10
10
10
10
10
10
10
10
10
10
10
10
10
10
10
10
10
10
10
10
10
10
10
10
10
10
10
10
10
10
10
10
10
10
10
10
10
10
10
10
10
10
10
10
10
10
10
10
10
10
10
10
10
10
10
10
10
10
10
10
10
10
10
10
10
10
10
10
10
10
10
10
10
10
10
10
10
10
10
10
10
10
10
10
10
10
10
10
10
10
10
10
10
10
10
10
10
10
10
10
10
10
10
10
10
10
10
10
10
10
10
10
10
10
10
10
10
10
10
10
10
10
10
10
10
10
10
10
10
10
10
10
10
10
10
10
10
10
10
10
10
10
10
10
10
10
10
10
10
10
10
10
10
10
10
10
10
10
10
10
10
10
10
10
10
10
10
10
10
10
10
10
10
10
10
10
10
10
10
10
10
10
10
10
10
10
10
10
10
10
10
10
10
10
10
10
10
10
10
10
10
10
10
10
10
10
10
10
10
10
10
10
10
10
10
10
10
10
10
10
10
10
10
10
10
10
10
10
10
10
10
10
10
10
10
10
10
10
10
10
10
10
10
10
10
10
10
10
10
10
10
10
10
10
10
10
10
10
10
10
10
10
10
10
10
10
10
10
10
10
10
10
10
10
10
10
10
10
10
10
10
10
10
10
10
10
10
10
10
10
10
10
10
10
10
10
10
10
10
10
10
10
10
10
10
10
10
10
10
10
10
10
10
10
10
10
10
10
10
10
10
10
10
10
10
10
10
10
10
10
10
10
10
10
10
10
10
10
10
10
10
10
10
10
10
10
10
10
10
10
10
10
10
10
10
10
10
10
10
10
10
10
10
10
10
10
10
10
10
10
10
10
10
10
10
10
10
10
10
10
10
10
10
10
10
10
10
10
10
10
10
10
10
10
10
10
10
10
10
10
10
10
10
10
10
10
10
10
10
10
10
10
10
10
10
10
10
10
10
10
10
10
10
10
10
10
10
10
10
10
10
10
10
10
10
10
10
10
10
10
10
10
10
10
10
10
10
10
10
10
10
10
10
10
10
10
10
10
10
10
10
10
10
10
10
10
10
10
10
10
10
10
10
10
10
10
10
10
10
10
10
10
10
10
10
10
10
10
10
10
10
10
10
10
10
10
10
10
10
10
10
10
10
10
10
10
10
10
10
10
10
10
10
10
10
10
10
10
10
10
10
10
10
10
10
10
10
10
10
10
10
10
10
10
10
10
10
10
10
10
10
10
10
10
10
10
10
10
10
10
10
10
10
10
10
10
10
10
10
10
10
10
10
10
10
10
10
10
10
10
10
10
10
10
10
10
10
10
10
10
10
10
10
10
10
10
10
10
10
10
10
10
10
10
10
10
10
10
10
10
10
10
10
10
10
10
10
10
10
10
10
10
10
10
10
10
10
10
10
10
10
10
10
10
10
10
10
10
10
10
10
10
10
10
10
10
10
10
10
10
10
10
10
10
10
10
10
10
10
10
10
10
10
10
10
10
10
10
10
10
10
10
10
10
10
10
10
10
10
10
10
10
10
10
10
10
10
10
10
10
10
10
10
10
10
10
10
10
10
10
10
10
10
10
10
10
10
10
10
10
10
10
10
10
10
10
10
10
10
10
10
10
10
10
10
10
10
10
10
10
10
10
10
10
10
10
10
10
10
10
10
10
10
10
10
10
10
10
10
10
10
10
10
10
10
10
10
10
10
10
10
10
10
10
10
10
10
10
10
10
10
10
10
10
10
10
10
10
10
10
10
10
10
10
10
10
10
10
10
10
10
10
10
10
10
10
10
10
10
10
10
10
10
10
10
10
10
10
10
10
10
10
10
10
10
10
10
10
10
10
10
10
10
10
10
10
10
10
10
10
10
10
10
10
10
10
10
10
10
10
10
10
10
10
10
10
10
10
10
10
10
10
10
10
10
10
10
10
10
10
10
10
10
10
10
10
10
10
10
10
10
10
10
10
10
10
10
10
10
10
10
10
10
10
10
10
10
10
10
10
10
10
10
10
10
10
10
10
10
10
10
10
10
10
10
10
10
10
10
10
10
10
10
10
10
10
10
10
10
10
10
10
10
10
10
10
10
10
10
10
10
10
10
10
10
10
10
10
10
10
10
10
10
10
10
10
10
10
10
10
10
10
10
10
10
10
10
10
10
10
10
10
10
10
10
10
10
10
10
10
10
10
10
10
10
10
10
10
10
10
10
10
10
10
10
10
10
10
10
10
10
10
10
10
10
10
10
10
10
10
10
10
10
10
10
10
10
10
10
10
10
10
10
10
10
10
10
10
10
10
10
10
10
10
10
10
10
10
10
10
10
10
10
10
10
10
10
10
10
10
10
10
10
10
10
10
10
10
10
10
10
10
10
10
10
10
10
10
10
10
10
10
10
10
10
10
10
10
10
10
10
10
10
10
10
10
10
10
10
10
10
10
10
10
10
10
10
10
10
10
10
10
10
10
10
10
10
10
10
10
10
10
10
10
10
10
10
10
10
10
10
10
10
10
10
10
10
10
10
10
10
10
10
10
10
10
10
10
10
10
10
10
10
10
10
10
10
10
10
10
10
10
10
10
10
10
10
10
10
10
10
10
10
10
10
10
10
10
10
10
10
10
10
10
10
10
10
10
10
10
10
10
10
10
10
10
10
10
10
10
10
10
10
10
10
10
10
10
10
10
10
10
10
10
10
10
10
10
10
10
10
10
10
10
10
10
10
10
10
10
10
10
10
10
10
10
10
10
10
10
10
10
10
10
10
10
10
10
10
10
10
10
10
10
10
10
10
10
10
10
10
10
10
10
10
10
10
10
10
10
10
10
10
10
10
10
10
10
10
10
10
10
10
10
10
10
10
10
10
10
10
10
10
10
10
10
10
10
10
10
10
10
10
10
10
10
10
10
10
10
10
10
10
10
10
10
10
10
10
10
10
10
10
10
10
10
10
10
10
10
10
10
10
10
10
10
10
10
10
10
10
10
10
10
10
10
10
10
10
10
10
10
10
10
10
10
10
10
10
10
10
10
10
10
10
10
10
10
10
10
10
10
10
10
10
10
10
10
10
10
10
10
10
10
10
10
10
10
10
10
10
10
10
10
10
10
10
10
10
10
10
10
10
10
10
10
10
10
10
10
10
10
10
10
10
10
10
10
10
10
10
10
10
10
10
10
10
10
10
10
10
10
10
10
10
10
10
10
10
10
10
10
10
10
10
10
10
10
10
10
10
10
10
10
10
10
10
10
10
10
10
10
10
10
10
10
10
10
10
10
10
10
10
10
10
10
10
10
10
10
10
10
10
10
10
10
10
10
10
10
10
10
10
10
10
10
10
10
10
10
10
10
10
10
10
10
10
10
10
10
10
10
10
10
10
10
10
10
10
10
10
10
10
10
10
10
10
10
10
10
10
10
10
10
10
10
10
10
10
10
10
10
10
10
10
10
10
10
10
10
10
10
10
10
10
10
10
10
10
10
10
10
10
10
10
10
10
10
10
10
10
10
10
10
10
10
10
10
10
10
10
10
10
10
10
10
10
10
10
10
10
10
10
10
10
10
10
10
10
10
10
10
10
10
10
10
10
10
10
10
10
10
10
10
10
10
10
10
10
10
10
10
10
10
10
10
10
10
10
10
10
10
10
10
10
10
10
10
10
10
10
10
10
10
10
10
10
10
10
10
10
10
10
10
10
10
10
10
10
10
10
10
10
10
10
10
10
10
10
10
10
10
10
10
10
10
10
10
10
10
10
10
10
10
10
10
10
10
10
10
10
10
10
10
10
10
10
10
10
10
10
10
10
10
10
10
10
10
10
10
10
10
10
10
10
10
10
10
10
10
10
10
10
10
10
10
10
10
10
10
10
10
10
10
10
10
10
10
10
10
10
10
10
10
10
10
10
10
10
10
10
10
10
10
10
10
10
10
10
10
10
10
10
10
10
10
10
10
10
10
10
10
10
10
10
10
10
10
10
10
10
10
10
10
10
10
10
10
10
10
10
10
10
10
10
10
10
10
10
10
10
10
10
10
10
10
10
10
10
10
10
10
10
10
10
10
10
10
10
10
10
10
10
10
10
10
10
10
10
10
10
10
10
10
10
10
10
10
10
10
10
10
10
10
10
10
10
10
10
10
10
10
10
10
10
10
10
10
10
10
10
10
10
10
10
10
10
10
10
10
10
10
10
10
10
10
10
10
10
10
10
10
10
10
10
10
10
10
10
10
10
10
10
10
10
10
10
10
10
10
10
10
10
10
10
10
10
10
10
10
10
10
10
10
10
10
10
10
10
10
10
10
10
10
10
10
10
10
10
10
10
10
10
10
10
10
10
10
10
10
10
10
10
10
10
10
10
10
10
10
10
10
10
10
10
10
10
10
10
10
10
10
10
10
10
10
10
10
10
10
10
10
10
10
10
10
10
10
10
10
10
10
10
10
10
10
10
10
10
10
10
10
10
10
10
10
10
10
10
10
10
10
10
10
10
10
10
10
10
10
10
10
10
10
10
10
10
10
10
10
10
10
10
10
10
10
10
10
10
10
10
10
10
10
10
10
10
10
10
10
10
10
10
10
10
10
10
10
10
10
10
10
10
10
10
10
10
10
10
10
10
10
10
10
10
10
10
10
10
10
10
10
10
10
10
10
10
10
10
10
10
10
10
10
10
10
10
10
10
10
10
10
10
10
10
10
10
10
10
10
10
10
10
10
10
10
10
10
10
10
10
10
10
10
10
10
10
10
10
10
10
10
10
10
10
10
10
10
10
10
10
10
10
10
10
10
10
10
10
10
10
10
10
10
10
10
10
10
10
10
10
10
10
10
10
10
10
10
10
10
10
10
10
10
10
10
10
10
10
10
10
10
10
10
10
10
10
10
10
10
10
10
10
10
10
10
10
10
10
10
10
10
10
10
10
10
10
10
10
10
10
10
10
10
10
10
10
10
10
10
10
10
10
10
10
10
10
10
10
10
10
10
10
10
10
10
10
10
10
10
10
10
10
10
10
10
10
10
10
10
10
10
10
10
10
10
10
10
10
10
10
10
10
10
10
10
10
10
10
10
10
10
10
10
10
10
10
10
10
10
10
10
10
10
10
10
10
10
10
10
10
10
10
10
10
10
10
10
10
10
10
10
10
10
10
10
10
10
10
10
10
10
10
10
10
10
10
10
10
10
10
10
10
10
10
10
10
10
10
10
10
10
10
10
10
10
10
10
10
10
10
10
10
10
10
10
10
10
10
10
10
10
10
10
10
10
10
10
10
10
10
10
10
10
10
10
10
10
10
10
10
10
10
10
10
10
10
10
10
10
10
10
10
10
10
10
10
10
10
10
10
10
10
10
10
10
10
10
10
10
10
10
10
10
10
10
10
10
10
10
10
10
10
10
10
10
10
10
10
10
10
10
10
10
10
10
10
10
10
10
10
10
10
10
10
10
10
10
10
10
10
10
10
10
10
10
10
10
10
10
10
10
10
10
10
10
10
10
10
10
10
10
10
10
10
10
10
10
10
10
10
10
10
10
10
10
10
10
10
10
10
10
10
10
10
10
10
10
10
10
10
10
10
10
10
10
10
10
10
10
10
10
10
10
10
10
10
10
10
10
10
10
10
10
10
10
10
10
10
10
10
10
10
10
10
10
10
10
10
10
10
10
10
10
10
10
10
10
10
10
10
10
10
10
10
10
10
10
10
10
10
10
10
10
10
10
10
10
10
10
10
10
10
10
10
10
10
10
10
10
10
10
10
10
10
10
10
10
10
10
10
10
10
10
10
10
10
10
10
10
10
10
10
10
10
10
10
10
10
10
10
10
10
10
10
10
10
10
10
10
10
10
10
10
10
10
10
10
10
10
10
10
10
10
10
10
10
10
10
10
10
10
10
10
10
10
10
10
10
10
10
10
10
10
10
10
10
10
10
10
10
10
10
10
10
10
10
10
10
10
10
10
10
10
10
10
10
10
10
10
10
10
10
10
10
10
10
10
10
10
10
10
10
10
10
10
10
10
10
10
10
10
10
10
10
10
10
10
10
10
10
10
10
10
10
10
10
10
10
10
10
10
10
10
10
10
10
10
10
10
10
10
10
10
10
10
10
10
10
10
10
10
10
10
10
10
10
10
10
10
10
10
10
10
10
10
10
10
10
10
10
10
10
10
10
10
10
10
10
10
10
10
10
10
10
10
10
10
10
10
10
10
10
10
10
10
10
10
10
10
10
10
10
10
10
10
10
10
10
10
10
10
10
10
10
10
10
10
10
10
10
10
10
10
10
10
10
10
10
10
10
10
10
10
10
10
10
10
10
10
10
10
10
10
10
10
10
10
10
10
10
10
10
10
10
10
10
10
10
10
10
10
10
10
10
10
10
10
10
10
10
10
10
10
10
10
10
10
10
10
10
10
10
10
10
10
10
10
10
10
10
10
10
10
10
10
10
10
10
10
10
10
10
10
10
10
10
10
10
10
10
10
10
10
10
10
10
10
10
10
10
10
10
10
10
10
10
10
10
10
10
10
10
10
10
10
10
10
10
10
10
10
10
10
10
10
10
10
10
10
10
10
10
10
10
10
10
10
10
10
10
10
10
10
10
10
10
10
10
10
10
10
10
10
10
10
10
10
10
10
10
10
10
10
10
10
10
10
10
10
10
10
10
10
10
10
10
10
10
10
10
10
10
10
10
10
10
10
10
10
10
10
10
10
10
10
10
10
10
10
10
10
10
10
10
10
10
10
10
10
10
10
10
10
10
10
10
10
10
10
10
10
10
10
10
10
10
10
10
10
10
10
10
10
10
10
10
10
10
10
10
10
10
10
10
10
10
10
10
10
10
10
10
10
10
10
10
10
10
10
10
10
10
10
10
10
10
10
10
10
10
10
10
10
10
10
10
10
10
10
10
10
10
10
10
10
10
10
10
10
10
10
10
10
10
10
10
10
10
10
10
10
10
10
10
10
10
10
10
10
10
10
10
10
10
10
10
10
10
10
10
10
10
10
10
10
10
10
10
10
10
10
10
10
10
10
10
10
10
10
10
10
10
10
10
10
10
10
10
10
10
10
10
10
10
10
10
10
10
10
10
10
10
10
10
10
10
10
10
10
10
10
10
10
10
10
10
10
10
10
10
10
10
10
10
10
10
10
10
10
10
10
10
10
10
10
10
10
10
10
10
10
10
10
10
10
10
10
10
10
10
10
10
10
10
10
10
10
10
10
10
10
10
10
10
10
10
10
10
10
10
10
10
10
10
10
10
10
10
10
10
10
10
10
10
10
10
10
10
10
10
10
10
10
10
10
10
10
10
10
10
10
10
10
10
10
10
10
10
10
10
10
10
10
10
10
10
10
10
10
10
10
10
10
10
10
10
10
10
10
10
10
10
10
10
10
10
10
10
10
10
10
10
10
10
10
10
10
10
10
10
10
10
10
10
10
10
10
10
10
10
10
10
10
10
10
10
10
10
10
10
10
10
10
10
10
10
10
10
10
10
10
10
10
10
10
10
10
10
10
10
10
10
10
10
10
10
10
10
10
10
10
10
10
10
10
10
10
10
10
10
10
10
10
10
10
10
10
10
10
10
10
10
10
10
10
10
10
10
10
10
10
10
10
10
10
10
10
10
10
10
10
10
10
10
10
10
10
10
10
10
10
10
10
10
10
10
10
10
10
10
10
10
10
10
10
10
10
10
10
10
10
10
10
10
10
10
10
10
10
10
10
10
10
10
10
10
10
10
10
10
10
10
10
10
10
10
10
10
10
10
10
10
10
10
10
10
10
10
10
10
10
10
10
10
10
10
10
10
10
10
10
10
10
10
10
10
10
10
10
10
10
10
10
10
10
10
10
10
10
10
10
10
10
10
10
10
10
10
10
10
10
10
10
10
10
10
10
10
10
10
10
10
10
10
10
10
10
10
10
10
10
10
10
10
10
10
10
10
10
10
10
10
10
10
10
10
10
10
10
10
10
10
10
10
10
10
10
10
10
10
10
10
10
10
10
10
10
10
10
10
10
10
10
10
10
10
10
10
10
10
10
10
10
10
10
10
10
10
10
10
10
10
10
10
10
10
10
10
10
10
10
10
10
10
10
10
10
10
10
10
10
10
10
10
10
10
10
10
10
10
10
10
10
10
10
10
10
10
10
10
10
10
10
10
10
10
10
10
10
10
10
10
10
10
10
10
10
10
10
10
10
10
10
10
10
10
10
10
10
10
10
10
10
10
10
10
10
10
10
10
10
10
10
10
10
10
10
10
10
10
10
10
10
10
10
10
10
10
10
10
10
10
10
10
10
10
10
10
10
10
10
10
10
10
10
10
10
10
10
10
10
10
10
10
10
10
10
10
10
10
10
10
10
10
10
10
10
10
10
10
10
10
10
10
10
10
10
10
10
10
10
10
10
10
10
10
10
10
10
10
10
10
10
10
10
10
10
10
10
10
10
10
10
10
10
10
10
10
10
10
10
10
10
10
10
10
10
10
10
10
10
10
10
10
10
10
10
10
10
10
10
10
10
10
10
10
10
10
10
10
10
10
10
10
10
10
10
10
10
10
10
10
10
10
10
10
10
10
10
10
10
10
10
10
10
10
10
10
10
10
10
10
10
10
10
10
10
10
10
10
10
10
10
10
10
10
10
10
10
10
10
10
10
10
10
10
10
10
10
10
10
10
10
10
10
10
10
10
10
10
10
10
10
10
10
10
10
10
10
10
10
10
10
10
10
10
10
10
10
10
10
10
10
10
10
10
10
10
10
10
10
10
10
10
10
10
10
10
10
10
10
10
10
10
10
10
10
10
10
10
10
10
10
10
10
10
10
10
10
10
10
10
10
10
10
10
10
10
10
10
10
10
10
10
10
10
10
10
10
10
10
10
10
10
10
10
10
10
10
10
10
10
10
10
10
10
10
10
10
10
10
10
10
10
10
10
10
10
10
10
10
10
10
10
10
10
10
10
10
10
10
10
10
10
10
10
10
10
10
10
10
10
10
10
10
10
10
10
10
10
10
10
10
10
10
10
10
10
10
10
10
10
10
10
10
10
10
10
10
10
10
10
10
10
10
10
10
10
10
10
10
10
10
10
10
10
10
10
10
10
10
10
10
10
10
10
10
10
10
10
10
10
10
10
10
10
10
10
10
10
10
10
10
10
10
10
10
10
10
10
10
10
10
10
10
10
10
10
10
10
10
10
10
10
10
10
10
10
10
10
10
10
10
10
10
10
10
10
10
10
10
10
10
10
10
10
10
10
10
10
10
10
10
10
10
10
10
10
10
10
10
10
10
10
10
10
10
10
10
10
10
10
10
10
10
10
10
10
10
10
10
10
10
10
10
10
10
10
10
10
10
10
10
10
10
10
10
10
10
10
10
10
10
10
10
10
10
10
10
10
10
10
10
10
10
10
10
10
10
10
10
10
10
10
10
10
10
10
10
10
10
10
10
10
10
10
10
10
10
10
10
10
10
10
10
10
10
10
10
10
10
10
10
10
10
10
10
10
10
10
10
10
10
10
10
10
10
10
10
10
10
10
10
10
10
10
10
10
10
10
10
10
10
10
10
10
10
10
10
10
10
10
10
10
10
10
10
10
10
10
10
10
10
10
10
10
10
10
10
10
10
10
10
10
10
10
10
10
10
10
10
10
10
10
10
10
10
10
10
10
10
10
10
10
10
10
10
10
10
10
10
10
10
10
10
10
10
10
10
10
10
10
10
10
10
10
10
10
10
10
10
10
10
10
10
10
10
10
10
10
10
10
10
10
10
10
10
10
10
10
10
10
10
10
10
10
10
10
10
10
10
10
10
10
10
10
10
10
10
10
10
10
10
10
10
10
10
10
10
10
10
10
10
10
10
10
10
10
10
10
10
10
10
10
10
10
10
10
10
10
10
10
10
10
10
10
10
10
10
10
10
10
10
10
10
10
10
10
10
10
10
10
10
10
10
10
10
10
10
10
10
10
10
10
10
10
10
10
10
10
10
10
10
10
10
10
10
10
10
10
10
10
10
10
10
10
10
10
10
10
10
10
10
10
10
10
10
10
10
10
10
10
10
10
10
10
10
10
10
10
10
10
10
10
10
10
10
10
10
10
10
10
10
10
10
10
10
10
10
10
10
10
10
10
10
10
10
10
10
10
10
10
10
10
10
10
10
10
10
10
10
10
10
10
10
10
10
10
10
10
10
10
10
10
10
10
10
10
10
10
10
10
10
10
10
10
10
10
10
10
10
10
10
10
10
10
10
10
10
10
10
10
10
10
10
10
10
10
10
10
10
10
10
10
10
10
10
10
10
10
10
10
10
10
10
10
10
10
10
10
10
10
10
10
10
10
10
10
10
10
10
10
10
10
10
10
10
10
10
10
10
10
10
10
10
10
10
10
10
10
10
10
10
10
10
10
10
10
10
10
10
10
10
10
10
10
10
10
10
10
10
10
10
10
10
10
10
10
10
10
10
10
10
10
10
10
10
10
10
10
10
10
10
10
10
10
10
10
10
10
10
10
10
10
10
10
10
10
10
10
10
10
10
10
10
10
10
10
10
10
10
10
10
10
10
10
10
10
10
10
10
10
10
10
10
10
10
10
10
10
10
10
10
10
10
10
10
10
10
10
10
10
10
10
10
10
10
10
10
10
10
10
10
10
10
10
10
10
10
10
10
10
10
10
10
10
10
10
10
10
10
10
10
10
10
10
10
10
10
10
10
10
10
10
10
10
10
10
10
10
10
10
10
10
10
10
10
10
10
10
10
10
10
10
10
10
10
10
10
10
10
10
10
10
10
10
10
10
10
10
10
10
10
10
10
10
10
10
10
10
10
10
10
10
10
10
10
10
10
10
10
10
10
10
10
10
10
10
10
10
10
10
10
10
10
10
10
10
10
10
10
10
10
10
10
10
10
10
10
10
10
10
10
10
10
10
10
10
10
10
10
10
10
10
10
10
10
10
10
10
10
10
10
10
10
10
10
10
10
10
10
10
10
10
10
10
10
10
10
10
10
10
10
10
10
10
10
10
10
10
10
10
10
10
10
10
10
10
10
10
10
10
10
10
10
10
10
10
10
10
10
10
10
10
10
10
10
10
10
10
10
10
10
10
10
10
10
10
10
10
10
10
10
10
10
10
10
10
10
10
10
10
10
10
10
10
10
10
10
10
10
10
10
10
10
10
10
10
10
10
10
10
10
10
10
10
10
10
10
10
10
10
10
10
10
10
10
10
10
10
10
10
10
10
10
10
10
10
10
10
10
10
10
10
10
10
10
10
10
10
10
10
10
10
10
10
10
10
10
10
10
10
10
10
10
10
10
10
10
10
10
10
10
10
10
10
10
10
10
10
10
10
10
10
10
10
10
10
10
10
10
10
10
10
10
10
10
10
10
10
10
10
10
10
10
10
10
10
10
10
10
10
10
10
10
10
10
10
10
10
10
10
10
10
10
10
10
10
10
10
10
10
10
10
10
10
10
10
10
10
10
10
10
10
10
10
10
10
10
10
10
10
10
10
10
10
10
10
10
10
10
10
10
10
10
10
10
10
10
10
10
10
10
10
10
10
10
10
10
10
10
10
10
10
10
10
10
10
10
10
10
10
10
10
10
10
10
10
10
10
10
10
10
10
10
10
10
10
10
10
10
10
10
10
10
10
10
10
10
10
10
10
10
10
10
10
10
10
10
10
10
10
10
10
10
10
10
10
10
10
10
10
10
10
10
10
10
10
10
10
10
10
10
10
10
10
10
10
10
10
10
10
10
10
10
10
10
10
10
10
10
10
10
10
10
10
10
10
10
10
10
10
10
10
10
10
10
10
10
10
10
10
10
10
10
10
10
10
10
10
10
10
10
10
10
10
10
10
10
10
10
10
10
10
10
10
10
10
10
10
10
10
10
10
10
10
10
10
10
10
10
10
10
10
10
10
10
10
10
10
10
10
10
10
10
10
10
10
10
10
10
10
10
10
10
10
10
10
10
10
10
10
10
10
10
10
10
10
10
10
10
10
10
10
10
10
10
10
10
10
10
10
10
10
10
10
10
10
10
10
10
10
10
10
10
10
10
10
10
10
10
10
10
10
10
10
10
10
10
10
10
10
10
10
10
10
10
10
10
10
10
10
10
10
10
10
10
10
10
10
10
10
10
10
10
10
10
10
10
10
10
10
10
10
10
10
10
10
10
10
10
10
10
10
10
10
10
10
10
10
10
10
10
10
10
10
10
10
10
10
10
10
10
10
10
10
10
10
10
10
10
10
10
10
10
10
10
10
10
10
10
10
10
10
10
10
10
10
10
10
10
10
10
10
10
10
10
10
10
10
10
10
10
10
10
10
10
10
10
10
10
10
10
10
10
10
10
10
10
10
10
10
10
10
10
10
10
10
10
10
10
10
10
10
10
10
10
10
10
10
10
10
10
10
10
10
10
10
10
10
10
10
10
10
10
10
10
10
10
10
10
10
10
10
10
10
10
10
10
10
10
10
10
10
10
10
10
10
10
10
10
10
10
10
10
10
10
10
10
10
10
10
10
10
10
10
10
10
10
10
10
10
10
10
10
10
10
10
10
10
10
10
10
10
10
10
10
10
10
10
10
10
10
10
10
10
10
10
10
10
10
10
10
10
10
10
10
10
10
10
10
10
10
10
10
10
10
10
10
10
10
10
10
10
10
10
10
10
10
10
10
10
10
10
10
10
10
10
10
10
10
10
10
10
10
10
10
10
10
10
10
10
10
10
10
10
10
10
10
10
10
10
10
10
10
10
10
10
10
10
10
10
10
10
10
10
10
10
10
10
10
10
10
10
10
10
10
10
10
10
10
10
10
10
10
10
10
10
10
10
10
10
10
10
10
10
10
10
10
10
10
10
10
10
10
10
10
10
10
10
10
10
10
10
10
10
10
10
10
10
10
10
10
10
10
10
10
10
10
10
10
10
10
10
10
10
10
10
10
10
10
10
10
10
10
10
10
10
10
10
10
10
10
10
10
10
10
10
10
10
10
10
10
10
10
10
10
10
10
10
10
10
10
10
10
10
10
10
10
10
10
10
10
10
10
10
10
10
10
10
10
10
10
10
10
10
10
10
10
10
10
10
10
10
10
10
10
10
10
10
10
10
10
10
10
10
10
10
10
10
10
10
10
10
10
10
10
10
10
10
10
10
10
10
10
10
10
10
10
10
10
10
10
10
10
10
10
10
10
10
10
10
10
10
10
10
10
10
10
10
10
10
10
10
10
10
10
10
10
10
10
10
10
10
10
10
10
10
10
10
10
10
10
10
10
10
10
10
10
10
10
10
10
10
10
10
10
10
10
10
10
10
10
10
10
10
10
10
10
10
10
10
10
10
10
10
10
10
10
10
10
10
10
10
10
10
10
10
10
10
10
10
10
10
10
10
10
10
10
10
10
10
10
10
10
10
10
10
10
10
10
10
10
10
10
10
10
10
10
10
10
10
10
10
10
10
10
10
10
10
10
10
10
10
10
10
10
10
10
10
10
10
10
10
10
10
10
10
10
10
10
10
10
10
10
10
10
10
10
10
10
10
10
10
10
10
10
10
10
10
10
10
10
10
10
10
10
10
10
10
10
10
10
10
10
10
10
10
10
10
10
10
10
10
10
10
10
10
10
10
10
10
10
10
10
10
10
10
10
10
10
10
10
10
10
10
10
10
10
10
10
10
10
10
10
10
10
10
10
10
10
10
10
10
10
10
10
10
10
10
10
10
10
10
10
10
10
10
10
10
10
10
10
10
10
10
10
10
10
10
10
10
10
10
10
10
10
10
10
10
10
10
10
10
10
10
10
10
10
10
10
10
10
10
10
10
10
10
10
10
10
10
10
10
10
10
10
10
10
10
10
10
10
10
10
10
10
10
10
10
10
10
10
10
10
10
10
10
10
10
10
10
10
10
10
10
10
10
10
10
10
10
10
10
10
10
10
10
10
10
10
10
10
10
10
10
10
10
10
10
10
10
10
10
10
10
10
10
10
10
10
10
10
10
10
10
10
10
10
10
10
10
10
10
10
10
10
10
10
10
10
10
10
10
10
10
10
10
10
10
10
10
10
10
10
10
10
10
10
10
10
10
10
10
10
10
10
10
10
10
10
10
10
10
10
10
10
10
10
10
10
10
10
10
10
10
10
10
10
10
10
10
10
10
10
10
10
10
10
10
10
10
10
10
10
10
10
10
10
10
10
10
10
10
10
10
10
10
10
10
10
10
10
10
10
10
10
10
10
10
10
10
10
10
10
10
10
10
10
10
10
10
10
10
10
10
10
10
10
10
10
10
10
10
10
10
10
10
10
10
10
10
10
10
10
10
10
10
10
10
10
10
10
10
10
10
10
10
10
10
10
10
10
10
10
10
10
10
10
10
10
10
10
10
10
10
10
10
10
10
10
10
10
10
10
10
10
10
10
10
10
10
10
10
10
10
10
10
10
10
10
10
10
10
10
10
10
10
10
10
10
10
10
10
10
10
10
10
10
10
10
10
10
10
10
10
10
10
10
10
10
10
10
10
10
10
10
10
10
10
10
10
10
10
10
10
10
10
10
10
10
10
10
10
10
10
10
10
10
10
10
10
10
10
10
10
10
10
10
10
10
10
10
10
10
10
10
10
10
10
10
10
10
10
10
10
10
10
10
10
10
10
10
10
10
10
10
10
10
10
10
10
10
10
10
10
10
10
10
10
10
10
10
10
10
10
10
10
10
10
10
10
10
10
10
10
10
10
10
10
10
10
10
10
10
10
10
10
10
10
10
10
10
10
10
10
10
10
10
10
10
10
10
10
10
10
10
10
10
10
10
10
10
10
10
10
10
10
10
10
10
10
10
10
10
10
10
10
10
10
10
10
10
10
10
10
10
10
10
10
10
10
10
10
10
10
10
10
10
10
10
10
10
10
10
10
10
10
10
10
10
10
10
10
10
10
10
10
10
10
10
10
10
10
10
10
10
10
10
10
10
10
10
10
10
10
10
10
10
10
10
10
10
10
10
10
10
10
10
10
10
10
10
10
10
10
10
10
10
10
10
10
10
10
10
10
10
10
10
10
10
10
10
10
10
10
10
10
10
10
10
10
10
10
10
10
10
10
10
10
10
10
10
10
10
10
10
10
10
10
10
10
10
10
10
10
10
10
10
10
10
10
10
10
10
10
10
10
10
10
10
10
10
10
10
10
10
10
10
10
10
10
10
10
10
10
10
10
10
10
10
10
10
10
10
10
10
10
10
10
10
10
10
10
10
10
10
10
10
10
10
10
10
10
10
10
10
10
10
10
10
10
10
10
10
10
10
10
10
10
10
10
10
10
10
10
10
10
10
10
10
10
10
10
10
10
10
10
10
10
10
10
10
10
10
10
10
10
10
10
10
10
10
10
10
10
10
10
10
10
10
10
10
10
10
10
10
10
10
10
10
10
10
10
10
10
10
10
10
10
10
10
10
10
10
10
10
10
10
10
10
10
10
10
10
10
10
10
10
10
10
10
10
10
10
10
10
10
10
10
10
10
10
10
10
10
10
10
10
10
10
10
10
10
10
10
10
10
10
10
10
10
10
10
10
10
10
10
10
10
10
10
10
10
10
10
10
10
10
10
10
10
10
10
10
10
10
10
10
10
10
10
10
10
10
10
10
10
10
10
10
10
10
10
10
10
10
10
10
10
10
10
10
10
10
10
10
10
10
10
10
10
10
10
10
10
10
10
10
10
10
10
10
10
10
10
10
10
10
10
10
10
10
10
10
10
10
10
10
10
10
10
10
10
10
10
10
10
10
10
10
10
10
10
10
10
10
10
10
10
10
10
10
10
10
10
10
10
10
10
10
10
10
10
10
10
10
10
10
10
10
10
10
10
10
10
10
10
10
10
10
10
10
10
10
10
10
10
10
10
10
10
10
10
10
10
10
10
10
10
10
10
10
10
10
10
10
10
10
10
10
10
10
10
10
10
10
10
10
10
10
10
10
10
10
10
10
10
10
10
10
10
10
10
10
10
10
10
10
10
10
10
10
10
10
10
10
10
10
10
10
10
10
10
10
10
10
10
10
10
10
10
10
10
10
10
10
10
10
10
10
10
10
10
10
10
10
10
10
10
10
10
10
10
10
10
10
10
10
10
10
10
10
10
10
10
10
10
10
10
10
10
10
10
10
10
10
10
10
10
10
10
10
10
10
10
10
10
10
10
10
10
10
10
10
10
10
10
10
10
10
10
10
10
10
10
10
10
10
10
10
10
10
10
10
10
10
10
10
10
10
10
10
10
10
10
10
10
10
10
10
10
10
10
10
10
10
10
10
10
10
10
10
10
10
10
10
10
10
10
10
10
10
10
10
10
10
10
10
10
10
10
10
10
10
10
10
10
10
10
10
10
10
10
10
10
10
10
10
10
10
10
10
10
10
10
10
10
10
10
10
10
10
10
10
10
10
10
10
10
10
10
10
10
10
10
10
10
10
10
10
10
10
10
10
10
10
10
10
10
10
10
10
10
10
10
10
10
10
10
10
10
10
10
10
10
10
10
10
10
10
10
10
10
10
10
10
10
10
10
10
10
10
10
10
10
10
10
10
10
10
10
10
10
10
10
10
10
10
10
10
10
10
10
10
10
10
10
10
10
10
10
10
10
10
10
10
10
10
10
10
10
10
10
10
10
10
10
10
10
10
10
10
10
10
10
10
10
10
10
10
10
10
10
10
10
10
10
10
10
10
10
10
10
10
10
10
10
10
10
10
10
10
10
10
10
10
10
10
10
10
10
10
10
10
10
10
10
10
10
10
10
10
10
10
10
10
10
10
10
10
10
10
10
10
10
10
10
10
10
10
10
10
10
10
10
10
10
10
10
10
10
10
10
10
10
10
10
10
10
10
10
10
10
10
10
10
10
10
10
10
10
10
10
10
10
10
10
10
10
10
10
10
10
10
10
10
10
10
10
10
10
10
10
10
10
10
10
10
10
10
10
10
10
10
10
10
10
10
10
10
10
10
10
10
10
10
10
10
10
10
10
10
10
10
10
10
10
10
10
10
10
10
10
10
10
10
10
10
10
10
10
10
10
10
10
10
10
10
10
10
10
10
10
10
10
10
10
10
10
10
10
10
10
10
10
10
10
10
10
10
10
10
10
10
10
10
10
10
10
10
10
10
10
10
10
10
10
10
10
10
10
10
10
10
10
10
10
10
10
10
10
10
10
10
10
10
10
10
10
10
10
10
10
10
10
10
10
10
10
10
10
10
10
10
10
10
10
10
10
10
10
10
10
10
10
10
10
10
10
10
10
10
10
10
10
10
10
10
10
10
10
10
10
10
10
10
10
10
10
10
10
10
10
10
10
10
10
10
10
10
10
10
10
10
10
10
10
10
10
10
10
10
10
10
10
10
10
10
10
10
10
10
10
10
10
10
10
10
10
10
10
10
10
10
10
10
10
10
10
10
10
10
10
10
10
10
10
10
10
10
10
10
10
10
10
10
10
10
10
10
10
10
10
10
10
10
10
10
10
10
10
10
10
10
10
10
10
10
10
10
10
10
10
10
10
10
10
10
10
10
10
10
10
10
10
10
10
10
10
10
10
10
10
10
10
10
10
10
10
10
10
10
10
10
10
10
10
10
10
10
10
10
10
10
10
10
10
10
10
10
10
10
10
10
10
10
10
10
10
10
10
10
10
10
10
10
10
10
10
10
10
10
10
10
10
10
10
10
10
10
10
10
10
10
10
10
10
10
10
10
10
10
10
10
10
10
10
10
10
10
10
10
10
10
10
10
10
10
10
10
10
10
10
10
10
10
10
10
10
10
10
10
10
10
10
10
10
10
10
10
10
10
10
10
10
10
10
10
10
10
10
10
10
10
10
10
10
10
10
10
10
10
10
10
10
10
10
10
10
10
10
10
10
10
10
10
10
10
10
10
10
10
10
10
10
10
10
10
10
10
10
10
10
10
10
10
10
10
10
10
10
10
10
10
10
10
10
10
10
10
10
10
10
10
10
10
10
10
10
10
10
10
10
10
10
10
10
10
10
10
10
10
10
10
10
10
10
10
10
10
10
10
10
10
10
10
10
10
10
10
10
10
10
10
10
10
10
10
10
10
10
10
10
10
10
10
10
10
10
10
10
10
10
10
10
10
10
10
10
10
10
10
10
10
10
10
10
10
10
10
10
10
10
10
10
10
10
10
10
10
10
10
10
10
10
10
10
10
10
10
10
10
10
10
10
10
10
10
10
10
10
10
10
10
10
10
10
10
10
10
10
10
10
10
10
10
10
10
10
10
10
10
10
10
10
10
10
10
10
10
10
10
10
10
10
10
10
10
10
10
10
10
10
10
10
10
10
10
10
10
10
10
10
10
10
10
10
10
10
10
10
10
10
10
10
10
10
10
10
10
10
10
10
10
10
10
10
10
10
10
10
10
10
10
10
10
10
10
10
10
10
10
10
10
10
10
10
10
10
10
10
10
10
10
10
10
10
10
10
10
10
10
10
10
10
10
10
10
10
10
10
10
10
10
10
10
10
10
10
10
10
10
10
10
10
10
10
10
10
10
10
10
10
10
10
10
10
10
10
10
10
10
10
10
10
10
10
10
10
10
10
10
10
10
10
10
10
10
10
10
10
10
10
10
10
10
10
10
10
10
10
10
10
10
10
10
10
10
10
10
10
10
10
10
10
10
10
10
10
10
10
10
10
10
10
10
10
10
10
10
10
10
10
10
10
10
10
10
10
10
10
10
10
10
10
10
10
10
10
10
10
10
10
10
10
10
10
10
10
10
10
10
10
10
10
10
10
10
10
10
10
10
10
10
10
10
10
10
10
10
10
10
10
10
10
10
10
10
10
10
10
10
10
10
10
10
10
10
10
10
10
10
10
10
10
10
10
10
10
10
10
10
10
10
10
10
10
10
10
10
10
10
10
10
10
10
10
10
10
10
10
10
10
10
10
10
10
10
10
10
10
10
10
10
10
10
10
10
10
10
10
10
10
10
10
10
10
10
10
10
10
10
10
10
10
10
10
10
10
10
10
10
10
10
10
10
10
10
10
10
10
10
10
10
10
10
10
10
10
10
10
10
10
10
10
10
10
10
10
10
10
10
10
10
10
10
10
10
10
10
10
10
10
10
10
10
10
10
10
10
10
10
10
10
10
10
10
10
10
10
10
10
10
10
10
10
10
10
10
10
10
10
10
10
10
10
10
10
10
10
10
10
10
10
10
10
10
10
10
10
10
10
10
10
10
10
10
10
10
10
10
10
10
10
10
10
10
10
10
10
10
10
10
10
10
10
10
10
10
10
10
10
10
10
10
10
10
10
10
10
10
10
10
10
10
10
10
10
10
10
10
10
10
10
10
10
10
10
10
10
10
10
10
10
10
10
10
10
10
10
10
10
10
10
10
10
10
10
10
10
10
10
10
10
10
10
10
10
10
10
10
10
10
10
10
10
10
10
10
10
10
10
10
10
10
10
10
10
10
10
10
10
10
10
10
10
10
10
10
10
10
10
10
10
10
10
10
10
10
10
10
10
10
10
10
10
10
10
10
10
10
10
10
10
10
10
10
10
10
10
10
10
10
10
10
10
10
10
10
10
10
10
10
10
10
10
10
10
10
10
10
10
10
10
10
10
10
10
10
10
10
10
10
10
10
10
10
10
10
10
10
10
10
10
10
10
10
10
10
10
10
10
10
10
10
10
10
10
10
10
10
10
10
10
10
10
10
10
10
10
10
10
10
10
10
10
10
10
10
10
10
10
10
10
10
10
10
10
10
10
10
10
10
10
10
10
10
10
10
10
10
10
10
10
10
10
10
10
10
10
10
10
10
10
10
10
10
10
10
10
10
10
10
10
10
10
10
10
10
10
10
10
10
10
10
10
10
10
10
10
10
10
10
10
10
10
10
10
10
10
10
10
10
10
10
10
10
10
10
10
10
10
10
10
10
10
10
10
10
10
10
10
10
10
10
10
10
10
10
10
10
10
10
10
10
10
10
10
10
10
10
10
10
10
10
10
10
10
10
10
10
10
10
10
10
10
10
10
10
10
10
10
10
10
10
10
10
10
10
10
10
10
10
10
10
10
10
10
10
10
10
10
10
10
10
10
10
10
10
10
10
10
10
10
10
10
10
10
10
10
10
10
10
10
10
10
10
10
10
10
10
10
10
10
10
10
10
10
10
10
10
10
10
10
10
10
10
10
10
10
10
10
10
10
10
10
10
10
10
10
10
10
10
10
10
10
10
10
10
10
10
10
10
10
10
10
10
10
10
10
10
10
10
10
10
10
10
10
10
10
10
10
10
10
10
10
10
10
10
10
10
10
10
10
10
10
10
10
10
10
10
10
10
10
10
10
10
10
10
10
10
10
10
10
10
10
10
10
10
10
10
10
10
10
10
10
10
10
10
10
10
10
10
10
10
10
10
10
10
10
10
10
10
10
10
10
10
10
10
10
10
10
10
10
10
10
10
10
10
10
10
10
10
10
10
10
10
10
10
10
10
10
10
10
10
10
10
10
10
10
10
10
10
10
10
10
10
10
10
10
10
10
10
10
10
10
10
10
10
10
10
10
10
10
10
10
10
10
10
10
10
10
10
10
10
10
10
10
10
10
10
10
10
10
10
10
10
10
10
10
10
10
10
10
10
10
10
10
10
10
10
10
10
10
10
10
10
10
10
10
10
10
10
10
10
10
10
10
10
10
10
10
10
10
10
10
10
10
10
10
10
10
10
10
10
10
10
10
10
10
10
10
10
10
10
10
10
10
10
10
10
10
10
10
10
10
10
10
10
10
10
10
10
10
10
10
10
10
10
10
10
10
10
10
10
10
10
10
10
10
10
10
10
10
10
10
10
10
10
10
10
10
10
10
10
10
10
10
10
10
10
10
10
10
10
10
10
10
10
10
10
10
10
10
10
10
10
10
10
10
10
10
10
10
10
10
10
10
10
10
10
10
10
10
10
10
10
10
10
10
10
10
10
10
10
10
10
10
10
10
10
10
10
10
10
10
10
10
10
10
10
10
10
10
10
10
10
10
10
10
10
10
10
10
10
10
10
10
10
10
10
10
10
10
10
10
10
10
10
10
10
10
10
10
10
10
10
10
10
10
10
10
10
10
10
10
10
10
10
10
10
10
10
10
10
10
10
10
10
10
10
10
10
10
10
10
10
10
10
10
10
10
10
10
10
10
10
10
10
10
10
10
10
10
10
10
10
10
10
10
10
10
10
10
10
10
10
10
10
10
10
10
10
10
10
10
10
10
10
10
10
10
10
10
10
10
10
10
10
10
10
10
10
10
10
10
10
10
10
10
10
10
10
10
10
10
10
10
10
10
10
10
10
10
10
10
10
10
10
10
10
10
10
10
10
10
10
10
10
10
10
10
10
10
10
10
10
10
10
10
10
10
10
10
10
10
10
10
10
10
10
10
10
10
10
10
10
10
10
10
10
10
10
10
10
10
10
10
10
10
10
10
10
10
10
10
10
10
10
10
10
10
10
10
10
10
10
10
10
10
10
10
10
10
10
10
10
10
10
10
10
10
10
10
10
10
10
10
10
10
10
10
10
10
10
10
10
10
10
10
10
10
10
10
10
10
10
10
10
10
10
10
10
10
10
10
10
10
10
10
10
10
10
10
10
10
10
10
10
10
10
10
10
10
10
10
10
10
10
10
10
10
10
10
10
10
10
10
10
10
10
10
10
10
10
10
10
10
10
10
10
10
10
10
10
10
10
10
10
10
10
10
10
10
10
10
10
10
10
10
10
10
10
10
10
10
10
10
10
10
10
10
10
10
10
10
10
10
10
10
10
10
10
10
10
10
10
10
10
10
10
10
10
10
10
10
10
10
10
10
10
10
10
10
10
10
10
10
10
10
10
10
10
10
10
10
10
10
10
10
10
10
10
10
10
10
10
10
10
10
10
10
10
10
10
10
10
10
10
10
10
10
10
10
10
10
10
10
10
10
10
10
10
10
10
10
10
10
10
10
10
10
10
10
10
10
10
10
10
10
10
10
10
10
10
10
10
10
10
10
10
10
10
10
10
10
10
10
10
10
10
10
10
10
10
10
10
10
10
10
10
10
10
10
10
10
10
10
10
10
10
10
10
10
10
10
10
10
10
10
10
10
10
10
10
10
10
10
10
10
10
10
10
10
10
10
10
10
10
10
10
10
10
10
10
10
10
10
10
10
10
10
10
10
10
10
10
10
10
10
10
10
10
10
10
10
10
10
10
10
10
10
10
10
10
10
10
10
10
10
10
10
10
10
10
10
10
10
10
10
10
10
10
10
10
10
10
10
10
10
10
10
10
10
10
10
10
10
10
10
10
10
10
10
10
10
10
10
10
10
10
10
10
10
10
10
10
10
10
10
10
10
10
10
10
10
10
10
10
10
10
10
10
10
10
10
10
10
10
10
10
10
10
10
10
10
10
10
10
10
10
10
10
10
10
10
10
10
10
10
10
10
10
10
10
10
10
10
10
10
10
10
10
10
10
10
10
10
10
10
10
10
10
10
10
10
10
10
10
10
10
10
10
10
10
10
10
10
10
10
10
10
10
10
10
10
10
10
10
10
10
10
10
10
10
10
10
10
10
10
10
10
10
10
10
10
10
10
10
10
10
10
10
10
10
10
10
10
10
10
10
10
10
10
10
10
10
10
10
10
10
10
10
10
10
10
10
10
10
10
10
10
10
10
10
10
10
10
10
10
10
10
10
10
10
10
10
10
10
10
10
10
10
10
10
10
10
10
10
10
10
10
10
10
10
10
10
10
10
10
10
10
10
10
10
10
10
10
10
10
10
10
10
10
10
10
10
10
10
10
10
10
10
10
10
10
10
10
10
10
10
10
10
10
10
10
10
10
10
10
10
10
10
10
10
10
10
10
10
10
10
10
10
10
10
10
10
10
10
10
10
10
10
10
10
10
10
10
10
10
10
10
10
10
10
10
10
10
10
10
10
10
10
10
10
10
10
10
10
10
10
10
10
10
10
10
10
10
10
10
10
10
10
10
10
10
10
10
10
10
10
10
10
10
10
10
10
10
10
10
10
10
10
10
10
10
10
10
10
10
10
10
10
10
10
10
10
10
10
10
10
10
10
10
10
10
10
10
10
10
10
10
10
10
10
10
10
10
10
10
10
10
10
10
10
10
10
10
10
10
10
10
10
10
10
10
10
10
10
10
10
10
10
10
10
10
10
10
10
10
10
10
10
10
10
10
10
10
10
10
10
10
10
10
10
10
10
10
10
10
10
10
10
10
10
10
10
10
10
10
10
10
10
10
10
10
10
10
10
10
10
10
10
10
10
10
10
10
10
10
10
10
10
10
10
10
10
10
10
10
10
10
10
10
10
10
10
10
10
10
10
10
10
10
10
10
10
10
10
10
10
10
10
10
10
10
10
10
10
10
10
10
10
10
10
10
10
10
10
10
10
10
10
10
10
10
10
10
10
10
10
10
10
10
10
10
10
10
10
10
10
10
10
10
10
10
10
10
10
10
10
10
10
10
10
10
10
10
10
10
10
10
10
10
10
10
10
10
10
10
10
10
10
10
10
10
10
10
10
10
10
10
10
10
10
10
10
10
10
10
10
10
10
10
10
10
10
10
10
10
10
10
10
10
10
10
10
10
10
10
10
10
10
10
10
10
10
10
10
10
10
10
10
10
10
10
10
10
10
10
10
10
10
10
10
10
10
10
10
10
10
10
10
10
10
10
10
10
10
10
10
10
10
10
10
10
10
10
10
10
10
10
10
10
10
10
10
10
10
10
10
10
10
10
10
10
10
10
10
10
10
10
10
10
10
10
10
10
10
10
10
10
10
10
10
10
10
10
10
10
10
10
10
10
10
10
10
10
10
10
10
10
10
10
10
10
10
10
10
10
10
10
10
10
10
10
10
10
10
10
10
10
10
10
10
10
10
10
10
10
10
10
10
10
10
10
10
10
10
10
10
10
10
10
10
10
10
10
10
10
10
10
10
10
10
10
10
10
10
10
10
10
10
10
10
10
10
10
10
10
10
10
10
10
10
10
10
10
10
10
10
10
10
10
10
10
10
10
10
10
10
10
10
10
10
10
10
10
10
10
10
10
10
10
10
10
10
10
10
10
10
10
10
10
10
10
10
10
10
10
10
10
10
10
10
10
10
10
10
10
10
10
10
10
10
10
10
10
10
10
10
10
10
10
10
10
10
10
10
10
10
10
10
10
10
10
10
10
10
10
10
10
10
10
10
10
10
10
10
10
10
10
10
10
10
10
10
10
10
10
10
10
10
10
10
10
10
10
10
10
10
10
10
10
10
10
10
10
10
10
10
10
10
10
10
10
10
10
10
10
10
10
10
10
10
10
10
10
10
10
10
10
10
10
10
10
10
10
10
10
10
10
10
10
10
10
10
10
10
10
10
10
10
10
10
10
10
10
10
10
10
10
10
10
10
10
10
10
10
10
10
10
10
10
10
10
10
10
10
10
10
10
10
10
10
10
10
10
10
10
10
10
10
10
10
10
10
10
10
10
10
10
10
10
10
10
10
10
10
10
10
10
10
10
10
10
10
10
10
10
10
10
10
10
10
10
10
10
10
10
10
10
10
10
10
10
10
10
10
10
10
10
10
10
10
10
10
10
10
10
10
10
10
10
10
10
10
10
10
10
10
10
10
10
10
10
10
10
10
10
10
10
10
10
10
10
10
10
10
10
10
10
10
10
10
10
10
10
10
10
10
10
10
10
10
10
10
10
10
10
10
10
10
10
10
10
10
10
10
10
10
10
10
10
10
10
10
10
10
10
10
10
10
10
10
10
10
10
10
10
10
10
10
10
10
10
10
10
10
10
10
10
10
10
10
10
10
10
10
10
10
10
10
10
10
10
10
10
10
10
10
10
10
10
10
10
10
10
10
10
10
10
10
10
10
10
10
10
10
10
10
10
10
10
10
10
10
10
10
10
10
10
10
10
10
10
10
10
10
10
10
10
10
10
10
10
10
10
10
10
10
10
10
10
10
10
10
10
10
10
10
10
10
10
10
10
10
10
10
10
10
10
10
10
10
10
10
10
10
10
10
10
10
10
10
10
10
10
10
10
10
10
10
10
10
10
10
10
10
10
10
10
10
10
10
10
10
10
10
10
10
10
10
10
10
10
10
10
10
10
10
10
10
10
10
10
10
10
10
10
10
10
10
10
10
10
10
10
10
10
10
10
10
10
10
10
10
10
10
10
10
10
10
10
10
10
10
10
10
10
10
10
10
10
10
10
10
10
10
10
10
10
10
10
10
10
10
10
10
10
10
10
10
10
10
10
10
10
10
10
10
10
10
10
10
10
10
10
10
10
10
10
10
10
10
10
10
10
10
10
10
10
10
10
10
10
10
10
10
10
10
10
10
10
10
10
10
10
10
10
10
10
10
10
10
10
10
10
10
10
10
10
10
10
10
10
10
10
10
10
10
10
10
10
10
10
10
10
10
10
10
10
10
10
10
10
10
10
10
10
10
10
10
10
10
10
10
10
10
10
10
10
10
10
10
10
10
10
10
10
10
10
10
10
10
10
10
10
10
10
10
10
10
10
10
10
10
10
10
10
10
10
10
10
10
10
10
10
10
10
10
10
10
10
10
10
10
10
10
10
10
10
10
10
10
10
10
10
10
10
10
10
10
10
10
10
10
10
10
10
10
10
10
10
10
10
10
10
10
10
10
10
10
10
10
10
10
10
10
10
10
10
10
10
10
10
10
10
10
10
10
10
10
10
10
10
10
10
10
10
10
10
10
10
10
10
10
10
10
10
10
10
10
10
10
10
10
10
10
10
10
10
10
10
10
10
10
10
10
10
10
10
10
10
10
10
10
10
10
10
10
10
10
10
10
10
10
10
10
10
10
10
10
10
10
10
10
10
10
10
10
10
10
10
10
10
10
10
10
10
10
10
10
10
10
10
10
10
10
10
10
10
10
10
10
10
10
10
10
10
10
10
10
10
10
10
10
10
10
10
10
10
10
10
10
10
10
10
10
10
10
10
10
10
10
10
10
10
10
10
10
10
10
10
10
10
10
10
10
10
10
10
10
10
10
10
10
10
10
10
10
10
10
10
10
10
10
10
10
10
10
10
10
10
10
10
10
10
10
10
10
10
10
10
10
10
10
10
10
10
10
10
10
10
10
10
10
10
10
10
10
10
10
10
10
10
10
10
10
10
10
10
10
10
10
10
10
10
10
10
10
10
10
10
10
10
10
10
10
10
10
10
10
10
10
10
10
10
10
10
10
10
10
10
10
10
10
10
10
10
10
10
10
10
10
10
10
10
10
10
10
10
10
10
10
10
10
10
10
10
10
10
10
10
10
10
10
10
10
10
10
10
10
10
10
10
10
10
10
10
10
10
10
10
10
10
10
10
10
10
10
10
10
10
10
10
10
10
10
10
10
10
10
10
10
10
10
10
10
10
10
10
10
10
10
10
10
10
10
10
10
10
10
10
10
10
10
10
10
10
10
10
10
10
10
10
10
10
10
10
10
10
10
10
10
10
10
10
10
10
10
10
10
10
10
10
10
10
10
10
10
10
10
10
10
10
10
10
10
10
10
10
10
10
10
10
10
10
10
10
10
10
10
10
10
10
10
10
10
10
10
10
10
10
10
10
10
10
10
10
10
10
10
10
10
10
10
10
10
10
10
10
10
10
10
10
10
10
10
10
10
10
10
10
10
10
10
10
10
10
10
10
10
10
10
10
10
10
10
10
10
10
10
10
10
10
10
10
10
10
10
10
10
10
10
10
10
10
10
10
10
10
10
10
10
10
10
10
10
10
10
10
10
10
10
10
10
10
10
10
10
10
10
10
10
10
10
10
10
10
10
10
10
10
10
10
10
10
10
10
10
10
10
10
10
10
10
10
10
10
10
10
10
10
10
10
10
10
10
10
10
10
10
10
10
10
10
10
10
10
10
10
10
10
10
10
10
10
10
10
10
10
10
10
10
10
10
10
10
10
10
10
10
10
10
10
10
10
10
10
10
10
10
10
10
10
10
10
10
10
10
10
10
10
10
10
10
10
10
10
10
10
10
10
10
10
10
10
10
10
10
10
10
10
10
10
10
10
10
10
10
10
10
10
10
10
10
10
10
10
10
10
10
10
10
10
10
10
10
10
10
10
10
10
10
10
10
10
10
10
10
10
10
10
10
10
10
10
10
10
10
10
10
10
10
10
10
10
10
10
10
10
10
10
10
10
10
10
10
10
10
10
10
10
10
10
10
10
10
10
10
10
10
10
10
10
10
10
10
10
10
10
10
10
10
10
10
10
10
10
10
10
10
10
10
10
10
10
10
10
10
10
10
10
10
10
10
10
10
10
10
10
10
10
10
10
10
10
10
10
10
10
10
10
10
10
10
10
10
10
10
10
10
10
10
10
10
10
10
10
10
10
10
10
10
10
10
10
10
10
10
10
10
10
10
10
10
10
10
10
10
10
10
10
10
10
10
10
10
10
10
10
10
10
10
10
10
10
10
10
10
10
10
10
10
10
10
10
10
10
10
10
10
10
10
10
10
10
10
10
10
10
10
10
10
10
10
10
10
10
10
10
10
10
10
10
10
10
10
10
10
10
10
10
10
10
10
10
10
10
10
10
10
10
10
10
10
10
10
10
10
10
10
10
10
10
10
10
10
10
10
10
10
10
10
10
10
10
10
10
10
10
10
10
10
10
10
10
10
10
10
10
10
10
10
10
10
10
10
10
10
10
10
10
10
10
10
10
10
10
10
10
10
10
10
10
10
10
10
10
10
10
10
10
10
10
10
10
10
10
10
10
10
10
10
10
10
10
10
10
10
10
10
10
10
10
10
10
10
10
10
10
10
10
10
10
10
10
10
10
10
10
10
10
10
10
10
10
10
10
10
10
10
10
10
10
10
10
10
10
10
10
10
10
10
10
10
10
10
10
10
10
10
10
10
10
10
10
10
10
10
10
10
10
10
10
10
10
10
10
10
10
10
10
10
10
10
10
10
10
10
10
10
10
10
10
10
10
10
10
10
10
10
10
10
10
10
10
10
10
10
10
10
10
10
10
10
10
10
10
10
10
10
10
10
10
10
10
10
10
10
10
10
10
10
10
10
10
10
10
10
10
10
10
10
10
10
10
10
10
10
10
10
10
10
10
10
10
10
10
10
10
10
10
10
10
10
10
10
10
10
10
10
10
10
10
10
10
10
10
10
10
10
10
10
10
10
10
10
10
10
10
10
10
10
10
10
10
10
10
10
10
10
10
10
10
10
10
10
10
10
10
10
10
10
10
10
10
10
10
10
10
10
10
10
10
10
10
10
10
10
10
10
10
10
10
10
10
10
10
10
10
10
10
10
10
10
10
10
10
10
10
10
10
10
10
10
10
10
10
10
10
10
10
10
10
10
10
10
10
10
10
10
10
10
10
10
10
10
10
10
10
10
10
10
10
10
10
10
10
10
10
10
10
10
10
10
10
10
10
10
10
10
10
10
10
10
10
10
10
10
10
10
10
10
10
10
10
10
10
10
10
10
10
10
10
10
10
10
10
10
10
10
10
10
10
10
10
10
10
10
10
10
10
10
10
10
10
10
10
10
10
10
10
10
10
10
10
10
10
10
10
10
10
10
10
10
10
10
10
10
10
10
10
10
10
10
10
10
10
10
10
10
10
10
10
10
10
10
10
10
10
10
10
10
10
10
10
10
10
10
10
10
10
10
10
10
10
10
10
10
10
10
10
10
10
10
10
10
10
10
10
10
10
10
10
10
10
10
10
10
10
10
10
10
10
10
10
10
10
10
10
10
10
10
10
10
10
10
10
10
10
10
10
10
10
10
10
10
10
10
10
10
10
10
10
10
10
10
10
10
10
10
10
10
10
10
10
10
10
10
10
10
10
10
10
10
10
10
10
10
10
10
10
10
10
10
10
10
10
10
10
10
10
10
10
10
10
10
10
10
10
10
10
10
10
10
10
10
10
10
10
10
10
10
10
10
10
10
10
10
10
10
10
10
10
10
10
10
10
10
10
10
10
10
10
10
10
10
10
10
10
10
10
10
10
10
10
10
10
10
10
10
10
10
10
10
10
10
10
10
10
10
10
10
10
10
10
10
10
10
10
10
10
10
10
10
10
10
10
10
10
10
10
10
10
10
10
10
10
10
10
10
10
10
10
10
10
10
10
10
10
10
10
10
10
10
10
10
10
10
10
10
10
10
10
10
10
10
10
10
10
10
10
10
10
10
10
10
10
10
10
10
10
10
10
10
10
10
10
10
10
10
10
10
10
10
10
10
10
10
10
10
10
10
10
10
10
10
10
10
10
10
10
10
10
10
10
10
10
10
10
10
10
10
10
10
10
10
10
10
10
10
10
10
10
10
10
10
10
10
10
10
10
10
10
10
10
10
10
10
10
10
10
10
10
10
10
10
10
10
10
10
10
10
10
10
10
10
10
10
10
10
10
10
10
10
10
10
10
10
10
10
10
10
10
10
10
10
10
10
10
10
10
10
10
10
10
10
10
10
10
10
10
10
10
10
10
10
10
10
10
10
10
10
10
10
10
10
10
10
10
10
10
10
10
10
10
10
10
10
10
10
10
10
10
10
10
10
10
10
10
10
10
10
10
10
10
10
10
10
10
10
10
10
10
10
10
10
10
10
10
10
10
10
10
10
10
10
10
10
10
10
10
10
10
10
10
10
10
10
10
10
10
10
10
10
10
10
10
10
10
10
10
10
10
10
10
10
10
10
10
10
10
10
10
10
10
10
10
10
10
10
10
10
10
10
10
10
10
10
10
10
10
10
10
10
10
10
10
10
10
10
10
10
10
10
10
10
10
10
10
10
10
10
10
10
10
10
10
10
10
10
10
10
10
10
10
10
10
10
10
10
10
10
10
10
10
10
10
10
10
10
10
10
10
10
10
10
10
10
10
10
10
10
10
10
10
10
10
10
10
10
10
10
10
10
10
10
10
10
10
10
10
10
10
10
10
10
10
10
10
10
10
10
10
10
10
10
10
10
10
10
10
10
10
10
10
10
10
10
10
10
10
10
10
10
10
10
10
10
10
10
10
10
10
10
10
10
10
10
10
10
10
10
10
10
10
10
10
10
10
10
10
10
10
10
10
10
10
10
10
10
10
10
10
10
10
10
10
10
10
10
10
10
10
10
10
10
10
10
10
10
10
10
10
10
10
10
10
10
10
10
10
10
10
10
10
10
10
10
10
10
10
10
10
10
10
10
10
10
10
10
10
10
10
10
10
10
10
10
10
10
10
10
10
10
10
10
10
10
10
10
10
10
10
10
10
10
10
10
10
10
10
10
10
10
10
10
10
10
10
10
10
10
10
10
10
10
10
10
10
10
10
10
10
10
10
10
10
10
10
10
10
10
10
10
10
10
10
10
10
10
10
10
10
10
10
10
10
10
10
10
10
10
10
10
10
10
10
10
10
10
10
10
10
10
10
10
10
10
10
10
10
10
10
10
10
10
10
10
10
10
10
10
10
10
10
10
10
10
10
10
10
10
10
10
10
10
10
10
10
10
10
10
10
10
10
10
10
10
10
10
10
10
10
10
10
10
10
10
10
10
10
10
10
10
10
10
10
10
10
10
10
10
10
10
10
10
10
10
10
10
10
10
10
10
10
10
10
10
10
10
10
10
10
10
10
10
10
10
10
10
10
10
10
10
10
10
10
10
10
10
10
10
10
10
10
10
10
10
10
10
10
10
10
10
10
10
10
10
10
10
10
10
10
10
10
10
10
10
10
10
10
10
10
10
10
10
10
10
10
10
10
10
10
10
10
10
10
10
10
10
10
10
10
10
10
10
10
10
10
10
10
10
10
10
10
10
10
10
10
10
10
10
10
10
10
10
10
10
10
10
10
10
10
10
10
10
10
10
10
10
10
10
10
10
10
10
10
10
10
10
10
10
10
10
10
10
10
10
10
10
10
10
10
10
10
10
10
10
10
10
10
10
10
10
10
10
10
10
10
10
10
10
10
10
10
10
10
10
10
10
10
10
10
10
10
10
10
10
10
10
10
10
10
10
10
10
10
10
10
10
10
10
10
10
10
10
10
10
10
10
10
10
10
10
10
10
10
10
10
10
10
10
10
10
10
10
10
10
10
10
10
10
10
10
10
10
10
10
10
10
10
10
10
10
10
10
10
10
10
10
10
10
10
10
10
10
10
10
10
10
10
10
10
10
10
10
10
10
10
10
10
10
10
10
10
10
10
10
10
10
10
10
10
10
10
10
10
10
10
10
10
10
10
10
10
10
10
10
10
10
10
10
10
10
10
10
10
10
10
10
10
10
10
10
10
10
10
10
10
10
10
10
10
10
10
10
10
10
10
10
10
10
10
10
10
10
10
10
10
10
10
10
10
10
10
10
10
10
10
10
10
10
10
10
10
10
10
10
10
10
10
10
10
10
10
10
10
10
10
10
10
10
10
10
10
10
10
10
10
10
10
10
10
10
10
10
10
10
10
10
10
10
10
10
10
10
10
10
10
10
10
10
10
10
10
10
10
10
10
10
10
10
10
10
10
10
10
10
10
10
10
10
10
10
10
10
10
10
10
10
10
10
10
10
10
10
10
10
10
10
10
10
10
10
10
10
10
10
10
10
10
10
10
10
10
10
10
10
10
10
10
10
10
10
10
10
10
10
10
10
10
10
10
10
10
10
10
10
10
10
10
10
10
10
10
10
10
10
10
10
10
10
10
10
10
10
10
10
10
10
10
10
10
10
10
10
10
10
10
10
10
10
10
10
10
10
10
10
10
10
10
10
10
10
10
10
10
10
10
10
10
10
10
10
10
10
10
10
10
10
10
10
10
10
10
10
10
10
10
10
10
10
10
10
10
10
10
10
10
10
10
10
10
10
10
10
10
10
10
10
10
10
10
10
10
10
10
10
10
10
10
10
10
10
10
10
10
10
10
10
10
10
10
10
10
10
10
10
10
10
10
10
10
10
10
10
10
10
10
10
10
10
10
10
10
10
10
10
10
10
10
10
10
10
10
10
10
10
10
10
10
10
10
10
10
10
10
10
10
10
10
10
10
10
10
10
10
10
10
10
10
10
10
10
10
10
10
10
10
10
10
10
10
10
10
10
10
10
10
10
10
10
10
10
10
10
10
10
10
10
10
10
10
10
10
10
10
10
10
10
10
10
10
10
10
10
10
10
10
10
10
10
10
10
10
10
10
10
10
10
10
10
10
10
10
10
10
10
10
10
10
10
10
10
10
10
10
10
10
10
10
10
10
10
10
10
10
10
10
10
10
10
10
10
10
10
10
10
10
10
10
10
10
10
10
10
10
10
10
10
10
10
10
10
10
10
10
10
10
10
10
10
10
10
10
10
10
10
10
10
10
10
10
10
10
10
10
10
10
10
10
10
10
10
10
10
10
10
10
10
10
10
10
10
10
10
10
10
10
10
10
10
10
10
10
10
10
10
10
10
10
10
10
10
10
10
10
10
10
10
10
10
10
10
10
10
10
10
10
10
10
10
10
10
10
10
10
10
10
10
10
10
10
10
10
10
10
10
10
10
10
10
10
10
10
10
10
10
10
10
10
10
10
10
10
10
10
10
10
10
10
10
10
10
10
10
10
10
10
10
10
10
10
10
10
10
10
10
10
10
10
10
10
10
10
10
10
10
10
10
10
10
10
10
10
10
10
10
10
10
10
10
10
10
10
10
10
10
10
10
10
10
10
10
10
10
10
10
10
10
10
10
10
10
10
10
10
10
10
10
10
10
10
10
10
10
10
10
10
10
10
10
10
10
10
10
10
10
10
10
10
10
10
10
10
10
10
10
10
10
10
10
10
10
10
10
10
10
10
10
10
10
10
10
10
10
10
10
10
10
10
10
10
10
10
10
10
10
10
10
10
10
10
10
10
10
10
10
10
10
10
10
10
10
10
10
10
10
10
10
10
10
10
10
10
10
10
10
10
10
10
10
10
10
10
10
10
10
10
10
10
10
10
10
10
10
10
10
10
10
10
10
10
10
10
10
10
10
10
10
10
10
10
10
10
10
10
10
10
10
10
10
10
10
10
10
10
10
10
10
10
10
10
10
10
10
10
10
10
10
10
10
10
10
10
10
10
10
10
10
10
10
10
10
10
10
10
10
10
10
10
10
10
10
10
10
10
10
10
10
10
10
10
10
10
10
10
10
10
10
10
10
10
10
10
10
10
10
10
10
10
10
10
10
10
10
10
10
10
10
10
10
10
10
10
10
10
10
10
10
10
10
10
10
10
10
10
10
10
10
10
10
10
10
10
10
10
10
10
10
10
10
10
10
10
10
10
10
10
10
10
10
10
10
10
10
10
10
10
10
10
10
10
10
10
10
10
10
10
10
10
10
10
10
10
10
10
10
10
10
10
10
10
10
10
10
10
10
10
10
10
10
10
10
10
10
10
10
10
10
10
10
10
10
10
10
10
10
10
10
10
10
10
10
10
10
10
10
10
10
10
10
10
10
10
10
10
10
10
10
10
10
10
10
10
10
10
10
10
10
10
10
10
10
10
10
10
10
10
10
10
10
10
10
10
10
10
10
10
10
10
10
10
10
10
10
10
10
10
10
10
10
10
10
10
10
10
10
10
10
10
10
10
10
10
10
10
10
10
10
10
10
10
10
10
10
10
10
10
10
10
10
10
10
10
10
10
10
10
10
10
10
10
10
10
10
10
10
10
10
10
10
10
10
10
10
10
10
10
10
10
10
10
10
10
10
10
10
10
10
10
10
10
10
10
10
10
10
10
10
10
10
10
10
10
10
10
10
10
10
10
10
10
10
10
10
10
10
10
10
10
10
10
10
10
10
10
10
10
10
10
10
10
10
10
10
10
10
10
10
10
10
10
10
10
10
10
10
10
10
10
10
10
10
10
10
10
10
10
10
10
10
10
10
10
10
10
10
10
10
10
10
10
10
10
10
10
10
10
10
10
10
10
10
10
10
10
10
10
10
10
10
10
10
10
10
10
10
10
10
10
10
10
10
10
10
10
10
10
10
10
10
10
10
10
10
10
10
10
10
10
10
10
10
10
10
10
10
10
10
10
10
10
10
10
10
10
10
10
10
10
10
10
10
10
10
10
10
10
10
10
10
10
10
10
10
10
10
10
10
10
10
10
10
10
10
10
10
10
10
10
10
10
10
10
10
10
10
10
10
10
10
10
10
10
10
10
10
10
10
10
10
10
10
10
10
10
10
10
10
10
10
10
10
10
10
10
10
10
10
10
10
10
10
10
10
10
10
10
10
10
10
10
10
10
10
10
10
10
10
10
10
10
10
10
10
10
10
10
10
10
10
10
10
10
10
10
10
10
10
10
10
10
10
10
10
10
10
10
10
10
10
10
10
10
10
10
10
10
10
10
10
10
10
10
10
10
10
10
10
10
10
10
10
10
10
10
10
10
10
10
10
10
10
10
10
10
10
10
10
10
10
10
10
10
10
10
10
10
10
10
10
10
10
10
10
10
10
10
10
10
10
10
10
10
10
10
10
10
10
10
10
10
10
10
10
10
10
10
10
10
10
10
10
10
10
10
10
10
10
10
10
10
10
10
10
10
10
10
10
10
10
10
10
10
10
10
10
10
10
10
10
10
10
10
10
10
10
10
10
10
10
10
10
10
10
10
10
10
10
10
10
10
10
10
10
10
10
10
10
10
10
10
10
10
10
10
10
10
10
10
10
10
10
10
10
10
10
10
10
10
10
10
10
10
10
10
10
10
10
10
10
10
10
10
10
10
10
10
10
10
10
10
10
10
10
10
10
10
10
10
10
10
10
10
10
10
10
10
10
10
10
10
10
10
10
10
10
10
10
10
10
10
10
10
10
10
10
10
10
10
10
10
10
10
10
10
10
10
10
10
10
10
10
10
10
10
10
10
10
10
10
10
10
10
10
10
10
10
10
10
10
10
10
10
10
10
10
10
10
10
10
10
10
10
10
10
10
10
10
10
10
10
10
10
10
10
10
10
10
10
10
10
10
10
10
10
10
10
10
10
10
10
10
10
10
10
10
10
10
10
10
10
10
10
10
10
10
10
10
10
10
10
10
10
10
10
10
10
10
10
10
10
10
10
10
10
10
10
10
10
10
10
10
10
10
10
10
10
10
10
10
10
10
10
10
10
10
10
10
10
10
10
10
10
10
10
10
10
10
10
10
10
10
10
10
10
10
10
10
10
10
10
10
10
10
10
10
10
10
10
10
10
10
10
10
10
10
10
10
10
10
10
10
10
10
10
10
10
10
10
10
10
10
10
10
10
10
10
10
10
10
10
10
10
10
10
10
10
10
10
10
10
10
10
10
10
10
10
10
10
10
10
10
10
10
10
10
10
10
10
10
10
10
10
10
10
10
10
10
10
10
10
10
10
10
10
10
10
10
10
10
10
10
10
10
10
10
10
10
10
10
10
10
10
10
10
10
10
10
10
10
10
10
10
10
10
10
10
10
10
10
10
10
10
10
10
10
10
10
10
10
10
10
10
10
10
10
10
10
10
10
10
10
10
10
10
10
10
10
10
10
10
10
10
10
10
10
10
10
10
10
10
10
10
10
10
10
10
10
10
10
10
10
10
10
10
10
10
10
10
10
10
10
10
10
10
10
10
10
10
10
10
10
10
10
10
10
10
10
10
10
10
10
10
10
10
10
10
10
10
10
10
10
10
10
10
10
10
10
10
10
10
10
10
10
10
10
10
10
10
10
10
10
10
10
10
10
10
10
10
10
10
10
10
10
10
10
10
10
10
10
10
10
10
10
10
10
10
10
10
10
10
10
10
10
10
10
10
10
10
10
10
10
10
10
10
10
10
10
10
10
10
10
10
10
10
10
10
10
10
10
10
10
10
10
10
10
10
10
10
10
10
10
10
10
10
10
10
10
10
10
10
10
10
10
10
10
10
10
10
10
10
10
10
10
10
10
10
10
10
10
10
10
10
10
10
10
10
10
10
10
10
10
10
10
10
10
10
10
10
10
10
10
10
10
10
10
10
10
10
10
10
10
10
10
10
10
10
10
10
10
10
10
10
10
10
10
10
10
10
10
10
10
10
10
10
10
10
10
10
10
10
10
10
10
10
10
10
10
10
10
10
10
10
10
10
10
10
10
10
10
10
10
10
10
10
10
10
10
10
10
10
10
10
10
10
10
10
10
10
10
10
10
10
10
10
10
10
10
10
10
10
10
10
10
10
10
10
10
10
10
10
10
10
10
10
10
10
10
10
10
10
10
10
10
10
10
10
10
10
10
10
10
10
10
10
10
10
10
10
10
10
10
10
10
10
10
10
10
10
10
10
10
10
10
10
10
10
10
10
10
10
10
10
10
10
10
10
10
10
10
10
10
10
10
10
10
10
10
10
10
10
10
10
10
10
10
10
10
10
10
10
10
10
10
10
10
10
10
10
10
10
10
10
10
10
10
10
10
10
10
10
10
10
10
10
10
10
10
10
10
10
10
10
10
10
10
10
10
10
10
10
10
10
10
10
10
10
10
10
10
10
10
10
10
10
10
10
10
10
10
10
10
10
10
10
10
10
10
10
10
10
10
10
10
10
10
10
10
10
10
10
10
10
10
10
10
10
10
10
10
10
10
10
10
10
10
10
10
10
10
10
10
10
10
10
10
10
10
10
10
10
10
10
10
10
10
10
10
10
10
10
10
10
10
10
10
10
10
10
10
10
10
10
10
10
10
10
10
10
10
10
10
10
10
10
10
10
10
10
10
10
10
10
10
10
10
10
10
10
10
10
10
10
10
10
10
10
10
10
10
10
10
10
10
10
10
10
10
10
10
10
10
10
10
10
10
10
10
10
10
10
10
10
10
10
10
10
10
10
10
10
10
10
10
10
10
10
10
10
10
10
10
10
10
10
10
10
10
10
10
10
10
10
10
10
10
10
10
10
10
10
10
10
10
10
10
10
10
10
10
10
10
10
10
10
10
10
10
10
10
10
10
10
10
10
10
10
10
10
10
10
10
10
10
10
10
10
10
10
10
10
10
10
10
10
10
10
10
10
10
10
10
10
10
10
10
10
10
10
10
10
10
10
10
10
10
10
10
10
10
10
10
10
10
10
10
10
10
10
10
10
10
10
10
10
10
10
10
10
10
10
10
10
10
10
10
10
10
10
10
10
10
10
10
10
10
10
10
10
10
10
10
10
10
10
10
10
10
10
10
10
10
10
10
10
10
10
10
10
10
10
10
10
10
10
10
10
10
10
10
10
10
10
10
10
10
10
10
10
10
10
10
10
10
10
10
10
10
10
10
10
10
10
10
10
10
10
10
10
10
10
10
10
10
10
10
10
10
10
10
10
10
10
10
10
10
10
10
10
10
10
10
10
10
10
10
10
10
10
10
10
10
10
10
10
10
10
10
10
10
10
10
10
10
10
10
10
10
10
10
10
10
10
10
10
10
10
10
10
10
10
10
10
10
10
10
10
10
10
10
10
10
10
10
10
10
10
10
10
10
10
10
10
10
10
10
10
10
10
10
10
10
10
10
10
10
10
10
10
10
10
10
10
10
10
10
10
10
10
10
10
10
10
10
10
10
10
10
10
10
10
10
10
10
10
10
10
10
10
10
10
10
10
10
10
10
10
10
10
10
10
10
10
10
10
10
10
10
10
10
10
10
10
10
10
10
10
10
10
10
10
10
10
10
10
10
10
10
10
10
10
10
10
10
10
10
10
10
10
10
10
10
10
10
10
10
10
10
10
10
10
10
10
10
10
10
10
10
10
10
10
10
10
10
10
10
10
10
10
10
10
10
10
10
10
10
10
10
10
10
10
10
10
10
10
10
10
10
10
10
10
10
10
10
10
10
10
10
10
10
10
10
10
10
10
10
10
10
10
10
10
10
10
10
10
10
10
10
10
10
10
10
10
10
10
10
10
10
10
10
10
10
10
10
10
10
10
10
10
10
10
10
10
10
10
10
10
10
10
10
10
10
10
10
10
10
10
10
10
10
10
10
10
10
10
10
10
10
10
10
10
10
10
10
10
10
10
10
10
10
10
10
10
10
10
10
10
10
10
10
10
10
10
10
10
10
10
10
10
10
10
10
10
10
10
10
10
10
10
10
10
10
10
10
10
10
10
10
10
10
10
10
10
10
10
10
10
10
10
10
10
10
10
10
10
10
10
10
10
10
10
10
10
10
10
10
10
10
10
10
10
10
10
10
10
10
10
10
10
10
10
10
10
10
10
10
10
10
10
10
10
10
10
10
10
10
10
10
10
10
10
10
10
10
10
10
10
10
10
10
10
10
10
10
10
10
10
10
10
10
10
10
10
10
10
10
10
10
10
10
10
10
10
10
10
10
10
10
10
10
10
10
10
10
10
10
10
10
10
10
10
10
10
10
10
10
10
10
10
10
10
10
10
10
10
10
10
10
10
10
10
10
10
10
10
10
10
10
10
10
10
10
10
10
10
10
10
10
10
10
10
10
10
10
10
10
10
10
10
10
10
10
10
10
10
10
10
10
10
10
10
10
10
10
10
10
10
10
10
10
10
10
10
10
10
10
10
10
10
10
10
10
10
10
10
10
10
10
10
10
10
10
10
10
10
10
10
10
10
10
10
10
10
10
10
10
10
10
10
10
10
10
10
10
10
10
10
10
10
10
10
10
10
10
10
10
10
10
10
10
10
10
10
10
10
10
10
10
10
10
10
10
10
10
10
10
10
10
10
10
10
10
10
10
10
10
10
10
10
10
10
10
10
10
10
10
10
10
10
10
10
10
10
10
10
10
10
10
10
10
10
10
10
10
10
10
10
10
10
10
10
10
10
10
10
10
10
10
10
10
10
10
10
10
10
10
10
10
10
10
10
10
10
10
10
10
10
10
10
10
10
10
10
10
10
10
10
10
10
10
10
10
10
10
10
10
10
10
10
10
10
10
10
10
10
10
10
10
10
10
10
10
10
10
10
10
10
10
10
10
10
10
10
10
10
10
10
10
10
10
10
10
10
10
10
10
10
10
10
10
10
10
10
10
10
10
10
10
10
10
10
10
10
10
10
10
10
10
10
10
10
10
10
10
10
10
10
10
10
10
10
10
10
10
10
10
10
10
10
10
10
10
10
10
10
10
10
10
10
10
10
10
10
10
10
10
10
10
10
10
10
10
10
10
10
10
10
10
10
10
10
10
10
10
10
10
10
10
10
10
10
10
10
10
10
10
10
10
10
10
10
10
10
10
10
10
10
10
10
10
10
10
10
10
10
10
10
10
10
10
10
10
10
10
10
10
10
10
10
10
10
10
10
10
10
10
10
10
10
10
10
10
10
10
10
10
10
10
10
10
10
10
10
10
10
10
10
10
10
10
10
10
10
10
10
10
10
10
10
10
10
10
10
10
10
10
10
10
10
10
10
10
10
10
10
10
10
10
10
10
10
10
10
10
10
10
10
10
10
10
10
10
10
10
10
10
10
10
10
10
10
10
10
10
10
10
10
10
10
10
10
10
10
10
10
10
10
10
10
10
10
10
10
10
10
10
10
10
10
10
10
10
10
10
10
10
10
10
10
10
10
10
10
10
10
10
10
10
10
10
10
10
10
10
10
10
10
10
10
10
10
10
10
10
10
10
10
10
10
10
10
10
10
10
10
10
10
10
10
10
10
10
10
10
10
10
10
10
10
10
10
10
10
10
10
10
10
10
10
10
10
10
10
10
10
10
10
10
10
10
10
10
10
10
10
10
10
10
10
10
10
10
10
10
10
10
10
10
10
10
10
10
10
10
10
10
10
10
10
10
10
10
10
10
10
10
10
10
10
10
10
10
10
10
10
10
10
10
10
10
10
10
10
10
10
10
10
10
10
10
10
10
10
10
10
10
10
10
10
10
10
10
10
10
10
10
10
10
10
10
10
10
10
10
10
10
10
10
10
10
10
10
10
10
10
10
10
10
10
10
10
10
10
10
10
10
10
10
10
10
10
10
10
10
10
10
10
10
10
10
10
10
10
10
10
10
10
10
10
10
10
10
10
10
10
10
10
10
10
10
10
10
10
10
10
10
10
10
10
10
10
10
10
10
10
10
10
10
10
10
10
10
10
10
10
10
10
10
10
10
10
10
10
10
10
10
10
10
10
10
10
10
10
10
10
10
10
10
10
10
10
10
10
10
10
10
10
10
10
10
10
10
10
10
10
10
10
10
10
10
10
10
10
10
10
10
10
10
10
10
10
10
10
10
10
10
10
10
10
10
10
10
10
10
10
10
10
10
10
10
10
10
10
10
10
10
10
10
10
10
10
10
10
10
10
10
10
10
10
10
10
10
10
10
10
10
10
10
10
10
10
10
10
10
10
10
10
10
10
10
10
10
10
10
10
10
10
10
10
10
10
10
10
10
10
10
10
10
10
10
10
10
10
10
10
10
10
10
10
10
10
10
10
10
10
10
10
10
10
10
10
10
10
10
10
10
10
10
10
10
10
10
10
10
10
10
10
10
10
10
10
10
10
10
10
10
10
10
10
10
10
10
10
10
10
10
10
10
10
10
10
10
10
10
10
10
10
10
10
10
10
10
10
10
10
10
10
10
10
10
10
10
10
10
10
10
10
10
10
10
10
10
10
10
10
10
10
10
10
10
10
10
10
10
10
10
10
10
10
10
10
10
10
10
10
10
10
10
10
10
10
10
10
10
10
10
10
10
10
10
10
10
10
10
10
10
10
10
10
10
10
10
10
10
10
POINT_DATA 6166
FIELD FieldData 5
DISPLACEMENT 3 6166  float
2.6954467e+00 2.4588702e+00 -2.5134853e-01 
2.6794786e+00 2.4428239e+00 -2.4919918e-01 
2.6948481e+00 2.4582226e+00 -2.5973275e-01 
2.6960077e+00 2.4594867e+00 -2.4163708e-01 
2.6709125e+00 2.4341719e+00 -2.5610861e-01 
2.6727033e+00 2.4360688e+00 -2.3838466e-01 
2.6634221e+00 2.4266887e+00 -2.4703783e-01 
2.6944263e+00 2.4577680e+00 -2.6531845e-01 
2.6960063e+00 2.4594915e+00 -2.4054068e-01 
2.6781306e+00 2.4413908e+00 -2.6348096e-01 
2.6792092e+00 2.4426126e+00 -2.3817919e-01 
2.6547990e+00 2.4179783e+00 -2.5412819e-01 
2.6548216e+00 2.4180992e+00 -2.3605280e-01 
2.6615591e+00 2.4247360e+00 -2.6161212e-01 
2.6472754e+00 2.4104629e+00 -2.4486428e-01 
2.6941600e+00 2.4574828e+00 -2.6851967e-01 
2.6621363e+00 2.4254565e+00 -2.3577902e-01 
2.6957717e+00 2.4592412e+00 -2.4321842e-01 
2.6691756e+00 2.4323733e+00 -2.6567557e-01 
2.6700935e+00 2.4334381e+00 -2.3958483e-01 
2.6385944e+00 2.4016936e+00 -2.5213614e-01 
2.6383803e+00 2.4015768e+00 -2.3388061e-01 
2.6447029e+00 2.4077952e+00 -2.5971067e-01 
2.6447785e+00 2.4080143e+00 -2.3333913e-01 
2.6310372e+00 2.3941450e+00 -2.4267842e-01 
2.6524529e+00 2.4155664e+00 -2.6380423e-01 
2.6940689e+00 2.4573896e+00 -2.6887375e-01 
2.6528697e+00 2.4161303e+00 -2.3720790e-01 
2.6953425e+00 2.4587793e+00 -2.4884593e-01 
2.6222975e+00 2.3853159e+00 -2.5013214e-01 
2.6232162e+00 2.3863351e+00 -2.3246478e-01 
2.6275530e+00 2.3905594e+00 -2.5777543e-01 
2.6605475e+00 2.4237001e+00 -2.6493207e-01 
2.6354408e+00 2.3984690e+00 -2.6189974e-01 
2.6271272e+00 2.3902774e+00 -2.3085852e-01 
2.6608982e+00 2.4241636e+00 -2.4464884e-01 
2.6749880e+00 2.4382145e+00 -2.6638457e-01 
2.6353564e+00 2.3985317e+00 -2.3479277e-01 
2.6147058e+00 2.3777339e+00 -2.4048018e-01 
2.6758723e+00 2.4391935e+00 -2.4991314e-01 
2.6454341e+00 2.4085102e+00 -2.6335445e-01 
2.6453967e+00 2.4085922e+00 -2.4148624e-01 
2.6939554e+00 2.4572723e+00 -2.6944113e-01 
2.6947639e+00 2.4581547e+00 -2.5669843e-01 
2.6059067e+00 2.3688445e+00 -2.4811639e-01 
2.6068404e+00 2.3698802e+00 -2.3021196e-01 
2.6101005e+00 2.3730199e+00 -2.5580519e-01 
2.6181304e+00 2.3810718e+00 -2.5996074e-01 
2.6091733e+00 2.3722365e+00 -2.2833571e-01 
2.6175447e+00 2.3806336e+00 -2.3233782e-01 
2.5982795e+00 2.3612285e+00 -2.3826884e-01 
2.6265299e+00 2.3895128e+00 -2.6096588e-01 
2.6258593e+00 2.3889532e+00 -2.4004127e-01 
2.6522152e+00 2.4153209e+00 -2.6494762e-01 
2.6745121e+00 2.4377227e+00 -2.6879492e-01 
2.6749041e+00 2.4381645e+00 -2.6008111e-01 
2.6518333e+00 2.4150000e+00 -2.5337356e-01 
2.5905015e+00 2.3534603e+00 -2.2836865e-01 
2.5894201e+00 2.3522775e+00 -2.4608777e-01 
2.6005123e+00 2.3633657e+00 -2.5798589e-01 
2.6108806e+00 2.3737843e+00 -2.5934130e-01 
2.5923357e+00 2.3551667e+00 -2.5379860e-01 
2.6936693e+00 2.4569678e+00 -2.7256808e-01 
2.6940429e+00 2.4573758e+00 -2.6665503e-01 
2.5994253e+00 2.3624268e+00 -2.2984299e-01 
2.6098242e+00 2.3728464e+00 -2.3677252e-01 
2.5909073e+00 2.3538828e+00 -2.2577062e-01 
2.5817575e+00 2.3446269e+00 -2.3604548e-01 
2.6179340e+00 2.3808684e+00 -2.6090819e-01 
2.5728374e+00 2.3356149e+00 -2.4404801e-01 
2.5738025e+00 2.3366840e+00 -2.2566590e-01 
2.5825772e+00 2.3453414e+00 -2.5597376e-01 
2.6165109e+00 2.3795023e+00 -2.4910757e-01 
2.5742488e+00 2.3369915e+00 -2.5175411e-01 
2.5913014e+00 2.3541090e+00 -2.5685036e-01 
2.5809889e+00 2.3439019e+00 -2.2730692e-01 
2.5723197e+00 2.3352063e+00 -2.2316036e-01 
2.5896077e+00 2.3525255e+00 -2.3529197e-01 
2.5651381e+00 2.3279281e+00 -2.3380876e-01 
2.6929815e+00 2.4562256e+00 -2.8185704e-01 
2.6655700e+00 2.4286761e+00 -2.7865493e-01 
2.5561562e+00 2.3188527e+00 -2.4199528e-01 
2.5571377e+00 2.3199396e+00 -2.2337224e-01 
2.5643148e+00 2.3269899e+00 -2.5392291e-01 
2.5732095e+00 2.3359282e+00 -2.5473267e-01 
2.5730059e+00 2.3358505e+00 -2.3191115e-01 
2.5558298e+00 2.3184834e+00 -2.4966997e-01 
2.5622258e+00 2.3250496e+00 -2.2472861e-01 
2.5484192e+00 2.3111305e+00 -2.3155911e-01 
2.6381588e+00 2.4011273e+00 -2.7545202e-01 
2.5783820e+00 2.3411236e+00 -2.5567612e-01 
2.5534008e+00 2.3161986e+00 -2.2050543e-01 
2.5964148e+00 2.3592281e+00 -2.6100597e-01 
2.5970044e+00 2.3598564e+00 -2.5452033e-01 
2.5799584e+00 2.3427701e+00 -2.4472667e-01 
2.5416379e+00 2.3043725e+00 -2.2032364e-01 
2.5393755e+00 2.3019927e+00 -2.3992868e-01 
2.5547857e+00 2.3174155e+00 -2.5257412e-01 
2.5457149e+00 2.3083005e+00 -2.5183231e-01 
2.6107497e+00 2.3735819e+00 -2.7224770e-01 
2.5370686e+00 2.2996325e+00 -2.4754719e-01 
2.5520675e+00 2.3148067e+00 -2.3039457e-01 
2.5431247e+00 2.3058600e+00 -2.2210537e-01 
2.5316007e+00 2.2942338e+00 -2.2929604e-01 
2.5341394e+00 2.2968476e+00 -2.1780385e-01 
2.5690229e+00 2.3317006e+00 -2.5783026e-01 
2.5379610e+00 2.3005090e+00 -2.5084168e-01 
2.5224934e+00 2.2850330e+00 -2.3785004e-01 
2.5239384e+00 2.2865925e+00 -2.1779235e-01 
2.5267668e+00 2.2892625e+00 -2.4969994e-01 
2.5348635e+00 2.2975290e+00 -2.2689356e-01 
2.5833459e+00 2.3460405e+00 -2.6903948e-01 
2.5456138e+00 2.3081939e+00 -2.5238562e-01 
2.5179539e+00 2.2804279e+00 -2.4538161e-01 
2.5146790e+00 2.2772353e+00 -2.2701897e-01 
2.5236764e+00 2.2863224e+00 -2.1943934e-01 
2.5421009e+00 2.3047304e+00 -2.4023059e-01 
2.5145242e+00 2.2771447e+00 -2.1505484e-01 
2.5055079e+00 2.2679706e+00 -2.3575759e-01 
2.5059304e+00 2.2685015e+00 -2.1553479e-01 
2.5168998e+00 2.2793512e+00 -2.4812618e-01 
2.5074599e+00 2.2698655e+00 -2.4752434e-01 
2.5559435e+00 2.3185031e+00 -2.6583058e-01 
2.4976542e+00 2.2601359e+00 -2.2472993e-01 
2.5131567e+00 2.2757168e+00 -2.2533982e-01 
2.4984748e+00 2.2608600e+00 -2.4317198e-01 
2.5038679e+00 2.2664263e+00 -2.1672545e-01 
2.4945464e+00 2.2570786e+00 -2.1225847e-01 
2.4884202e+00 2.2508070e+00 -2.3365122e-01 
2.4894657e+00 2.2519608e+00 -2.1405965e-01 
2.4994304e+00 2.2617991e+00 -2.4633062e-01 
2.5074136e+00 2.2698147e+00 -2.4788447e-01 
2.4877827e+00 2.2500994e+00 -2.4530263e-01 
2.4953110e+00 2.2577984e+00 -2.2171111e-01 
2.4805274e+00 2.2429345e+00 -2.2242950e-01 
2.5285525e+00 2.2909830e+00 -2.6262167e-01 
2.5028534e+00 2.2652993e+00 -2.3560977e-01 
2.4786208e+00 2.2409189e+00 -2.4091734e-01 
2.4836922e+00 2.2461622e+00 -2.1396850e-01 
2.4726899e+00 2.2351134e+00 -2.1208408e-01 
2.4712291e+00 2.2335439e+00 -2.3153472e-01 
2.4741952e+00 2.2366395e+00 -2.0941055e-01 
2.4775591e+00 2.2398324e+00 -2.4349171e-01 
2.4632950e+00 2.2256298e+00 -2.2011402e-01 
2.4677267e+00 2.2299564e+00 -2.4303497e-01 
2.4727924e+00 2.2351766e+00 -2.2012524e-01 
2.4583797e+00 2.2205913e+00 -2.3861608e-01 
2.4631388e+00 2.2255216e+00 -2.1116042e-01 
2.4869020e+00 2.2491953e+00 -2.4829663e-01 
2.5011752e+00 2.2634814e+00 -2.5941202e-01 
2.4539306e+00 2.2161708e+00 -2.2940415e-01 
2.4550080e+00 2.2173576e+00 -2.0932434e-01 
2.4534576e+00 2.2158167e+00 -2.0651090e-01 
2.4594054e+00 2.2216005e+00 -2.4163106e-01 
2.4677417e+00 2.2299681e+00 -2.4320935e-01 
2.4459560e+00 2.2082198e+00 -2.1778737e-01 
2.4472740e+00 2.2094178e+00 -2.4072090e-01 
2.4542665e+00 2.2165809e+00 -2.1636111e-01 
2.4621334e+00 2.2244027e+00 -2.3086269e-01 
2.4394343e+00 2.2017252e+00 -2.0635815e-01 
2.4532065e+00 2.2154315e+00 -2.3105189e-01 
2.4369500e+00 2.1991274e+00 -2.2606355e-01 
2.4377389e+00 2.1998651e+00 -2.3626667e-01 
2.4421873e+00 2.2044871e+00 -2.0830648e-01 
2.4738100e+00 2.2359910e+00 -2.5619626e-01 
2.4323206e+00 2.1945977e+00 -2.0356217e-01 
2.4285121e+00 2.1907082e+00 -2.1544787e-01 
2.4366670e+00 2.1987693e+00 -2.3866165e-01 
2.4264166e+00 2.1884747e+00 -2.3835541e-01 
2.4208131e+00 2.1830363e+00 -2.0352963e-01 
2.4190176e+00 2.1811175e+00 -2.2509925e-01 
2.4308763e+00 2.1930907e+00 -2.1473886e-01 
2.4166870e+00 2.1787295e+00 -2.3387028e-01 
2.4208300e+00 2.1830492e+00 -2.0539834e-01 
2.4109595e+00 2.1730888e+00 -2.1309336e-01 
2.4464598e+00 2.2085266e+00 -2.5298086e-01 
2.4107728e+00 2.1729696e+00 -2.0055866e-01 
2.4271109e+00 2.1891677e+00 -2.3898171e-01 
2.4156120e+00 2.1776285e+00 -2.3616976e-01 
2.4013960e+00 2.1634336e+00 -2.2292800e-01 
2.4051397e+00 2.1671154e+00 -2.3593605e-01 
2.4116247e+00 2.1737745e+00 -2.1083248e-01 
2.4017763e+00 2.1639316e+00 -2.0098558e-01 
2.4198403e+00 2.1819365e+00 -2.2598031e-01 
2.3952103e+00 2.1571717e+00 -2.3141946e-01 
2.3932931e+00 2.1553614e+00 -2.1072380e-01 
2.3990571e+00 2.1611996e+00 -2.0244522e-01 
2.3980331e+00 2.1599882e+00 -2.3375030e-01 
2.3888030e+00 2.1509256e+00 -1.9750388e-01 
2.3836644e+00 2.1456416e+00 -2.2073999e-01 
2.3848000e+00 2.1468914e+00 -1.9969216e-01 
2.4191391e+00 2.1811004e+00 -2.4976677e-01 
2.4049227e+00 2.1668799e+00 -2.3874339e-01 
2.3834348e+00 2.1453314e+00 -2.3346251e-01 
2.3782718e+00 2.1402819e+00 -2.1039757e-01 
2.3873155e+00 2.1493726e+00 -2.0917822e-01 
2.3755209e+00 2.1375339e+00 -2.0834371e-01 
2.3733008e+00 2.1351895e+00 -2.2890836e-01 
2.3768592e+00 2.1389277e+00 -1.9944724e-01 
2.3658245e+00 2.1277461e+00 -2.1854016e-01 
2.3668809e+00 2.1289189e+00 -1.9752358e-01 
2.3722129e+00 2.1340749e+00 -2.3100632e-01 
2.3664002e+00 2.1284561e+00 -1.9439861e-01 
2.3804986e+00 2.1423755e+00 -2.3440495e-01 
2.3799899e+00 2.1419239e+00 -2.2435805e-01 
2.3918304e+00 2.1536844e+00 -2.4654229e-01 
2.3612926e+00 2.1231153e+00 -2.3093234e-01 
2.3576391e+00 2.1196012e+00 -2.0595761e-01 
2.3648932e+00 2.1268809e+00 -2.0633851e-01 
2.3509469e+00 2.1127653e+00 -2.2634554e-01 
2.3510609e+00 2.1130612e+00 -1.9424507e-01 
2.3478830e+00 2.1097538e+00 -2.1632442e-01 
2.3542187e+00 2.1162257e+00 -1.9638836e-01 
2.3498547e+00 2.1116462e+00 -2.2834760e-01 
2.3435585e+00 2.1055517e+00 -1.9123667e-01 
2.3396585e+00 2.1015677e+00 -2.0356016e-01 
2.3386922e+00 2.1004510e+00 -2.2834469e-01 
2.3526728e+00 2.1145232e+00 -2.2088940e-01 
2.3504522e+00 2.1122379e+00 -2.3001772e-01 
2.3645601e+00 2.1263213e+00 -2.4331927e-01 
2.3420243e+00 2.1039503e+00 -2.0344976e-01 
2.3310108e+00 2.0929492e+00 -1.9235031e-01 
2.3296909e+00 2.0915158e+00 -2.1271700e-01 
2.3281279e+00 2.0898893e+00 -2.2373076e-01 
2.3311307e+00 2.0930812e+00 -1.9328590e-01 
2.3215601e+00 2.0834260e+00 -2.0114404e-01 
2.3303587e+00 2.0921011e+00 -2.2572497e-01 
2.3202565e+00 2.0821965e+00 -1.8802330e-01 
2.3156276e+00 2.0773292e+00 -2.2570007e-01 
2.3116672e+00 2.0734484e+00 -2.1186554e-01 
2.3128517e+00 2.0747561e+00 -1.8987614e-01 
2.3186984e+00 2.0805712e+00 -2.0051844e-01 
2.3266478e+00 2.0884268e+00 -2.1847388e-01 
2.3373322e+00 2.0990129e+00 -2.4010003e-01 
2.3048403e+00 2.0665474e+00 -2.2105724e-01 
2.3218737e+00 2.0835829e+00 -2.2735649e-01 
2.3033485e+00 2.0651827e+00 -1.9870989e-01 
2.3075776e+00 2.0694809e+00 -1.9013079e-01 
2.3063376e+00 2.0680285e+00 -2.2280331e-01 
2.2933855e+00 2.0551369e+00 -2.0961155e-01 
2.2945836e+00 2.0564651e+00 -1.8739095e-01 
2.2964842e+00 2.0583823e+00 -1.8475133e-01 
2.2920802e+00 2.0537341e+00 -2.2299661e-01 
2.2949011e+00 2.0567317e+00 -1.9754158e-01 
2.2850237e+00 2.0468354e+00 -1.9627263e-01 
2.3006599e+00 2.0623932e+00 -2.1436587e-01 
2.3101516e+00 2.0717642e+00 -2.3687899e-01 
2.2810605e+00 2.0427263e+00 -2.1832401e-01 
2.2835431e+00 2.0454121e+00 -1.8692164e-01 
2.2954812e+00 2.0571365e+00 -2.2445220e-01 
2.2749939e+00 2.0367181e+00 -2.0734373e-01 
2.2762072e+00 2.0380647e+00 -1.8489644e-01 
2.2813137e+00 2.0429623e+00 -2.1981320e-01 
2.2722223e+00 2.0340941e+00 -1.8142176e-01 
2.2665882e+00 2.0283761e+00 -1.9382894e-01 
2.2680318e+00 2.0296524e+00 -2.2023064e-01 
2.2706139e+00 2.0324137e+00 -1.9451775e-01 
2.2564945e+00 2.0181999e+00 -2.0506689e-01 
2.2577176e+00 2.0195525e+00 -1.8238452e-01 
2.2567711e+00 2.0184124e+00 -2.1553284e-01 
2.2830215e+00 2.0445802e+00 -2.3365766e-01 
2.2590115e+00 2.0208609e+00 -1.8365823e-01 
2.2699792e+00 2.0316739e+00 -2.0968635e-01 
2.2693005e+00 2.0309129e+00 -2.2161463e-01 
2.2480373e+00 2.0098119e+00 -1.9136283e-01 
2.2558818e+00 2.0175014e+00 -2.1676905e-01 
2.2474561e+00 2.0093167e+00 -1.7803890e-01 
2.2434721e+00 2.0050721e+00 -2.1739638e-01 
2.2494779e+00 2.0112505e+00 -1.9363976e-01 
2.2378676e+00 1.9995662e+00 -2.0277549e-01 
2.2391109e+00 2.0009465e+00 -1.7988001e-01 
2.2319632e+00 1.9935927e+00 -2.1267186e-01 
2.2559369e+00 2.0174537e+00 -2.3045777e-01 
2.2293711e+00 1.9911507e+00 -1.8890719e-01 
2.2339754e+00 1.9958177e+00 -1.8034083e-01 
2.2427509e+00 2.0043380e+00 -2.1839684e-01 
2.2404199e+00 2.0020747e+00 -2.0814152e-01 
2.2303631e+00 1.9919668e+00 -2.1372336e-01 
2.2191370e+00 1.9808394e+00 -2.0048459e-01 
2.2203836e+00 1.9822285e+00 -1.7735821e-01 
2.2221832e+00 1.9840438e+00 -1.7458929e-01 
2.2183869e+00 1.9799818e+00 -2.1449482e-01 
2.2241347e+00 1.9858938e+00 -1.9168229e-01 
2.2105849e+00 1.9723706e+00 -1.8643188e-01 
2.2066333e+00 1.9682611e+00 -2.0974691e-01 
2.2071762e+00 1.9689456e+00 -1.8831587e-01 
2.2289114e+00 1.9904131e+00 -2.2725640e-01 
2.2084179e+00 1.9702690e+00 -1.7696913e-01 
2.2165043e+00 1.9780828e+00 -2.1482199e-01 
2.2002885e+00 1.9620003e+00 -1.9815931e-01 
2.2015402e+00 1.9633907e+00 -1.7481810e-01 
2.2046237e+00 1.9662294e+00 -2.1068956e-01 
2.2135451e+00 1.9751872e+00 -2.0579410e-01 
2.1963751e+00 1.9582540e+00 -1.7108992e-01 
2.1916885e+00 1.9534850e+00 -1.8393289e-01 
2.1927567e+00 1.9543626e+00 -2.1152881e-01 
2.1979132e+00 1.9596887e+00 -1.8861805e-01 
2.1813152e+00 1.9430435e+00 -1.9583680e-01 
2.1825931e+00 1.9444630e+00 -1.7227881e-01 
2.1807282e+00 1.9423858e+00 -2.0674652e-01 
2.2019296e+00 1.9634269e+00 -2.2405802e-01 
2.1823187e+00 1.9441979e+00 -1.7354421e-01 
2.1901195e+00 1.9517072e+00 -2.1161537e-01 
2.1726692e+00 1.9344945e+00 -1.8144019e-01 
2.1785431e+00 1.9401740e+00 -2.0759518e-01 
2.1871846e+00 1.9488342e+00 -2.0383871e-01 
2.1680908e+00 1.9298759e+00 -1.8949859e-01 
2.1700180e+00 1.9319396e+00 -1.6751663e-01 
2.1665606e+00 1.9282002e+00 -2.0848665e-01 
2.1622293e+00 1.9239979e+00 -1.9350509e-01 
2.1708145e+00 1.9326228e+00 -1.8598890e-01 
2.1612535e+00 1.9231697e+00 -1.6846499e-01 
2.1542640e+00 1.9159647e+00 -2.0368706e-01 
2.1535246e+00 1.9153942e+00 -1.7892832e-01 
2.1750288e+00 1.9365522e+00 -2.2086219e-01 
2.1556861e+00 1.9176092e+00 -1.7146632e-01 
2.1628556e+00 1.9244896e+00 -2.0802213e-01 
2.1529491e+00 1.9146173e+00 -2.0472014e-01 
2.1616316e+00 1.9233041e+00 -2.0326829e-01 
2.1430860e+00 1.9049003e+00 -1.9107966e-01 
2.1443751e+00 1.9063299e+00 -1.6719490e-01 
2.1430974e+00 1.9050776e+00 -1.6388948e-01 
2.1399112e+00 1.9016101e+00 -2.0538068e-01 
2.1343985e+00 1.8963141e+00 -1.7643079e-01 
2.1385288e+00 1.9004040e+00 -1.8235639e-01 
2.1274302e+00 1.8892032e+00 -2.0058157e-01 
2.1482229e+00 1.9097981e+00 -2.1766604e-01 
2.1240218e+00 1.8858801e+00 -1.8860973e-01 
2.1253202e+00 1.8873199e+00 -1.6471744e-01 
2.1288218e+00 1.8908225e+00 -1.6635317e-01 
2.1348591e+00 1.8965918e+00 -2.0010641e-01 
2.1302023e+00 1.8919122e+00 -2.0426083e-01 
2.1215384e+00 1.8832966e+00 -2.0095353e-01 
2.1154003e+00 1.8773663e+00 -1.7396124e-01 
2.1162999e+00 1.8783555e+00 -1.6027622e-01 
2.1133099e+00 1.8750838e+00 -2.0230779e-01 
2.1137853e+00 1.8757703e+00 -1.7444284e-01 
2.1050994e+00 1.8670179e+00 -1.8615101e-01 
2.1053848e+00 1.8674488e+00 -1.6104105e-01 
2.1010380e+00 1.8628870e+00 -1.9752370e-01 
2.1214771e+00 1.8831254e+00 -2.1448064e-01 
2.1022270e+00 1.8643206e+00 -1.6264740e-01 
2.0965345e+00 1.8585660e+00 -1.7150201e-01 
2.0990756e+00 1.8608989e+00 -1.9845743e-01 
2.1062427e+00 1.8681210e+00 -1.8987663e-01 
2.1076732e+00 1.8694447e+00 -2.0388654e-01 
2.0971313e+00 1.8589623e+00 -1.9819136e-01 
2.0898974e+00 1.8520494e+00 -1.5674950e-01 
2.0862935e+00 1.8482841e+00 -1.8370391e-01 
2.0875928e+00 1.8497216e+00 -1.5983401e-01 
2.0871480e+00 1.8489993e+00 -1.9926855e-01 
2.0874259e+00 1.8495115e+00 -1.7050405e-01 
2.0778029e+00 1.8399154e+00 -1.6907580e-01 
2.0750823e+00 1.8370231e+00 -1.9449651e-01 
2.0948033e+00 1.8565456e+00 -2.1133570e-01 
2.0760396e+00 1.8382413e+00 -1.5902443e-01 
2.0711195e+00 1.8333325e+00 -1.5630183e-01 
2.0676451e+00 1.8297174e+00 -1.8127304e-01 
2.0731473e+00 1.8350576e+00 -1.9547264e-01 
2.0810392e+00 1.8429022e+00 -2.0074609e-01 
2.0814893e+00 1.8434002e+00 -1.9380927e-01 
2.0639002e+00 1.8261638e+00 -1.5329164e-01 
2.0721409e+00 1.8341770e+00 -1.8063246e-01 
2.0614128e+00 1.8233722e+00 -1.9627199e-01 
2.0592210e+00 1.8214092e+00 -1.6666646e-01 
2.0668240e+00 1.8287618e+00 -1.9457357e-01 
2.0614755e+00 1.8236805e+00 -1.6665611e-01 
2.0491192e+00 1.8112701e+00 -1.7886890e-01 
2.0495441e+00 1.8116069e+00 -1.9152702e-01 
2.0681660e+00 1.8300002e+00 -2.0814353e-01 
2.0502532e+00 1.8125830e+00 -1.5547982e-01 
2.0471120e+00 1.8094400e+00 -1.5291834e-01 
2.0476470e+00 1.8096792e+00 -1.9254018e-01 
2.0407450e+00 1.8030386e+00 -1.6428617e-01 
2.0544512e+00 1.8164062e+00 -1.9760546e-01 
2.0548911e+00 1.8168967e+00 -1.9067322e-01 
2.0382953e+00 1.8007017e+00 -1.4990172e-01 
2.0360997e+00 1.7981923e+00 -1.9332123e-01 
2.0307188e+00 1.7929816e+00 -1.7646864e-01 
2.0320125e+00 1.7944095e+00 -1.5269697e-01 
2.0413513e+00 1.8035578e+00 -1.7492630e-01 
2.0403273e+00 1.8023922e+00 -1.9138928e-01 
2.0359235e+00 1.7982731e+00 -1.6289872e-01 
2.0277040e+00 1.7900717e+00 -1.6262332e-01 
2.0244355e+00 1.7866431e+00 -1.8859747e-01 
2.0224168e+00 1.7848158e+00 -1.6193327e-01 
2.0416160e+00 1.8035591e+00 -2.0496657e-01 
2.0227025e+00 1.7851915e+00 -1.4826141e-01 
2.0248666e+00 1.7873429e+00 -1.5201867e-01 
2.0225728e+00 1.7847446e+00 -1.8965733e-01 
2.0279706e+00 1.7900685e+00 -1.9447331e-01 
2.0283973e+00 1.7905513e+00 -1.8755592e-01 
2.0124691e+00 1.7748566e+00 -1.7409240e-01 
2.0137362e+00 1.7762557e+00 -1.5037440e-01 
2.0121741e+00 1.7745972e+00 -1.6691460e-01 
2.0130730e+00 1.7756419e+00 -1.4659856e-01 
2.0122674e+00 1.7746691e+00 -1.7030862e-01 
2.0112252e+00 1.7734632e+00 -1.9040520e-01 
2.0149279e+00 1.7773091e+00 -1.7187455e-01 
2.0139344e+00 1.7761630e+00 -1.8821773e-01 
2.0107763e+00 1.7732892e+00 -1.5924940e-01 
2.0042331e+00 1.7667589e+00 -1.5958939e-01 
2.0045052e+00 1.7671227e+00 -1.4595935e-01 
1.9997462e+00 1.7621177e+00 -1.8568559e-01 
1.9974254e+00 1.7600574e+00 -1.4919426e-01 
1.9998529e+00 1.7625113e+00 -1.4862274e-01 
2.0151725e+00 1.7772721e+00 -2.0180134e-01 
1.9968758e+00 1.7594528e+00 -1.5881734e-01 
1.9943566e+00 1.7568660e+00 -1.7173077e-01 
1.9979310e+00 1.7602729e+00 -1.8684575e-01 
2.0015945e+00 1.7638761e+00 -1.9135615e-01 
2.0020099e+00 1.7643508e+00 -1.8445392e-01 
1.9861919e+00 1.7488546e+00 -1.5729629e-01 
1.9882560e+00 1.7510163e+00 -1.4336149e-01 
1.9867303e+00 1.7491539e+00 -1.8752955e-01 
1.9860101e+00 1.7487168e+00 -1.5563338e-01 
1.9886047e+00 1.7511687e+00 -1.6886531e-01 
1.9876387e+00 1.7500573e+00 -1.8508285e-01 
1.9763919e+00 1.7390437e+00 -1.6940857e-01 
1.9780730e+00 1.7408013e+00 -1.5745917e-01 
1.9776417e+00 1.7404444e+00 -1.4582838e-01 
1.9754544e+00 1.7380081e+00 -1.8284556e-01 
1.9752312e+00 1.7380787e+00 -1.4530754e-01 
1.9888420e+00 1.7511282e+00 -1.9864346e-01 
1.9736803e+00 1.7362045e+00 -1.8404941e-01 
1.9682835e+00 1.7310985e+00 -1.5500714e-01 
1.9685520e+00 1.7314578e+00 -1.4138678e-01 
1.9632943e+00 1.7260623e+00 -1.6548993e-01 
1.9626700e+00 1.7252800e+00 -1.8470465e-01 
1.9638031e+00 1.7267661e+00 -1.4019538e-01 
1.9753318e+00 1.7378097e+00 -1.8824817e-01 
1.9757370e+00 1.7382748e+00 -1.8135989e-01 
1.9608755e+00 1.7237462e+00 -1.5521638e-01 
1.9597659e+00 1.7225995e+00 -1.6231316e-01 
1.9585429e+00 1.7213551e+00 -1.6709711e-01 
1.9597952e+00 1.7227604e+00 -1.4358306e-01 
1.9616092e+00 1.7245300e+00 -1.5212187e-01 
1.9623765e+00 1.7251662e+00 -1.6584274e-01 
1.9614351e+00 1.7240739e+00 -1.8194583e-01 
1.9515734e+00 1.7143327e+00 -1.8003659e-01 
1.9505023e+00 1.7134906e+00 -1.5275383e-01 
1.9507731e+00 1.7138520e+00 -1.3915506e-01 
1.9510046e+00 1.7140862e+00 -1.4208212e-01 
1.9498131e+00 1.7125413e+00 -1.8133134e-01 
1.9626136e+00 1.7251071e+00 -1.9549334e-01 
1.9408302e+00 1.7038151e+00 -1.6480957e-01 
1.9420904e+00 1.7052262e+00 -1.4136647e-01 
1.9399176e+00 1.7029451e+00 -1.5852030e-01 
1.9389951e+00 1.7018269e+00 -1.8192464e-01 
1.9397249e+00 1.7029239e+00 -1.3707305e-01 
1.9491557e+00 1.7118572e+00 -1.8514672e-01 
1.9495525e+00 1.7123147e+00 -1.7827553e-01 
1.9328514e+00 1.6960151e+00 -1.5054131e-01 
1.9375701e+00 1.7007208e+00 -1.4868881e-01 
1.9331247e+00 1.6963766e+00 -1.3694187e-01 
1.9280673e+00 1.6910535e+00 -1.7726661e-01 
1.9362382e+00 1.6992767e+00 -1.6284117e-01 
1.9353195e+00 1.6982021e+00 -1.7881410e-01 
1.9244895e+00 1.6878067e+00 -1.3916932e-01 
1.9271058e+00 1.6904111e+00 -1.3886683e-01 
1.9263155e+00 1.6892765e+00 -1.7866194e-01 
1.9211679e+00 1.6843290e+00 -1.6471270e-01 
1.9202116e+00 1.6834340e+00 -1.5734406e-01 
1.9364814e+00 1.6992077e+00 -1.9235542e-01 
1.9153330e+00 1.6786783e+00 -1.4832146e-01 
1.9156635e+00 1.6787362e+00 -1.7919581e-01 
1.9156055e+00 1.6790416e+00 -1.3473988e-01 
1.9159876e+00 1.6794319e+00 -1.3401406e-01 
1.9230870e+00 1.6860380e+00 -1.8205589e-01 
1.9234741e+00 1.6864862e+00 -1.7520870e-01 
1.9138678e+00 1.6772846e+00 -1.4533928e-01 
1.9057920e+00 1.6691451e+00 -1.6030271e-01 
1.9070352e+00 1.6705452e+00 -1.3699958e-01 
1.9049242e+00 1.6681634e+00 -1.7454915e-01 
1.9115208e+00 1.6746429e+00 -1.7559263e-01 
1.9102198e+00 1.6735169e+00 -1.5985735e-01 
1.9032109e+00 1.6664170e+00 -1.7599893e-01 
1.9035478e+00 1.6671358e+00 -1.3575868e-01 
1.8979244e+00 1.6614631e+00 -1.4615200e-01 
1.8981894e+00 1.6618342e+00 -1.3254501e-01 
1.9104574e+00 1.6734464e+00 -1.8922959e-01 
1.8927094e+00 1.6560450e+00 -1.7650363e-01 
1.8903232e+00 1.6538317e+00 -1.6149199e-01 
1.8925998e+00 1.6563419e+00 -1.3102512e-01 
1.8892587e+00 1.6528372e+00 -1.5269580e-01 
1.8896749e+00 1.6533825e+00 -1.3485093e-01 
1.8905281e+00 1.6542159e+00 -1.4201987e-01 
1.8971244e+00 1.6603595e+00 -1.7897445e-01 
1.8975009e+00 1.6607990e+00 -1.7215516e-01 
1.8821356e+00 1.6456444e+00 -1.7186335e-01 
1.8806398e+00 1.6443887e+00 -1.4396894e-01 
1.8809135e+00 1.6447706e+00 -1.3042925e-01 
1.8865416e+00 1.6499450e+00 -1.7243287e-01 
1.8803416e+00 1.6442115e+00 -1.3270295e-01 
1.8843175e+00 1.6479110e+00 -1.5692854e-01 
1.8776040e+00 1.6411132e+00 -1.7250174e-01 
1.8729666e+00 1.6367562e+00 -1.5085728e-01 
1.8713348e+00 1.6350809e+00 -1.5945289e-01 
1.8724654e+00 1.6363925e+00 -1.3273627e-01 
1.8701208e+00 1.6337399e+00 -1.7383988e-01 
1.8845543e+00 1.6478438e+00 -1.8611637e-01 
1.8695443e+00 1.6335820e+00 -1.2810645e-01 
1.8634923e+00 1.6274709e+00 -1.4182878e-01 
1.8637673e+00 1.6278510e+00 -1.2832396e-01 
1.8675231e+00 1.6315113e+00 -1.3877924e-01 
1.8597113e+00 1.6234946e+00 -1.6924217e-01 
1.8712990e+00 1.6348524e+00 -1.7591169e-01 
1.8716670e+00 1.6352806e+00 -1.6912737e-01 
1.8580546e+00 1.6218177e+00 -1.7077667e-01 
1.8553720e+00 1.6195339e+00 -1.3063979e-01 
1.8574671e+00 1.6216559e+00 -1.2968498e-01 
1.8525327e+00 1.6165446e+00 -1.5623134e-01 
1.8579377e+00 1.6217101e+00 -1.6879235e-01 
1.8585312e+00 1.6224515e+00 -1.5400267e-01 
1.8478749e+00 1.6117779e+00 -1.7123990e-01 
1.8464575e+00 1.6106725e+00 -1.3971807e-01 
1.8467410e+00 1.6110518e+00 -1.2620938e-01 
1.8468271e+00 1.6111517e+00 -1.2520729e-01 
1.8587871e+00 1.6224171e+00 -1.8302418e-01 
1.8448534e+00 1.6091545e+00 -1.3560721e-01 
1.8397326e+00 1.6039673e+00 -1.4813876e-01 
1.8374963e+00 1.6017478e+00 -1.5120851e-01 
1.8376117e+00 1.6017231e+00 -1.6663760e-01 
1.8383874e+00 1.6027904e+00 -1.2856974e-01 
1.8384755e+00 1.6027504e+00 -1.4358561e-01 
1.8377187e+00 1.6019052e+00 -1.5522398e-01 
1.8455939e+00 1.6095088e+00 -1.7286029e-01 
1.8459558e+00 1.6099250e+00 -1.6611303e-01 
1.8349483e+00 1.5994316e+00 -1.2679745e-01 
1.8340492e+00 1.5981560e+00 -1.6699502e-01 
1.8295271e+00 1.5939924e+00 -1.3763908e-01 
1.8298227e+00 1.5943741e+00 -1.2413368e-01 
1.8259603e+00 1.5901853e+00 -1.6862813e-01 
1.8332039e+00 1.5974979e+00 -1.4958781e-01 
1.8244405e+00 1.5890993e+00 -1.2240989e-01 
1.8203193e+00 1.5848260e+00 -1.4935073e-01 
1.8210834e+00 1.5855869e+00 -1.4508298e-01 
1.8215396e+00 1.5861845e+00 -1.2652941e-01 
1.8257602e+00 1.5900003e+00 -1.6600430e-01 
1.8222486e+00 1.5868529e+00 -1.3458964e-01 
1.8331519e+00 1.5971469e+00 -1.7994854e-01 
1.8158581e+00 1.5802888e+00 -1.6403735e-01 
1.8127379e+00 1.5774496e+00 -1.3560215e-01 
1.8142951e+00 1.5786812e+00 -1.6570747e-01 
1.8130378e+00 1.5778399e+00 -1.2210213e-01 
1.8127174e+00 1.5775411e+00 -1.2390935e-01 
1.8200285e+00 1.5843061e+00 -1.6982807e-01 
1.8203813e+00 1.5847143e+00 -1.6310555e-01 
1.8040524e+00 1.5687739e+00 -1.5093471e-01 
1.8048052e+00 1.5697004e+00 -1.2451026e-01 
1.8043933e+00 1.5689547e+00 -1.6608362e-01 
1.8025689e+00 1.5673715e+00 -1.4303707e-01 
1.8023560e+00 1.5673516e+00 -1.1964227e-01 
1.8073255e+00 1.5719979e+00 -1.4816497e-01 
1.8021423e+00 1.5667386e+00 -1.6183640e-01 
1.7960690e+00 1.5610353e+00 -1.3355106e-01 
1.8005003e+00 1.5654606e+00 -1.2948917e-01 
1.7963736e+00 1.5614395e+00 -1.2007874e-01 
1.7944342e+00 1.5592043e+00 -1.6151163e-01 
1.8075911e+00 1.5719705e+00 -1.7689620e-01 
1.7928936e+00 1.5576406e+00 -1.6324572e-01 
1.7908139e+00 1.5559832e+00 -1.2105852e-01 
1.7881911e+00 1.5533527e+00 -1.2249865e-01 
1.7983387e+00 1.5629637e+00 -1.6559117e-01 
1.7857782e+00 1.5508000e+00 -1.4925385e-01 
1.7974248e+00 1.5620891e+00 -1.6232876e-01 
1.7841771e+00 1.5492648e+00 -1.4183657e-01 
1.7831320e+00 1.5480489e+00 -1.6359906e-01 
1.7795042e+00 1.5447457e+00 -1.3151650e-01 
1.7798311e+00 1.5451603e+00 -1.1807262e-01 
1.7805866e+00 1.5459381e+00 -1.1690063e-01 
1.7733207e+00 1.5384539e+00 -1.5900967e-01 
1.7811314e+00 1.5460652e+00 -1.6038202e-01 
1.7740251e+00 1.5392807e+00 -1.4044593e-01 
1.7768129e+00 1.5421768e+00 -1.2494572e-01 
1.7716811e+00 1.5371239e+00 -1.2050645e-01 
1.7717980e+00 1.5369093e+00 -1.6082075e-01 
1.7681189e+00 1.5334468e+00 -1.4598525e-01 
1.7821211e+00 1.5468947e+00 -1.7382303e-01 
1.7691998e+00 1.5347512e+00 -1.1831313e-01 
1.7689543e+00 1.5341306e+00 -1.5814127e-01 
1.7666528e+00 1.5319425e+00 -1.4928190e-01 
1.7630594e+00 1.5285940e+00 -1.2949471e-01 
1.7633792e+00 1.5289999e+00 -1.1606715e-01 
1.7621846e+00 1.5274515e+00 -1.6107878e-01 
1.7660385e+00 1.5314800e+00 -1.3592139e-01 
1.7691004e+00 1.5341884e+00 -1.6378677e-01 
1.7591088e+00 1.5248320e+00 -1.1426079e-01 
1.7694278e+00 1.5345776e+00 -1.5714638e-01 
1.7551242e+00 1.5207181e+00 -1.3795401e-01 
1.7541139e+00 1.5197256e+00 -1.4094038e-01 
1.7553055e+00 1.5210401e+00 -1.1856119e-01 
1.7525139e+00 1.5180063e+00 -1.5655047e-01 
1.7573206e+00 1.5230337e+00 -1.2358002e-01 
1.7510129e+00 1.5164884e+00 -1.5839051e-01 
1.7558095e+00 1.5211877e+00 -1.5731719e-01 
1.7467349e+00 1.5125655e+00 -1.2755038e-01 
1.7470587e+00 1.5129701e+00 -1.1411658e-01 
1.7478820e+00 1.5138129e+00 -1.1555994e-01 
1.7432888e+00 1.5091395e+00 -1.3293153e-01 
1.7567723e+00 1.5219961e+00 -1.7075907e-01 
1.7415491e+00 1.5071907e+00 -1.5865895e-01 
1.7394631e+00 1.5053129e+00 -1.4243683e-01 
1.7390311e+00 1.5050604e+00 -1.1662972e-01 
1.7380199e+00 1.5038766e+00 -1.4188203e-01 
1.7379168e+00 1.5040263e+00 -1.1166966e-01 
1.7320138e+00 1.4978962e+00 -1.5408540e-01 
1.7438498e+00 1.5094093e+00 -1.6079603e-01 
1.7361597e+00 1.5022657e+00 -1.2072379e-01 
1.7305248e+00 1.4966515e+00 -1.2558810e-01 
1.7308497e+00 1.4970734e+00 -1.1217599e-01 
1.7400732e+00 1.5058227e+00 -1.4837731e-01 
1.7305236e+00 1.4963869e+00 -1.5599845e-01 
1.7312661e+00 1.4973836e+00 -1.2955336e-01 
1.7268456e+00 1.4931668e+00 -1.1292384e-01 
1.7279048e+00 1.4938300e+00 -1.5295422e-01 
1.7306235e+00 1.4964881e+00 -1.5429035e-01 
1.7228754e+00 1.4892097e+00 -1.1470775e-01 
1.7214248e+00 1.4876163e+00 -1.4158127e-01 
1.7211727e+00 1.4872303e+00 -1.5623623e-01 
1.7194456e+00 1.4857148e+00 -1.3441233e-01 
1.7316335e+00 1.4973328e+00 -1.6776291e-01 
1.7170169e+00 1.4835423e+00 -1.0908878e-01 
1.7144148e+00 1.4808595e+00 -1.2363409e-01 
1.7147511e+00 1.4812852e+00 -1.1026950e-01 
1.7117929e+00 1.4780713e+00 -1.5172222e-01 
1.7152895e+00 1.4818172e+00 -1.1791733e-01 
1.7122444e+00 1.4787117e+00 -1.2878561e-01 
1.7103807e+00 1.4766206e+00 -1.5362430e-01 
1.7187505e+00 1.4848121e+00 -1.5776999e-01 
1.7190642e+00 1.4851762e+00 -1.5122716e-01 
1.7068191e+00 1.4734802e+00 -1.1280741e-01 
1.7060865e+00 1.4728519e+00 -1.1033649e-01 
1.7028341e+00 1.4694759e+00 -1.2881929e-01 
1.7011725e+00 1.4677795e+00 -1.3894159e-01 
1.7011464e+00 1.4675767e+00 -1.5382685e-01 
1.7098942e+00 1.4762928e+00 -1.3892782e-01 
1.6984401e+00 1.4652200e+00 -1.2168828e-01 
1.7055631e+00 1.4719282e+00 -1.5127377e-01 
1.6987679e+00 1.4656430e+00 -1.0838281e-01 
1.6963898e+00 1.4633390e+00 -1.0660904e-01 
1.6918763e+00 1.4585726e+00 -1.4930502e-01 
1.7065510e+00 1.4727689e+00 -1.6470344e-01 
1.6947289e+00 1.4616960e+00 -1.1515908e-01 
1.6897566e+00 1.4566509e+00 -1.3281800e-01 
1.6909025e+00 1.4579086e+00 -1.1095829e-01 
1.6938330e+00 1.4607207e+00 -1.2387695e-01 
1.6885903e+00 1.4552922e+00 -1.5140024e-01 
1.6856230e+00 1.4528006e+00 -1.0778381e-01 
1.6825732e+00 1.4497067e+00 -1.1981435e-01 
1.6830589e+00 1.4501194e+00 -1.2681252e-01 
1.6937364e+00 1.4603083e+00 -1.5477553e-01 
1.6940430e+00 1.4606609e+00 -1.4827941e-01 
1.6811260e+00 1.4481437e+00 -1.3996519e-01 
1.6829312e+00 1.4501351e+00 -1.0650882e-01 
1.6813537e+00 1.4482448e+00 -1.5146202e-01 
1.6838502e+00 1.4508299e+00 -1.3305897e-01 
1.6815569e+00 1.4486409e+00 -1.2747833e-01 
1.6756358e+00 1.4428539e+00 -1.2999976e-01 
1.6794155e+00 1.4463363e+00 -1.4717603e-01 
1.6750993e+00 1.4424608e+00 -1.0912569e-01 
1.6760602e+00 1.4434563e+00 -1.0416438e-01 
1.6806232e+00 1.4475228e+00 -1.4828478e-01 
1.6812916e+00 1.4483314e+00 -1.3390240e-01 
1.6722507e+00 1.4393898e+00 -1.4694305e-01 
1.6744064e+00 1.4418209e+00 -1.1253303e-01 
1.6708708e+00 1.4379487e+00 -1.4890832e-01 
1.6815947e+00 1.4483508e+00 -1.6166939e-01 
1.6668276e+00 1.4343206e+00 -1.1798231e-01 
1.6671582e+00 1.4347287e+00 -1.0464870e-01 
1.6635557e+00 1.4310619e+00 -1.2481678e-01 
1.6654173e+00 1.4330802e+00 -1.0533836e-01 
1.6619110e+00 1.4292094e+00 -1.4911865e-01 
1.6583139e+00 1.4258746e+00 -1.3397564e-01 
1.6594008e+00 1.4271177e+00 -1.0730052e-01 
1.6688713e+00 1.4360003e+00 -1.5179701e-01 
1.6691638e+00 1.4363382e+00 -1.4537299e-01 
1.6591996e+00 1.4267056e+00 -1.3420136e-01 
1.6559969e+00 1.4238591e+00 -1.0178402e-01 
1.6611953e+00 1.4287533e+00 -1.2623428e-01 
1.6529105e+00 1.4205055e+00 -1.4460091e-01 
1.6511916e+00 1.4190372e+00 -1.1611503e-01 
1.6452879e+00 1.4131451e+00 -1.3123944e-01 
1.6444318e+00 1.4124576e+00 -1.1370054e-01 
1.6568229e+00 1.4241579e+00 -1.5865143e-01 
1.6356626e+00 1.4038887e+00 -1.1429735e-01 
1.6349102e+00 1.4030756e+00 -1.2630150e-01 
1.6361951e+00 1.4044843e+00 -1.0351881e-01 
1.6343385e+00 1.4024400e+00 -1.3541226e-01 
1.6362675e+00 1.4045813e+00 -1.0057601e-01 
1.6338581e+00 1.4018872e+00 -1.4236282e-01 
1.6362519e+00 1.4045899e+00 -9.9389955e-02 
1.6335623e+00 1.4015532e+00 -1.4568321e-01 
1.6359609e+00 1.4042988e+00 -1.0208771e-01 
1.6334891e+00 1.4014804e+00 -1.4412937e-01 
1.6354114e+00 1.4037476e+00 -1.0816427e-01 
1.6334422e+00 1.4014518e+00 -1.4140667e-01 
1.6347078e+00 1.4029633e+00 -1.1726391e-01 
1.6331403e+00 1.4011519e+00 -1.4227155e-01 
1.6338748e+00 1.4020035e+00 -1.2866455e-01 
1.6327654e+00 1.4007561e+00 -1.4679067e-01 
1.6331292e+00 1.4011571e+00 -1.4018290e-01 
1.6198131e+00 1.3884177e+00 -1.1244348e-01 
1.6321963e+00 1.4001235e+00 -1.5567139e-01 
1.6148784e+00 1.3834068e+00 -1.4013377e-01 
1.6147552e+00 1.3833754e+00 -1.2718137e-01 
1.6160755e+00 1.3848416e+00 -1.0130250e-01 
1.6164038e+00 1.3852327e+00 -9.6977361e-02 
1.6091555e+00 1.3779868e+00 -1.1765457e-01 
1.6107194e+00 1.3796965e+00 -1.0017999e-01 
1.6080618e+00 1.3770685e+00 -9.7205378e-02 
1.6103846e+00 1.3789653e+00 -1.3860513e-01 
1.6097999e+00 1.3787056e+00 -1.0937171e-01 
1.6046934e+00 1.3734242e+00 -1.4232065e-01 
1.6035131e+00 1.3725333e+00 -1.1050938e-01 
1.6012722e+00 1.3701980e+00 -1.3294210e-01 
1.6075773e+00 1.3764478e+00 -1.1943348e-01 
1.5958253e+00 1.3648225e+00 -1.3782586e-01 
1.5954584e+00 1.3645990e+00 -1.2287503e-01 
1.5952446e+00 1.3644406e+00 -1.1612452e-01 
1.5955428e+00 1.3648280e+00 -9.9438541e-02 
1.5963370e+00 1.3654927e+00 -1.1625535e-01 
1.5963740e+00 1.3657249e+00 -9.4649084e-02 
1.5948011e+00 1.3637717e+00 -1.3989595e-01 
1.6075015e+00 1.3760489e+00 -1.5267053e-01 
1.6026334e+00 1.3714694e+00 -1.3382724e-01 
1.5952029e+00 1.3645537e+00 -1.0269424e-01 
1.5867797e+00 1.3562464e+00 -1.0855846e-01 
1.5858260e+00 1.3551567e+00 -1.3148795e-01 
1.5872108e+00 1.3566134e+00 -1.1593189e-01 
1.5875460e+00 1.3570870e+00 -9.4858743e-02 
1.5855840e+00 1.3547971e+00 -1.4001247e-01 
1.5948852e+00 1.3638288e+00 -1.4288673e-01 
1.5856998e+00 1.3553343e+00 -9.5693968e-02 
1.5803702e+00 1.3499396e+00 -1.1952548e-01 
1.5785484e+00 1.3482096e+00 -1.1187865e-01 
1.5785850e+00 1.3483492e+00 -9.7357593e-02 
1.5766627e+00 1.3461803e+00 -1.3547316e-01 
1.5820072e+00 1.3513269e+00 -1.3635819e-01 
1.5825754e+00 1.3520309e+00 -1.2260154e-01 
1.5761732e+00 1.3460567e+00 -9.2290603e-02 
1.5756593e+00 1.3451258e+00 -1.3757007e-01 
1.5782819e+00 1.3480104e+00 -1.0923047e-01 
1.5758566e+00 1.3457159e+00 -9.9147774e-02 
1.5747918e+00 1.3443108e+00 -1.3458678e-01 
1.5695930e+00 1.3395323e+00 -1.0660359e-01 
1.5704271e+00 1.3404436e+00 -9.3037166e-02 
1.5828632e+00 1.3520234e+00 -1.4966337e-01 
1.5665247e+00 1.3364377e+00 -1.2356055e-01 
1.5663462e+00 1.3361043e+00 -1.3770196e-01 
1.5674421e+00 1.3373938e+00 -1.1212470e-01 
1.5654075e+00 1.3355864e+00 -9.3320966e-02 
1.5611496e+00 1.3313956e+00 -9.5191717e-02 
1.5703315e+00 1.3398997e+00 -1.3992094e-01 
1.5705806e+00 1.3402056e+00 -1.3368437e-01 
1.5573659e+00 1.3274411e+00 -1.3317850e-01 
1.5581459e+00 1.3283324e+00 -1.1339203e-01 
1.5563564e+00 1.3263750e+00 -1.3516639e-01 
1.5557896e+00 1.3262287e+00 -8.9869760e-02 
1.5519165e+00 1.3223597e+00 -1.0455725e-01 
1.5527447e+00 1.3232539e+00 -9.0924203e-02 
1.5545617e+00 1.3250378e+00 -9.8038986e-02 
1.5575974e+00 1.3275710e+00 -1.3338722e-01 
1.5581162e+00 1.3282354e+00 -1.1983541e-01 
1.5470238e+00 1.3173189e+00 -1.3533249e-01 
1.5449225e+00 1.3154501e+00 -1.2027457e-01 
1.5584054e+00 1.3281898e+00 -1.4664198e-01 
1.5432481e+00 1.3139913e+00 -9.2982605e-02 
1.5449057e+00 1.3156831e+00 -9.0944968e-02 
1.5432533e+00 1.3137885e+00 -1.1885273e-01 
1.5379825e+00 1.3086001e+00 -1.3086021e-01 
1.5387710e+00 1.3095219e+00 -1.1093242e-01 
1.5406171e+00 1.3110886e+00 -1.3041534e-01 
1.5370041e+00 1.3075665e+00 -1.3278282e-01 
1.5459896e+00 1.3162353e+00 -1.3695540e-01 
1.5462242e+00 1.3165293e+00 -1.3080536e-01 
1.5391378e+00 1.3099716e+00 -1.0445540e-01 
1.5337532e+00 1.3047223e+00 -1.0246950e-01 
1.5352182e+00 1.3062626e+00 -8.7468855e-02 
1.5344189e+00 1.3054490e+00 -8.9087561e-02 
1.5352246e+00 1.3062687e+00 -9.4483711e-02 
1.5276078e+00 1.2984680e+00 -1.3293655e-01 
1.5274905e+00 1.2986106e+00 -1.0568454e-01 
1.5259635e+00 1.2970682e+00 -1.1850462e-01 
1.5333599e+00 1.3040323e+00 -1.3043517e-01 
1.5338548e+00 1.3046741e+00 -1.1712942e-01 
1.5248187e+00 1.2961156e+00 -9.0730004e-02 
1.5242383e+00 1.2956358e+00 -8.8608541e-02 
1.5341464e+00 1.3046402e+00 -1.4365749e-01 
1.5185190e+00 1.2897155e+00 -1.2848306e-01 
1.5190363e+00 1.2904119e+00 -1.0638249e-01 
1.5175402e+00 1.2886810e+00 -1.3041788e-01 
1.5150763e+00 1.2866044e+00 -1.0033956e-01 
1.5158954e+00 1.2875029e+00 -8.6633272e-02 
1.5165067e+00 1.2881185e+00 -9.3648568e-02 
1.5144762e+00 1.2861432e+00 -8.5106194e-02 
1.5218436e+00 1.2928253e+00 -1.3404045e-01 
1.5220673e+00 1.2931068e+00 -1.2797631e-01 
1.5097226e+00 1.2813761e+00 -1.0612131e-01 
1.5081048e+00 1.2795562e+00 -1.3054703e-01 
1.5068420e+00 1.2785165e+00 -1.1653729e-01 
1.5058736e+00 1.2777568e+00 -8.8445529e-02 
1.5077448e+00 1.2792332e+00 -1.2621908e-01 
1.5093138e+00 1.2807592e+00 -1.2754388e-01 
1.5097911e+00 1.2813693e+00 -1.1443464e-01 
1.5033966e+00 1.2754353e+00 -8.6275458e-02 
1.4989643e+00 1.2707812e+00 -1.2605926e-01 
1.4999876e+00 1.2717030e+00 -1.2855358e-01 
1.5024697e+00 1.2744142e+00 -1.0224968e-01 
1.5100789e+00 1.2813317e+00 -1.4071071e-01 
1.4958724e+00 1.2680212e+00 -9.8157346e-02 
1.4962327e+00 1.2684622e+00 -8.4395401e-02 
1.4935391e+00 1.2658831e+00 -8.2779199e-02 
1.4945331e+00 1.2668610e+00 -9.0258799e-02 
1.4901365e+00 1.2624213e+00 -1.0364773e-01 
1.4903293e+00 1.2626518e+00 -1.0218750e-01 
1.4884746e+00 1.2605860e+00 -1.2819652e-01 
1.4872967e+00 1.2596182e+00 -1.1423320e-01 
1.4978644e+00 1.2696199e+00 -1.3115805e-01 
1.4980769e+00 1.2698885e+00 -1.2516996e-01 
1.4864019e+00 1.2589216e+00 -8.6249948e-02 
1.4793144e+00 1.2518121e+00 -1.2366812e-01 
1.4823942e+00 1.2551364e+00 -8.3944462e-02 
1.4854212e+00 1.2576425e+00 -1.2468024e-01 
1.4858726e+00 1.2582303e+00 -1.1176921e-01 
1.4783481e+00 1.2507838e+00 -1.2557574e-01 
1.4761302e+00 1.2489449e+00 -9.5936000e-02 
1.4751000e+00 1.2480315e+00 -8.2100116e-02 
1.4861740e+00 1.2582115e+00 -1.3778383e-01 
1.4724545e+00 1.2455113e+00 -8.0430433e-02 
1.4704578e+00 1.2434195e+00 -1.0117735e-01 
1.4687743e+00 1.2416037e+00 -1.2580840e-01 
1.4704163e+00 1.2433828e+00 -1.0205141e-01 
1.4675266e+00 1.2405323e+00 -1.1204281e-01 
1.4712510e+00 1.2443126e+00 -8.8847704e-02 
1.4663764e+00 1.2395843e+00 -8.4049642e-02 
1.4684979e+00 1.2413001e+00 -1.2136836e-01 
1.4740463e+00 1.2465996e+00 -1.2830320e-01 
1.4742495e+00 1.2468592e+00 -1.2239350e-01 
1.4595765e+00 1.2327715e+00 -1.2129530e-01 
1.4606867e+00 1.2337655e+00 -1.2370259e-01 
1.4612067e+00 1.2346838e+00 -8.1605144e-02 
1.4633235e+00 1.2363101e+00 -1.2253246e-01 
1.4558178e+00 1.2293525e+00 -9.3670607e-02 
1.4603169e+00 1.2336886e+00 -9.7810410e-02 
1.4621289e+00 1.2353113e+00 -1.0913662e-01 
1.4543264e+00 1.2279887e+00 -7.9894751e-02 
1.4506679e+00 1.2243464e+00 -9.8699361e-02 
1.4624277e+00 1.2352791e+00 -1.3489698e-01 
1.4511689e+00 1.2249906e+00 -7.8066163e-02 
1.4490303e+00 1.2225138e+00 -1.2343536e-01 
1.4522278e+00 1.2260281e+00 -8.5606769e-02 
1.4479151e+00 1.2216269e+00 -1.1058570e-01 
1.4454842e+00 1.2194395e+00 -8.2418069e-02 
1.4397535e+00 1.2136625e+00 -1.1889273e-01 
1.4503880e+00 1.2237755e+00 -1.2548420e-01 
1.4505790e+00 1.2240251e+00 -1.1965383e-01 
1.4387786e+00 1.2126377e+00 -1.2074835e-01 
1.4398401e+00 1.2141169e+00 -7.9204082e-02 
1.4369864e+00 1.2112809e+00 -7.7771306e-02 
1.4349229e+00 1.2092255e+00 -9.1341496e-02 
1.4381351e+00 1.2120312e+00 -1.1903863e-01 
1.4385376e+00 1.2125678e+00 -1.0652450e-01 
1.4288684e+00 1.2032762e+00 -1.0979236e-01 
1.4291176e+00 1.2033682e+00 -1.2102717e-01 
1.4296857e+00 1.2043123e+00 -7.5702213e-02 
1.4388505e+00 1.2125475e+00 -1.3203833e-01 
1.4288607e+00 1.2030981e+00 -1.1650275e-01 
1.4284967e+00 1.2031420e+00 -8.4226139e-02 
1.4251382e+00 1.1998501e+00 -7.9669498e-02 
1.4259486e+00 1.2005044e+00 -9.9896893e-02 
1.4198053e+00 1.1944993e+00 -1.1654997e-01 
1.4209409e+00 1.1954863e+00 -1.1887699e-01 
1.4205872e+00 1.1953852e+00 -9.6047446e-02 
1.4174312e+00 1.1923586e+00 -1.0064366e-01 
1.4269096e+00 1.2011662e+00 -1.2269119e-01 
1.4270898e+00 1.2014041e+00 -1.1694761e-01 
1.4182417e+00 1.1933519e+00 -7.6894343e-02 
1.4160018e+00 1.1911238e+00 -7.5607434e-02 
1.4133977e+00 1.1885344e+00 -8.8994801e-02 
1.4173836e+00 1.1923630e+00 -9.3375318e-02 
1.4098046e+00 1.1849614e+00 -1.0874769e-01 
1.4091817e+00 1.1841801e+00 -1.1859003e-01 
1.4151384e+00 1.1900671e+00 -1.0394609e-01 
1.4077342e+00 1.1830494e+00 -9.4465472e-02 
1.4129910e+00 1.1878698e+00 -1.1550788e-01 
1.4080215e+00 1.1835291e+00 -7.3373251e-02 
1.4091259e+00 1.1845826e+00 -8.0958769e-02 
1.4043471e+00 1.1798946e+00 -7.7197090e-02 
1.4154639e+00 1.1900514e+00 -1.2921730e-01 
1.4006128e+00 1.1762280e+00 -9.8636150e-02 
1.3997903e+00 1.1752279e+00 -1.1411130e-01 
1.3988278e+00 1.1742262e+00 -1.1590762e-01 
1.3951974e+00 1.1711485e+00 -7.3272593e-02 
1.3964990e+00 1.1724473e+00 -7.4482538e-02 
1.4036220e+00 1.1787981e+00 -1.1993296e-01 
1.4037912e+00 1.1790258e+00 -1.1426850e-01 
1.3912730e+00 1.1673067e+00 -8.6624876e-02 
1.3897445e+00 1.1656845e+00 -1.0646745e-01 
1.3897620e+00 1.1657839e+00 -9.2367426e-02 
1.3890641e+00 1.1648785e+00 -1.1623876e-01 
1.3888382e+00 1.1646584e+00 -1.1162569e-01 
1.3915859e+00 1.1672982e+00 -1.1356955e-01 
1.3861734e+00 1.1625360e+00 -7.0973054e-02 
1.3919433e+00 1.1677874e+00 -1.0142870e-01 
1.3837602e+00 1.1601518e+00 -7.4629113e-02 
1.3809004e+00 1.1572702e+00 -9.7652495e-02 
1.3849659e+00 1.1613648e+00 -7.9622783e-02 
1.3809077e+00 1.1573545e+00 -8.6234562e-02 
1.3796831e+00 1.1559408e+00 -1.1177137e-01 
1.3922435e+00 1.1677576e+00 -1.2642527e-01 
1.3808219e+00 1.1569626e+00 -1.1404738e-01 
1.3807536e+00 1.1571710e+00 -9.1288626e-02 
1.3746510e+00 1.1514834e+00 -7.0943356e-02 
1.3745242e+00 1.1514188e+00 -7.2183132e-02 
1.3702716e+00 1.1469815e+00 -1.0505150e-01 
1.3804938e+00 1.1565962e+00 -1.1721741e-01 
1.3806515e+00 1.1568140e+00 -1.1162954e-01 
1.3705318e+00 1.1473773e+00 -8.8733658e-02 
1.3689106e+00 1.1455371e+00 -1.1376261e-01 
1.3684838e+00 1.1454659e+00 -8.4172688e-02 
1.3633198e+00 1.1405979e+00 -7.2159544e-02 
1.3641061e+00 1.1414216e+00 -6.8641067e-02 
1.3675853e+00 1.1445980e+00 -8.7781005e-02 
1.3685353e+00 1.1452212e+00 -1.1086339e-01 
1.3688693e+00 1.1456825e+00 -9.8919138e-02 
1.3609065e+00 1.1381216e+00 -9.4889790e-02 
1.3594583e+00 1.1365727e+00 -1.0935650e-01 
1.3628941e+00 1.1402392e+00 -7.7273011e-02 
1.3584505e+00 1.1355333e+00 -1.1105359e-01 
1.3691984e+00 1.1456450e+00 -1.2366233e-01 
1.3542676e+00 1.1319925e+00 -6.8638936e-02 
1.3504891e+00 1.1280953e+00 -1.0199550e-01 
1.3523477e+00 1.1301979e+00 -6.9776900e-02 
1.3486252e+00 1.1261787e+00 -1.1144292e-01 
1.3575485e+00 1.1346143e+00 -1.1452087e-01 
1.3576934e+00 1.1348227e+00 -1.0901356e-01 
1.3483653e+00 1.1259075e+00 -1.0672717e-01 
1.3450072e+00 1.1230102e+00 -8.1660070e-02 
1.3430393e+00 1.1212094e+00 -6.9730438e-02 
1.3420926e+00 1.1201519e+00 -9.0111814e-02 
1.3412870e+00 1.1193815e+00 -9.1863513e-02 
1.3418758e+00 1.1201986e+00 -6.6302538e-02 
1.3391379e+00 1.1171590e+00 -1.0697272e-01 
1.3402869e+00 1.1181672e+00 -1.0917535e-01 
1.3457334e+00 1.1233764e+00 -1.0822792e-01 
1.3401766e+00 1.1183600e+00 -8.6293325e-02 
1.3460413e+00 1.1238210e+00 -9.6449018e-02 
1.3406028e+00 1.1189094e+00 -7.4996859e-02 
1.3463297e+00 1.1237364e+00 -1.2092638e-01 
1.3340538e+00 1.1126848e+00 -6.6479571e-02 
1.3305826e+00 1.1090831e+00 -9.9594273e-02 
1.3282640e+00 1.1066983e+00 -1.0896325e-01 
1.3300122e+00 1.1088324e+00 -6.7538574e-02 
1.3347896e+00 1.1128197e+00 -1.1186582e-01 
1.3349195e+00 1.1130197e+00 -1.0643802e-01 
1.3278382e+00 1.1065987e+00 -8.4263906e-02 
1.3229020e+00 1.1020008e+00 -6.7372918e-02 
1.3212564e+00 1.1002666e+00 -8.7359928e-02 
1.3208011e+00 1.0999060e+00 -7.9101220e-02 
1.3187273e+00 1.0976759e+00 -1.0459682e-01 
1.3194255e+00 1.0987574e+00 -6.3938715e-02 
1.3238022e+00 1.1024266e+00 -1.0517111e-01 
1.3177700e+00 1.0966445e+00 -1.0614333e-01 
1.3233587e+00 1.1021655e+00 -9.3996219e-02 
1.3182329e+00 1.0975934e+00 -7.2783783e-02 
1.3149623e+00 1.0943716e+00 -7.6773711e-02 
1.3139907e+00 1.0935298e+00 -6.4236119e-02 
1.3236458e+00 1.1020427e+00 -1.1823326e-01 
1.3084757e+00 1.0880170e+00 -9.7491629e-02 
1.3078845e+00 1.0872526e+00 -1.0655830e-01 
1.3074750e+00 1.0873851e+00 -6.5216176e-02 
1.3122013e+00 1.0912671e+00 -1.0923641e-01 
1.3123207e+00 1.0914565e+00 -1.0389236e-01 
1.3029346e+00 1.0829854e+00 -6.5071136e-02 
1.2989465e+00 1.0790383e+00 -8.7619051e-02 
1.2995992e+00 1.0797225e+00 -7.6496616e-02 
1.2982830e+00 1.0781667e+00 -1.0220529e-01 
1.3010114e+00 1.0807279e+00 -1.0083184e-01 
1.2980927e+00 1.0779721e+00 -1.0412336e-01 
1.2958624e+00 1.0761662e+00 -7.6496668e-02 
1.2968080e+00 1.0772418e+00 -6.1634552e-02 
1.2987820e+00 1.0790253e+00 -7.5166479e-02 
1.3006060e+00 1.0803020e+00 -1.0299974e-01 
1.3008467e+00 1.0807140e+00 -9.1597982e-02 
1.2907811e+00 1.0714670e+00 -6.1896957e-02 
1.3011576e+00 1.0806222e+00 -1.1557261e-01 
1.2887704e+00 1.0692701e+00 -9.5203802e-02 
1.2872877e+00 1.0676951e+00 -1.0422835e-01 
1.2847503e+00 1.0658146e+00 -6.2833391e-02 
1.2831576e+00 1.0641510e+00 -6.2855490e-02 
1.2815735e+00 1.0625489e+00 -8.0056533e-02 
1.2898321e+00 1.0699996e+00 -1.0666111e-01 
1.2899421e+00 1.0701772e+00 -1.0141432e-01 
1.2793376e+00 1.0603982e+00 -8.5530475e-02 
1.2776289e+00 1.0586095e+00 -9.9886477e-02 
1.2783582e+00 1.0595020e+00 -7.8625403e-02 
1.2767254e+00 1.0576082e+00 -1.0138718e-01 
1.2738775e+00 1.0554074e+00 -6.0361199e-02 
1.2740097e+00 1.0555576e+00 -5.9320662e-02 
1.2783909e+00 1.0592191e+00 -1.0050471e-01 
1.2786161e+00 1.0596056e+00 -8.9332543e-02 
1.2701471e+00 1.0517485e+00 -7.3869526e-02 
1.2692602e+00 1.0507435e+00 -9.2955016e-02 
1.2718732e+00 1.0534885e+00 -7.1462393e-02 
1.2789536e+00 1.0595180e+00 -1.1295179e-01 
1.2682735e+00 1.0499411e+00 -7.7024192e-02 
1.2667062e+00 1.0481658e+00 -1.0175420e-01 
1.2664703e+00 1.0479327e+00 -9.7012497e-02 
1.2618898e+00 1.0439981e+00 -6.1240286e-02 
1.2599014e+00 1.0419631e+00 -8.3444387e-02 
1.2618735e+00 1.0440780e+00 -6.0669422e-02 
1.2677821e+00 1.0490607e+00 -1.0413645e-01 
1.2678838e+00 1.0492260e+00 -9.8984212e-02 
1.2570059e+00 1.0390284e+00 -9.7583115e-02 
1.2581716e+00 1.0400515e+00 -9.9500418e-02 
1.2572062e+00 1.0395868e+00 -5.8371540e-02 
1.2576442e+00 1.0398020e+00 -8.2314752e-02 
1.2498966e+00 1.0324337e+00 -9.0808272e-02 
1.2564514e+00 1.0384141e+00 -9.8032385e-02 
1.2510068e+00 1.0337914e+00 -5.6966521e-02 
1.2481704e+00 1.0308652e+00 -7.6005526e-02 
1.2459681e+00 1.0284861e+00 -9.9464856e-02 
1.2570019e+00 1.0387305e+00 -1.1041456e-01 
1.2479912e+00 1.0308738e+00 -6.8253912e-02 
1.2436627e+00 1.0266335e+00 -7.1164496e-02 
1.2429456e+00 1.0260587e+00 -5.8326241e-02 
1.2406104e+00 1.0237114e+00 -8.1439227e-02 
1.2395265e+00 1.0228693e+00 -5.6384511e-02 
1.2459469e+00 1.0283917e+00 -1.0170533e-01 
1.2460427e+00 1.0285423e+00 -9.6644029e-02 
1.2362412e+00 1.0193967e+00 -9.5170319e-02 
1.2387468e+00 1.0221926e+00 -5.8334362e-02 
1.2353473e+00 1.0184460e+00 -9.6606568e-02 
1.2307166e+00 1.0142807e+00 -8.8624015e-02 
1.2277503e+00 1.0115633e+00 -7.5534716e-02 
1.2278379e+00 1.0118686e+00 -5.4746591e-02 
1.2329973e+00 1.0162461e+00 -9.5843352e-02 
1.2312393e+00 1.0148143e+00 -7.9328544e-02 
1.2267855e+00 1.0106952e+00 -7.2126858e-02 
1.2251891e+00 1.0089188e+00 -9.7133882e-02 
1.2353026e+00 1.0182322e+00 -1.0793848e-01 
1.2215472e+00 1.0057033e+00 -7.9464450e-02 
1.2250704e+00 1.0087618e+00 -9.2228815e-02 
1.2208782e+00 1.0051788e+00 -5.7252094e-02 
1.2231681e+00 1.0073727e+00 -6.4787149e-02 
1.2189653e+00 1.0034208e+00 -5.4644417e-02 
1.2163903e+00 1.0008957e+00 -6.8382874e-02 
1.2154328e+00 9.9981469e-01 -9.2815466e-02 
1.2167579e+00 1.0009426e+00 -9.4768055e-02 
1.2243553e+00 1.0080280e+00 -9.9312820e-02 
1.2161415e+00 1.0006416e+00 -7.1367882e-02 
1.2244461e+00 1.0081638e+00 -9.4342262e-02 
1.2155443e+00 1.0002406e+00 -5.6157481e-02 
1.2117430e+00 9.9639022e-01 -8.6541913e-02 
1.2132623e+00 9.9765384e-01 -9.3233079e-02 
1.2134415e+00 9.9795181e-01 -8.2595646e-02 
1.2043874e+00 9.8930782e-01 -9.4734617e-02 
1.2033588e+00 9.8856992e-01 -7.6457582e-02 
1.2045341e+00 9.8984665e-01 -5.2467499e-02 
1.2138624e+00 9.9803919e-01 -1.0551339e-01 
1.2019154e+00 9.8733068e-01 -5.4436818e-02 
1.2033608e+00 9.8878086e-01 -6.1711743e-02 
1.2024148e+00 9.8772889e-01 -7.0279151e-02 
1.1945690e+00 9.8013586e-01 -9.0597935e-02 
1.2030466e+00 9.8799455e-01 -9.6971855e-02 
1.2031281e+00 9.8812258e-01 -9.2082337e-02 
1.1937234e+00 9.7924376e-01 -9.1885410e-02 
1.1918991e+00 9.7791666e-01 -5.1798485e-02 
1.1921587e+00 9.7824299e-01 -5.3856019e-02 
1.1882896e+00 9.7442204e-01 -6.5698445e-02 
1.1921273e+00 9.7778273e-01 -9.1014273e-02 
1.1922879e+00 9.7804207e-01 -8.0471314e-02 
1.1839807e+00 9.7025526e-01 -8.4126376e-02 
1.1834804e+00 9.6962494e-01 -9.2478544e-02 
1.1829520e+00 9.6945673e-01 -5.2658416e-02 
1.1926506e+00 9.7811484e-01 -1.0315671e-01 
1.1809767e+00 9.6749395e-01 -6.9821075e-02 
1.1799290e+00 9.6650684e-01 -7.5324945e-02 
1.1811335e+00 9.6764523e-01 -7.1813218e-02 
1.1832529e+00 9.6949649e-01 -8.7629080e-02 
1.1810116e+00 9.6770757e-01 -5.0181601e-02 
1.1825193e+00 9.6884739e-01 -8.2085997e-02 
1.1798190e+00 9.6660483e-01 -5.9549015e-02 
1.1735550e+00 9.6040136e-01 -8.8306628e-02 
1.1748618e+00 9.6152073e-01 -9.0203948e-02 
1.1739258e+00 9.6094173e-01 -5.6325398e-02 
1.1819438e+00 9.6816576e-01 -9.4708659e-02 
1.1820173e+00 9.6828616e-01 -8.9875281e-02 
1.1730474e+00 9.6018684e-01 -5.0117742e-02 
1.1737355e+00 9.6052283e-01 -8.9507796e-02 
1.1685640e+00 9.5605654e-01 -5.1642790e-02 
1.1651623e+00 9.5258546e-01 -8.1981868e-02 
1.1657001e+00 9.5321912e-01 -6.2586583e-02 
1.1641759e+00 9.5179451e-01 -5.0978273e-02 
1.1625390e+00 9.4996840e-01 -9.0159960e-02 
1.1691802e+00 9.5634967e-01 -7.9625294e-02 
1.1716025e+00 9.5836353e-01 -1.0086399e-01 
1.1594127e+00 9.4730759e-01 -6.2816285e-02 
1.1573482e+00 9.4549876e-01 -4.8010722e-02 
1.1602291e+00 9.4807041e-01 -6.6461027e-02 
1.1536841e+00 9.4190848e-01 -6.9605507e-02 
1.1543546e+00 9.4266075e-01 -4.8411228e-02 
1.1526721e+00 9.4079596e-01 -8.6071581e-02 
1.1557606e+00 9.4396579e-01 -5.7103217e-02 
1.1609622e+00 9.4849402e-01 -9.2486836e-02 
1.1610316e+00 9.4860691e-01 -8.7702692e-02 
1.1521473e+00 9.4021225e-01 -8.7413162e-02 
1.1512018e+00 9.3940258e-01 -8.6190499e-02 
1.1445063e+00 9.3331146e-01 -7.0445031e-02 
1.1455907e+00 9.3439901e-01 -4.9366739e-02 
1.1502712e+00 9.3862391e-01 -7.6305710e-02 
1.1451712e+00 9.3409342e-01 -4.9248815e-02 
1.1431972e+00 9.3208879e-01 -6.2679112e-02 
1.1417305e+00 9.3049616e-01 -8.8048406e-02 
1.1506952e+00 9.3876463e-01 -9.8602533e-02 
1.1375723e+00 9.2677796e-01 -7.8044146e-02 
1.1358608e+00 9.2528868e-01 -4.6693850e-02 
1.1341423e+00 9.2376578e-01 -4.5757111e-02 
1.1319749e+00 9.2142141e-01 -8.3970018e-02 
1.1316179e+00 9.2127550e-01 -6.0248859e-02 
1.1401330e+00 9.2896158e-01 -9.0303279e-02 
1.1401985e+00 9.2906600e-01 -8.5570186e-02 
1.1308919e+00 9.2035788e-01 -8.5308962e-02 
1.1324805e+00 9.2219400e-01 -5.4604590e-02 
1.1280837e+00 9.1791081e-01 -6.6556580e-02 
1.1264213e+00 9.1638422e-01 -6.9980562e-02 
1.1271278e+00 9.1709322e-01 -4.7715813e-02 
1.1293843e+00 9.1895533e-01 -8.4525652e-02 
1.1295207e+00 9.1917205e-01 -7.4248530e-02 
1.1211151e+00 9.1122758e-01 -8.5972071e-02 
1.1250598e+00 9.1509700e-01 -6.4685360e-02 
1.1195014e+00 9.0985078e-01 -7.7403225e-02 
1.1221250e+00 9.1254026e-01 -4.6930082e-02 
1.1299485e+00 9.1932392e-01 -9.6374772e-02 
1.1182959e+00 9.0884233e-01 -5.1829420e-02 
1.1198541e+00 9.1002041e-01 -8.0971032e-02 
1.1174619e+00 9.0814149e-01 -4.5063965e-02 
1.1114868e+00 9.0228999e-01 -8.1799462e-02 
1.1125084e+00 9.0309423e-01 -8.3750509e-02 
1.1124262e+00 9.0332282e-01 -6.0883626e-02 
1.1194752e+00 9.0961629e-01 -8.8155985e-02 
1.1195326e+00 9.0971249e-01 -8.3483450e-02 
1.1113126e+00 9.0243262e-01 -4.3673955e-02 
1.1096964e+00 9.0086645e-01 -4.6485975e-02 
1.1080844e+00 8.9924300e-01 -6.9095269e-02 
1.1096562e+00 9.0091556e-01 -5.2256208e-02 
1.1049583e+00 8.9638025e-01 -5.7649836e-02 
1.1088527e+00 8.9975697e-01 -8.2423992e-02 
1.1089699e+00 8.9998651e-01 -7.2290801e-02 
1.1012793e+00 8.9284313e-01 -7.5813763e-02 
1.1007904e+00 8.9220273e-01 -8.3747961e-02 
1.1094066e+00 9.0011036e-01 -9.4179586e-02 
1.0992895e+00 8.9117563e-01 -4.3454606e-02 
1.0995425e+00 8.9147735e-01 -4.4884656e-02 
1.0936037e+00 8.8548332e-01 -8.1208065e-02 
1.0913028e+00 8.8362449e-01 -6.4696513e-02 
1.0912443e+00 8.8340497e-01 -7.9764597e-02 
1.0990677e+00 8.9057553e-01 -8.6050540e-02 
1.0991150e+00 8.9066517e-01 -8.1450179e-02 
1.0907420e+00 8.8318574e-01 -4.4567585e-02 
1.0890069e+00 8.8168252e-01 -4.1578483e-02 
1.0876797e+00 8.8028365e-01 -5.9652373e-02 
1.0874181e+00 8.8014901e-01 -4.9964037e-02 
1.0836402e+00 8.7642008e-01 -7.2318494e-02 
1.0887126e+00 8.8109779e-01 -7.0378259e-02 
1.0855750e+00 8.7831140e-01 -5.9487782e-02 
1.0870827e+00 8.7945706e-01 -8.1006929e-02 
1.0806484e+00 8.7347734e-01 -8.1728071e-02 
1.0812743e+00 8.7440509e-01 -4.1914482e-02 
1.0792209e+00 8.7241685e-01 -5.5299323e-02 
1.0891137e+00 8.8118011e-01 -9.2028156e-02 
1.0767713e+00 8.7004262e-01 -6.4617127e-02 
1.0774645e+00 8.7096971e-01 -4.2808924e-02 
1.0743408e+00 8.6782998e-01 -6.4248778e-02 
1.0780144e+00 8.7102580e-01 -7.6499082e-02 
1.0728136e+00 8.6651421e-01 -4.3099586e-02 
1.0712652e+00 8.6482644e-01 -7.7759556e-02 
1.0789082e+00 8.7179321e-01 -8.4003180e-02 
1.0789455e+00 8.7187874e-01 -7.9468973e-02 
1.0702064e+00 8.6373234e-01 -7.9113498e-02 
1.0660028e+00 8.6002654e-01 -7.0916519e-02 
1.0670880e+00 8.6131442e-01 -3.9661195e-02 
1.0706373e+00 8.6415869e-01 -7.9274207e-02 
1.0655226e+00 8.5988134e-01 -4.7796827e-02 
1.0633979e+00 8.5787010e-01 -4.0393461e-02 
1.0686706e+00 8.6245888e-01 -6.8524621e-02 
1.0621030e+00 8.5651094e-01 -5.5566847e-02 
1.0608895e+00 8.5507953e-01 -7.9708725e-02 
1.0690743e+00 8.6252111e-01 -8.9932613e-02 
1.0567789e+00 8.5155261e-01 -6.2987246e-02 
1.0545077e+00 8.4948695e-01 -5.3022601e-02 
1.0548407e+00 8.4989953e-01 -4.1327693e-02 
1.0557503e+00 8.5082817e-01 -4.0829554e-02 
1.0515418e+00 8.4651577e-01 -7.5809136e-02 
1.0590211e+00 8.5329145e-01 -8.2027853e-02 
1.0590464e+00 8.5337061e-01 -7.7554151e-02 
1.0485616e+00 8.4384137e-01 -6.9547050e-02 
1.0486401e+00 8.4371924e-01 -7.7363908e-02 
1.0527233e+00 8.4751892e-01 -7.6449089e-02 
1.0458039e+00 8.4155655e-01 -3.8900331e-02 
1.0456517e+00 8.4145039e-01 -3.7798639e-02 
1.0424869e+00 8.3833116e-01 -5.3940222e-02 
1.0441504e+00 8.4006262e-01 -4.5696426e-02 
1.0412302e+00 8.3690172e-01 -7.7824935e-02 
1.0470228e+00 8.4235370e-01 -6.7925535e-02 
1.0394347e+00 8.3549982e-01 -6.1758790e-02 
1.0411597e+00 8.3715141e-01 -5.4183908e-02 
1.0492939e+00 8.4412831e-01 -8.7892309e-02 
1.0390767e+00 8.3518022e-01 -5.5863384e-02 
1.0400360e+00 8.3577532e-01 -7.3172115e-02 
1.0375491e+00 8.3385575e-01 -4.0295880e-02 
1.0386709e+00 8.3482939e-01 -5.5849139e-02 
1.0345259e+00 8.3122367e-01 -3.8982853e-02 
1.0321124e+00 8.2854486e-01 -7.3878080e-02 
1.0312877e+00 8.2788759e-01 -6.8213224e-02 
1.0393782e+00 8.3507615e-01 -8.0089204e-02 
1.0393934e+00 8.3515042e-01 -7.5687580e-02 
1.0307554e+00 8.2754159e-01 -5.0898973e-02 
1.0310785e+00 8.2752395e-01 -7.5336970e-02 
1.0283781e+00 8.2545787e-01 -3.7467368e-02 
1.0293758e+00 8.2591707e-01 -7.4683689e-02 
1.0246279e+00 8.2203609e-01 -3.6125194e-02 
1.0293936e+00 8.2609141e-01 -6.4976111e-02 
1.0222771e+00 8.1968307e-01 -6.0566768e-02 
1.0230953e+00 8.2046938e-01 -5.2398097e-02 
1.0219947e+00 8.1906748e-01 -7.5975023e-02 
1.0231792e+00 8.2074243e-01 -4.3681327e-02 
1.0297877e+00 8.2607591e-01 -8.5913591e-02 
1.0202382e+00 8.1788212e-01 -3.8967792e-02 
1.0165226e+00 8.1436861e-01 -5.5182047e-02 
1.0142587e+00 8.1218839e-01 -6.6869013e-02 
1.0129589e+00 8.1089097e-01 -7.1990587e-02 
1.0200381e+00 8.1722212e-01 -7.8229435e-02 
1.0137985e+00 8.1216168e-01 -3.7272811e-02 
1.0200422e+00 8.1728983e-01 -7.3900864e-02 
1.0112090e+00 8.0963707e-01 -3.6115263e-02 
1.0118085e+00 8.0968291e-01 -7.2759092e-02 
1.0078967e+00 8.0650824e-01 -4.8884962e-02 
1.0109267e+00 8.0895609e-01 -7.0281893e-02 
1.0053558e+00 8.0410451e-01 -5.9402291e-02 
1.0102618e+00 8.0830908e-01 -7.2936594e-02 
1.0041451e+00 8.0322981e-01 -3.4467231e-02 
1.0030107e+00 8.0164993e-01 -7.4099131e-02 
1.0031507e+00 8.0216706e-01 -3.7662450e-02 
1.0084070e+00 8.0674070e-01 -6.4505108e-02 
1.0106025e+00 8.0838287e-01 -8.3995059e-02 
1.0026813e+00 8.0186284e-01 -4.1825235e-02 
9.9745893e-01 7.9675305e-01 -6.5589137e-02 
1.0003741e+00 7.9956591e-01 -5.2811284e-02 
9.9410594e-01 7.9356462e-01 -7.0353530e-02 
9.9423081e-01 7.9405743e-01 -3.4753196e-02 
1.0010214e+00 7.9973024e-01 -7.6425627e-02 
1.0010175e+00 7.9979235e-01 -7.2168343e-02 
9.9304456e-01 7.9248434e-01 -7.1778558e-02 
9.9353683e-01 7.9349691e-01 -3.5406187e-02 
9.9145895e-01 7.9140663e-01 -4.7534991e-02 
9.8861635e-01 7.8876120e-01 -5.8288403e-02 
9.8593074e-01 7.8633511e-01 -4.6971511e-02 
9.8623216e-01 7.8667563e-01 -3.6373932e-02 
9.9136293e-01 7.9113692e-01 -6.1689559e-02 
9.8421782e-01 7.8444648e-01 -7.2438054e-02 
9.8898792e-01 7.8880966e-01 -6.9922335e-02 
9.8515892e-01 7.8558260e-01 -5.0044149e-02 
9.8404247e-01 7.8477448e-01 -3.2739569e-02 
9.9172676e-01 7.9105419e-01 -8.2154877e-02 
9.8080260e-01 7.8150368e-01 -6.4358920e-02 
9.8299330e-01 7.8331208e-01 -6.8003088e-02 
9.8266965e-01 7.8351182e-01 -4.1168764e-02 
9.7742283e-01 7.7865672e-01 -3.3388171e-02 
9.7546923e-01 7.7649426e-01 -6.8703026e-02 
9.7636694e-01 7.7719653e-01 -7.0550740e-02 
9.8230183e-01 7.8257722e-01 -7.4702404e-02 
9.8228878e-01 7.8263414e-01 -7.0497043e-02 
9.7412920e-01 7.7553982e-01 -4.6952080e-02 
9.7205514e-01 7.7359241e-01 -5.7208896e-02 
9.7358704e-01 7.7528757e-01 -3.3861384e-02 
9.6951979e-01 7.7136278e-01 -3.5137143e-02 
9.7282016e-01 7.7397913e-01 -6.9609351e-02 
9.6569133e-01 7.6745898e-01 -7.0819229e-02 
9.7099137e-01 7.7244461e-01 -6.1322186e-02 
9.6430016e-01 7.6642591e-01 -6.3171364e-02 
9.6473891e-01 7.6697403e-01 -4.5174386e-02 
9.7311389e-01 7.7400297e-01 -8.0377810e-02 
9.6433598e-01 7.6678479e-01 -3.1118182e-02 
9.6289468e-01 7.6545590e-01 -3.8198978e-02 
9.6082669e-01 7.6346767e-01 -3.2112107e-02 
9.6325940e-01 7.6528138e-01 -6.5975673e-02 
9.6319568e-01 7.6550317e-01 -4.9999747e-02 
9.5759577e-01 7.6042664e-01 -4.3801058e-02 
9.5701569e-01 7.5967234e-01 -6.7062378e-02 
9.5736980e-01 7.6017791e-01 -4.8529848e-02 
9.6382511e-01 7.6567179e-01 -7.3038124e-02 
9.6380532e-01 7.6572549e-01 -6.8887517e-02 
9.5564485e-01 7.5862563e-01 -5.6161787e-02 
9.5605785e-01 7.5863302e-01 -6.8580523e-02 
9.5301080e-01 7.5629342e-01 -3.3951409e-02 
9.5417947e-01 7.5752020e-01 -3.2233022e-02 
9.5450068e-01 7.5725085e-01 -6.8029828e-02 
9.5444793e-01 7.5738853e-01 -5.8682509e-02 
9.4785452e-01 7.5143731e-01 -6.1852366e-02 
9.4854617e-01 7.5217748e-01 -4.6342082e-02 
9.4747251e-01 7.5088656e-01 -6.9072895e-02 
9.5476329e-01 7.5724369e-01 -7.8677118e-02 
9.4431698e-01 7.4834597e-01 -4.3488260e-02 
9.4409490e-01 7.4811906e-01 -4.9220581e-02 
9.4476008e-01 7.4886382e-01 -3.1115666e-02 
9.4635308e-01 7.4986744e-01 -6.4966999e-02 
9.4506931e-01 7.4918741e-01 -2.9683813e-02 
9.4445896e-01 7.4864197e-01 -3.8042542e-02 
9.3895286e-01 7.4324405e-01 -6.5422356e-02 
9.3996334e-01 7.4401879e-01 -6.7458622e-02 
9.3954414e-01 7.4398804e-01 -4.7395058e-02 
9.4562733e-01 7.4907869e-01 -7.1462587e-02 
9.4559795e-01 7.4912995e-01 -6.7357197e-02 
9.3671387e-01 7.4148023e-01 -3.2881238e-02 
9.3484139e-01 7.3968303e-01 -5.5576831e-02 
9.3517882e-01 7.4025691e-01 -3.0836698e-02 
9.3093348e-01 7.3618513e-01 -4.1676406e-02 
9.3047917e-01 7.3575819e-01 -4.5723226e-02 
9.2962456e-01 7.3463511e-01 -6.7479573e-02 
9.3469924e-01 7.3922437e-01 -6.6961907e-02 
9.3464023e-01 7.3934847e-01 -5.8362074e-02 
9.3667191e-01 7.4075329e-01 -7.7042453e-02 
9.2828381e-01 7.3387814e-01 -2.9818015e-02 
9.2556000e-01 7.3118925e-01 -6.0406454e-02 
9.2625082e-01 7.3212254e-01 -2.8262535e-02 
9.2472976e-01 7.3059088e-01 -4.1845564e-02 
9.2629087e-01 7.3216742e-01 -3.5308778e-02 
9.2721736e-01 7.3247248e-01 -6.3043617e-02 
9.2711836e-01 7.3272276e-01 -4.7283769e-02 
9.2121142e-01 7.2714812e-01 -6.3967913e-02 
9.2766207e-01 7.3273259e-01 -6.9932446e-02 
9.2762405e-01 7.3278046e-01 -6.5864883e-02 
9.2069530e-01 7.2698212e-01 -3.1748429e-02 
9.1903943e-01 7.2534406e-01 -5.3565733e-02 
9.2027479e-01 7.2612917e-01 -6.5580703e-02 
9.1945386e-01 7.2577649e-01 -4.4158641e-02 
9.1654414e-01 7.2334498e-01 -2.9321313e-02 
9.1423607e-01 7.2119683e-01 -2.8417246e-02 
9.1861665e-01 7.2463453e-01 -6.5092929e-02 
9.1853637e-01 7.2476459e-01 -5.5805556e-02 
9.1192734e-01 7.1869123e-01 -6.6086888e-02 
9.1220558e-01 7.1922195e-01 -4.3195538e-02 
9.0990764e-01 7.1701801e-01 -5.8667343e-02 
9.1881019e-01 7.2453356e-01 -7.5463250e-02 
9.1073495e-01 7.1754628e-01 -6.2179998e-02 
9.0782267e-01 7.1546596e-01 -2.6844393e-02 
9.0576631e-01 7.1344352e-01 -4.0381685e-02 
9.0785950e-01 7.1548641e-01 -3.5177514e-02 
9.0480965e-01 7.1265060e-01 -3.0682452e-02 
9.0364254e-01 7.1127898e-01 -6.2589757e-02 
9.0347016e-01 7.1125001e-01 -5.1661234e-02 
9.0994209e-01 7.1667773e-01 -6.8468012e-02 
9.0302348e-01 7.1094507e-01 -3.9748695e-02 
9.0989441e-01 7.1672153e-01 -6.4443216e-02 
9.0274537e-01 7.1029198e-01 -6.4208359e-02 
8.9779115e-01 7.0634127e-01 -2.7148984e-02 
8.9828914e-01 7.0694214e-01 -2.7929863e-02 
9.0108901e-01 7.0878029e-01 -6.3745163e-02 
8.9532810e-01 7.0397502e-01 -4.3465026e-02 
8.9444554e-01 7.0305151e-01 -5.6852087e-02 
8.9837575e-01 7.0638955e-01 -6.1155140e-02 
8.9451832e-01 7.0294273e-01 -6.4679831e-02 
8.9927918e-01 7.0733249e-01 -5.5658337e-02 
8.9475262e-01 7.0349967e-01 -4.2167705e-02 
9.0123159e-01 7.0861661e-01 -7.3924750e-02 
8.8918740e-01 6.9854265e-01 -2.9653726e-02 
8.8974476e-01 6.9916022e-01 -2.5564494e-02 
8.8808590e-01 6.9745505e-01 -4.9762353e-02 
8.9201963e-01 7.0101291e-01 -4.4919517e-02 
8.9016545e-01 6.9959360e-01 -3.2572720e-02 
8.8750744e-01 6.9699937e-01 -3.8944565e-02 
8.8765138e-01 6.9709194e-01 -3.8242240e-02 
8.8635683e-01 6.9567859e-01 -6.1270248e-02 
8.9251965e-01 7.0095700e-01 -6.7036085e-02 
8.9246583e-01 7.0099771e-01 -6.3063711e-02 
8.8547659e-01 6.9472528e-01 -6.2863119e-02 
8.8119298e-01 6.9140309e-01 -2.6125725e-02 
8.8161677e-01 6.9126540e-01 -6.0834154e-02 
8.7916785e-01 6.8934268e-01 -5.5060092e-02 
8.8042170e-01 6.9086742e-01 -2.6618190e-02 
8.8381863e-01 6.9322973e-01 -6.2438171e-02 
8.8370407e-01 6.9334465e-01 -5.3269755e-02 
8.7851226e-01 6.8883431e-01 -4.4128835e-02 
8.7737578e-01 6.8747294e-01 -6.3311286e-02 
8.7758684e-01 6.8807071e-01 -4.1200835e-02 
8.8395685e-01 6.9304007e-01 -7.2444297e-02 
8.7375557e-01 6.8466586e-01 -2.8665405e-02 
8.7291467e-01 6.8379205e-01 -4.7920812e-02 
8.7246203e-01 6.8349582e-01 -3.6782734e-02 
8.7208062e-01 6.8336332e-01 -2.4436096e-02 
8.7251401e-01 6.8372780e-01 -3.2528177e-02 
8.6987805e-01 6.8114489e-01 -3.7567042e-02 
8.6941826e-01 6.8045300e-01 -5.9871521e-02 
8.7540740e-01 6.8553674e-01 -6.5685071e-02 
8.7534684e-01 6.8557459e-01 -6.1754629e-02 
8.6850387e-01 6.7954099e-01 -6.1645899e-02 
8.6575651e-01 6.7758131e-01 -2.5516054e-02 
8.6414468e-01 6.7587340e-01 -5.3294882e-02 
8.6672527e-01 6.7790741e-01 -5.8546931e-02 
8.6687332e-01 6.7799646e-01 -6.1160170e-02 
8.6298692e-01 6.7521393e-01 -2.5296696e-02 
8.6675113e-01 6.7810708e-01 -5.2037977e-02 
8.6501753e-01 6.7678398e-01 -4.2991392e-02 
8.6061621e-01 6.7251277e-01 -6.2105317e-02 
8.6697280e-01 6.7776686e-01 -7.1039476e-02 
8.5795194e-01 6.7048246e-01 -4.6120424e-02 
8.5855389e-01 6.7108959e-01 -2.7774671e-02 
8.5749781e-01 6.7010045e-01 -3.5303138e-02 
8.5770863e-01 6.7042911e-01 -2.3726312e-02 
8.5488462e-01 6.6794634e-01 -2.3192706e-02 
8.5453856e-01 6.6696823e-01 -5.9734005e-02 
8.5369205e-01 6.6660792e-01 -4.3602817e-02 
8.5272944e-01 6.6555601e-01 -5.8686431e-02 
8.5287815e-01 6.6598833e-01 -3.6295392e-02 
8.5373878e-01 6.6668916e-01 -3.9872780e-02 
8.5857016e-01 6.7043686e-01 -6.4399436e-02 
8.5850292e-01 6.7047244e-01 -6.0511943e-02 
8.5106033e-01 6.6432637e-01 -3.8527220e-02 
8.5250020e-01 6.6581464e-01 -3.1115130e-02 
8.5067677e-01 6.6409653e-01 -2.4592396e-02 
8.4924799e-01 6.6260469e-01 -5.1572617e-02 
8.5123968e-01 6.6401798e-01 -5.9661835e-02 
8.5074347e-01 6.6383874e-01 -4.9817227e-02 
8.4593791e-01 6.6000938e-01 -2.4210228e-02 
8.4402716e-01 6.5769762e-01 -6.0823988e-02 
8.4358293e-01 6.5773964e-01 -2.6871258e-02 
8.4278858e-01 6.5692699e-01 -4.4515356e-02 
8.5028291e-01 6.6282731e-01 -6.9697767e-02 
8.4272099e-01 6.5706837e-01 -2.2773657e-02 
8.3979052e-01 6.5390432e-01 -5.6534011e-02 
8.3798552e-01 6.5287822e-01 -2.2051904e-02 
8.3628345e-01 6.5089667e-01 -5.7489131e-02 
8.3647239e-01 6.5135461e-01 -3.5095159e-02 
8.3901608e-01 6.5367770e-01 -3.8629428e-02 
8.4204221e-01 6.5566081e-01 -6.3186288e-02 
8.4196872e-01 6.5569133e-01 -5.9348021e-02 
8.3576947e-01 6.5083969e-01 -2.3616310e-02 
8.3536029e-01 6.5033090e-01 -3.8023826e-02 
8.3683932e-01 6.5189958e-01 -2.8094186e-02 
8.3538812e-01 6.4994305e-01 -5.9194870e-02 
8.3086532e-01 6.4624470e-01 -5.0559942e-02 
8.3123982e-01 6.4666480e-01 -3.6908299e-02 
8.3386612e-01 6.4851099e-01 -5.8834564e-02 
8.2813942e-01 6.4387947e-01 -4.3200623e-02 
8.2872432e-01 6.4452624e-01 -2.5989808e-02 
8.2776034e-01 6.4323777e-01 -5.9674196e-02 
8.3141601e-01 6.4660668e-01 -4.7726188e-02 
8.2736135e-01 6.4339739e-01 -2.1859357e-02 
8.3395201e-01 6.4830279e-01 -6.8432488e-02 
8.2582897e-01 6.4188081e-01 -3.8619388e-02 
8.2454759e-01 6.4096725e-01 -2.3639353e-02 
8.2116264e-01 6.3785881e-01 -2.2665005e-02 
8.2060450e-01 6.3725907e-01 -3.3917662e-02 
8.2147241e-01 6.3820666e-01 -2.0992445e-02 
8.2017523e-01 6.3658732e-01 -5.6389205e-02 
8.2591426e-01 6.4135861e-01 -6.2072814e-02 
8.1970417e-01 6.3603991e-01 -5.7518851e-02 
8.1871372e-01 6.3566494e-01 -3.0068194e-02 
8.1948262e-01 6.3585258e-01 -5.5660620e-02 
8.1749368e-01 6.3449717e-01 -3.3548277e-02 
8.1705230e-01 6.3403088e-01 -4.7573783e-02 
8.1976730e-01 6.3661593e-01 -3.4290440e-02 
8.1645894e-01 6.3348901e-01 -4.3929055e-02 
8.1915772e-01 6.3553774e-01 -5.5296779e-02 
8.1795764e-01 6.3514072e-01 -2.8015709e-02 
8.1933045e-01 6.3610137e-01 -4.0127214e-02 
8.2168323e-01 6.3774610e-01 -5.5546831e-02 
8.1886363e-01 6.3523251e-01 -5.6744263e-02 
8.1552631e-01 6.3277012e-01 -3.5760235e-02 
8.1619489e-01 6.3311809e-01 -4.6796910e-02 
8.1805116e-01 6.3433629e-01 -6.7307420e-02 
8.0988693e-01 6.2776756e-01 -3.1767230e-02 
8.0840158e-01 6.2629801e-01 -4.4719148e-02 
8.0526567e-01 6.2370807e-01 -3.2783683e-02 
8.0484760e-01 6.2329626e-01 -4.2767663e-02 
8.0551094e-01 6.2396240e-01 -2.3290528e-02 
8.0453181e-01 6.2290901e-01 -5.0139144e-02 
8.0551374e-01 6.2400204e-01 -2.0769268e-02 
8.0427492e-01 6.2255305e-01 -5.5352196e-02 
8.0539757e-01 6.2401199e-01 -1.9996896e-02 
8.0403209e-01 6.2225485e-01 -5.8106039e-02 
8.0512559e-01 6.2378204e-01 -2.1806628e-02 
8.0387467e-01 6.2206894e-01 -5.7226416e-02 
8.0478418e-01 6.2346375e-01 -2.5567573e-02 
8.0372900e-01 6.2193197e-01 -5.5463202e-02 
8.0435354e-01 6.2303805e-01 -3.0563608e-02 
8.0347091e-01 6.2174541e-01 -5.4196972e-02 
8.0388397e-01 6.2256998e-01 -3.6074094e-02 
8.0086148e-01 6.1979014e-01 -3.5602011e-02 
8.0318028e-01 6.2141955e-01 -5.4800820e-02 
8.0348593e-01 6.2204045e-01 -4.1979406e-02 
8.0282348e-01 6.2108117e-01 -5.6927368e-02 
8.0304235e-01 6.2146717e-01 -4.8303496e-02 
7.9807198e-01 6.1719441e-01 -4.4694312e-02 
8.0253720e-01 6.2078893e-01 -6.0114700e-02 
8.0265635e-01 6.2093443e-01 -5.6093346e-02 
8.0234385e-01 6.2051743e-01 -6.6181354e-02 
7.9245567e-01 6.1233193e-01 -4.5757458e-02 
7.8987044e-01 6.1014020e-01 -3.1670265e-02 
7.8864795e-01 6.0887343e-01 -5.4321088e-02 
7.8974360e-01 6.1018252e-01 -1.9016953e-02 
7.8918415e-01 6.0972786e-01 -2.6964255e-02 
7.8736383e-01 6.0797232e-01 -2.2816543e-02 
7.8750592e-01 6.0815525e-01 -2.0038895e-02 
7.8870815e-01 6.0925967e-01 -3.2238882e-02 
7.8802299e-01 6.0818499e-01 -5.3729594e-02 
7.8704810e-01 6.0725683e-01 -5.5493414e-02 
7.8831089e-01 6.0881215e-01 -3.7925355e-02 
7.8778183e-01 6.0793132e-01 -5.3371415e-02 
7.8507149e-01 6.0557562e-01 -5.6743871e-02 
7.8578436e-01 6.0676426e-01 -2.1462217e-02 
7.8792298e-01 6.0828364e-01 -4.3934852e-02 
7.8373969e-01 6.0471094e-01 -3.8604043e-02 
7.8868526e-01 6.0880512e-01 -4.9565390e-02 
7.8619474e-01 6.0651898e-01 -5.4807663e-02 
7.8166139e-01 6.0293645e-01 -3.9899100e-02 
7.8683001e-01 6.0689402e-01 -6.5116122e-02 
7.7890861e-01 6.0050946e-01 -3.4478173e-02 
7.7782625e-01 5.9947693e-01 -4.9309734e-02 
7.8364539e-01 6.0423297e-01 -5.8143359e-02 
7.7537543e-01 5.9745008e-01 -2.0420834e-02 
7.7547002e-01 5.9761161e-01 -1.8644813e-02 
7.7417779e-01 5.9636945e-01 -3.0634200e-02 
7.7469456e-01 5.9682041e-01 -3.5349131e-02 
7.7335536e-01 5.9545445e-01 -5.3411413e-02 
7.7433968e-01 5.9673220e-01 -1.8059047e-02 
7.7895397e-01 6.0013640e-01 -5.5285476e-02 
7.7199590e-01 5.9443510e-01 -3.5665039e-02 
7.7264118e-01 5.9469450e-01 -5.5370875e-02 
7.7047759e-01 5.9312516e-01 -4.3181762e-02 
7.7173507e-01 5.9443152e-01 -2.5392134e-02 
7.7412671e-01 5.9609491e-01 -4.7514427e-02 
7.6955944e-01 5.9195197e-01 -5.3509615e-02 
7.7007836e-01 5.9288502e-01 -3.3852670e-02 
7.6923031e-01 5.9171200e-01 -5.2352045e-02 
7.7132368e-01 5.9348327e-01 -5.5006742e-02 
7.6970166e-01 5.9241462e-01 -3.9622921e-02 
7.6898068e-01 5.9147197e-01 -5.2862249e-02 
7.6589847e-01 5.8911598e-01 -3.5234943e-02 
7.6671779e-01 5.8982491e-01 -3.6451351e-02 
7.6540422e-01 5.8842593e-01 -5.5710167e-02 
7.6640475e-01 5.8981681e-01 -1.9181265e-02 
7.6415575e-01 5.8754063e-01 -4.8721246e-02 
7.7145147e-01 5.9337831e-01 -6.4127676e-02 
7.6333624e-01 5.8692962e-01 -2.1291871e-02 
7.6348233e-01 5.8710647e-01 -1.8623937e-02 
7.5817376e-01 5.8225340e-01 -5.2587640e-02 
7.5918549e-01 5.8340728e-01 -1.7179778e-02 
7.5808680e-01 5.8236164e-01 -2.9506411e-02 
7.6382971e-01 5.8682698e-01 -5.8067314e-02 
7.6375824e-01 5.8683687e-01 -5.4361291e-02 
7.5694323e-01 5.8134085e-01 -4.2700749e-02 
7.5754279e-01 5.8153260e-01 -5.4510701e-02 
7.5828362e-01 5.8272636e-01 -2.2907944e-02 
7.5513375e-01 5.7975268e-01 -3.2602582e-02 
7.5630456e-01 5.8038843e-01 -5.4164182e-02 
7.5166810e-01 5.7675993e-01 -1.8927727e-02 
7.5614411e-01 5.8044738e-01 -4.5197565e-02 
7.5177127e-01 5.7689106e-01 -1.7198380e-02 
7.5056374e-01 5.7572728e-01 -4.8137031e-02 
7.5047660e-01 5.7573313e-01 -3.5857331e-02 
7.5036198e-01 5.7537651e-01 -5.4967526e-02 
7.5137019e-01 5.7664704e-01 -1.8210037e-02 
7.5062412e-01 5.7577240e-01 -3.7382286e-02 
7.5640231e-01 5.8024663e-01 -6.3156873e-02 
7.4864149e-01 5.7426602e-01 -2.6736977e-02 
7.4782705e-01 5.7311296e-01 -5.2401520e-02 
7.4852693e-01 5.7397401e-01 -3.6301401e-02 
7.4410146e-01 5.7015574e-01 -4.2055517e-02 
7.4390060e-01 5.6998193e-01 -3.5026319e-02 
7.4327731e-01 5.6932950e-01 -5.1826324e-02 
7.4425209e-01 5.7040668e-01 -1.6253574e-02 
7.4381971e-01 5.6960088e-01 -5.4120477e-02 
7.4894494e-01 5.7393175e-01 -5.7235133e-02 
7.4323463e-01 5.6935734e-01 -3.7133925e-02 
7.4886805e-01 5.7393378e-01 -5.3546760e-02 
7.4158108e-01 5.6801128e-01 -2.8453914e-02 
7.4335867e-01 5.6973374e-01 -2.1925062e-02 
7.4366534e-01 5.6951910e-01 -5.1170230e-02 
7.3991352e-01 5.6652790e-01 -1.9744555e-02 
7.4005508e-01 5.6670523e-01 -1.7137388e-02 
7.4287671e-01 5.6890619e-01 -4.5714468e-02 
7.3763764e-01 5.6457025e-01 -3.0692469e-02 
7.3717660e-01 5.6409138e-01 -4.7308199e-02 
7.3720324e-01 5.6419575e-01 -3.5286684e-02 
7.4198902e-01 5.6799102e-01 -5.3902790e-02 
7.3560303e-01 5.6254923e-01 -5.4109327e-02 
7.3646528e-01 5.6373984e-01 -1.7305115e-02 
7.3606861e-01 5.6311113e-01 -3.7815396e-02 
7.4161685e-01 5.6745362e-01 -6.2248506e-02 
7.3090392e-01 5.5872333e-01 -4.1527901e-02 
7.2892159e-01 5.5699348e-01 -3.4858089e-02 
7.3119348e-01 5.5891263e-01 -3.7366375e-02 
7.2851664e-01 5.5652887e-01 -5.1104132e-02 
7.2946256e-01 5.5764300e-01 -1.5323061e-02 
7.3426044e-01 5.6124145e-01 -5.6437042e-02 
7.2843504e-01 5.5660975e-01 -1.7510096e-02 
7.2854507e-01 5.5666620e-01 -3.2870535e-02 
7.2855860e-01 5.5675560e-01 -1.5745031e-02 
7.3418343e-01 5.6124347e-01 -5.2743062e-02 
7.2793192e-01 5.5587423e-01 -5.3109746e-02 
7.2860807e-01 5.5693996e-01 -2.0933870e-02 
7.2454447e-01 5.5324888e-01 -2.7364591e-02 
7.2416490e-01 5.5285960e-01 -4.6788115e-02 
7.2689837e-01 5.5497140e-01 -5.2701753e-02 
7.2674888e-01 5.5500543e-01 -4.3629464e-02 
7.2090733e-01 5.4985374e-01 -5.3432919e-02 
7.2180510e-01 5.5104250e-01 -1.6439047e-02 
7.2700888e-01 5.5484223e-01 -6.1402660e-02 
7.2024924e-01 5.4920012e-01 -5.0734013e-02 
7.1784991e-01 5.4745418e-01 -4.0703710e-02 
7.2062296e-01 5.4997319e-01 -2.7458383e-02 
7.1734065e-01 5.4699486e-01 -3.4482781e-02 
7.1695530e-01 5.4665369e-01 -1.8295959e-02 
7.1713370e-01 5.4683268e-01 -1.5777303e-02 
7.1664768e-01 5.4632992e-01 -3.8356561e-02 
7.1493042e-01 5.4464966e-01 -5.2716516e-02 
7.1394390e-01 5.4394174e-01 -5.0403416e-02 
7.1562850e-01 5.4574269e-01 -1.9433318e-02 
7.1487081e-01 5.4500055e-01 -1.4439398e-02 
7.1971613e-01 5.4869324e-01 -5.5666246e-02 
7.1419913e-01 5.4427391e-01 -3.3497203e-02 
7.1963996e-01 5.4869241e-01 -5.1956289e-02 
7.1161646e-01 5.4209095e-01 -3.3754222e-02 
7.1116567e-01 5.4163712e-01 -4.6018664e-02 
7.1248609e-01 5.4282594e-01 -3.5526894e-02 
7.1180296e-01 5.4197478e-01 -4.9955677e-02 
7.1240157e-01 5.4247880e-01 -5.1997945e-02 
7.0736510e-01 5.3842926e-01 -2.9243391e-02 
7.1227276e-01 5.4251283e-01 -4.2851452e-02 
7.0701545e-01 5.3810686e-01 -2.6224488e-02 
7.0646775e-01 5.3743708e-01 -5.2758079e-02 
7.0732677e-01 5.3853941e-01 -1.5610692e-02 
7.0593518e-01 5.3716099e-01 -3.2997943e-02 
7.0493579e-01 5.3633106e-01 -3.9962672e-02 
7.0571876e-01 5.3699601e-01 -1.6096182e-02 
7.0582867e-01 5.3711748e-01 -1.4383293e-02 
7.1253365e-01 5.4237396e-01 -6.0593240e-02 
6.9955456e-01 5.3161198e-01 -4.9770895e-02 
7.0045859e-01 5.3256303e-01 -1.3633341e-02 
7.0531338e-01 5.3629869e-01 -5.4930318e-02 
6.9955140e-01 5.3164268e-01 -3.5647579e-02 
6.9873840e-01 5.3101087e-01 -3.2975759e-02 
7.0523596e-01 5.3629792e-01 -5.1210530e-02 
6.9832230e-01 5.3060824e-01 -4.5295753e-02 
6.9904077e-01 5.3100872e-01 -5.1802412e-02 
6.9971812e-01 5.3201306e-01 -1.9267561e-02 
6.9784307e-01 5.3022981e-01 -2.9386410e-02 
6.9441807e-01 5.2726984e-01 -1.6910659e-02 
6.9457453e-01 5.2745438e-01 -1.4415947e-02 
6.9807935e-01 5.3016448e-01 -5.1350884e-02 
6.9794816e-01 5.3022093e-01 -4.2153221e-02 
6.9315231e-01 5.2622610e-01 -2.3120526e-02 
6.9215238e-01 5.2536321e-01 -3.9170876e-02 
6.9219297e-01 5.2520210e-01 -5.2080527e-02 
6.9304538e-01 5.2626169e-01 -1.4812600e-02 
6.9249755e-01 5.2559257e-01 -3.5439983e-02 
6.9821751e-01 5.3006828e-01 -5.9812672e-02 
6.9155526e-01 5.2459383e-01 -4.9401674e-02 
6.9195062e-01 5.2526253e-01 -2.5676152e-02 
6.8891907e-01 5.2258193e-01 -2.5128605e-02 
6.9026947e-01 5.2362335e-01 -3.9252341e-02 
6.8643814e-01 5.2038807e-01 -3.6971286e-02 
6.8619072e-01 5.2023214e-01 -2.4990579e-02 
6.8602347e-01 5.2009970e-01 -2.8371839e-02 
6.8565577e-01 5.1974404e-01 -4.4630598e-02 
6.8633109e-01 5.2014053e-01 -5.1470514e-02 
6.8540180e-01 5.1945907e-01 -4.9150076e-02 
6.8701464e-01 5.2112138e-01 -1.7744875e-02 
6.8624109e-01 5.2039874e-01 -1.2832566e-02 
6.9108444e-01 5.2407193e-01 -5.4226685e-02 
6.9100553e-01 5.2406895e-01 -5.0495394e-02 
6.8344444e-01 5.1786417e-01 -1.4831483e-02 
6.8359023e-01 5.1806301e-01 -1.3106643e-02 
6.7953628e-01 5.1456326e-01 -3.8391754e-02 
6.8303168e-01 5.1729119e-01 -4.8791099e-02 
6.8309331e-01 5.1756418e-01 -3.4105800e-02 
6.8396896e-01 5.1804596e-01 -5.0712250e-02 
6.7939836e-01 5.1443428e-01 -3.1155646e-02 
6.8381578e-01 5.1806110e-01 -4.1459162e-02 
6.7809927e-01 5.1313913e-01 -5.1502641e-02 
6.7891347e-01 5.1418173e-01 -1.3940938e-02 
6.8406683e-01 5.1792377e-01 -5.9060026e-02 
6.7624378e-01 5.1169455e-01 -3.3215605e-02 
6.7334020e-01 5.0928962e-01 -3.1974073e-02 
6.7356688e-01 5.0945783e-01 -2.4772609e-02 
6.7309219e-01 5.0903326e-01 -4.3948967e-02 
6.7253876e-01 5.0853896e-01 -1.5900040e-02 
6.7241037e-01 5.0849080e-01 -1.3173466e-02 
6.7136067e-01 5.0746292e-01 -4.8585188e-02 
6.7219949e-01 5.0840342e-01 -1.2040790e-02 
6.7701769e-01 5.1202494e-01 -5.3534422e-02 
6.7693561e-01 5.1202089e-01 -4.9800400e-02 
6.7135876e-01 5.0756270e-01 -2.8679557e-02 
6.7035156e-01 5.0671500e-01 -2.4001973e-02 
6.7089969e-01 5.0692403e-01 -5.0662223e-02 
6.7147368e-01 5.0785822e-01 -1.7587489e-02 
6.6707826e-01 5.0396723e-01 -3.7680045e-02 
6.6714007e-01 5.0397044e-01 -2.9606596e-02 
6.6684908e-01 5.0366098e-01 -4.0433608e-02 
6.6998625e-01 5.0610101e-01 -5.0081801e-02 
6.6981727e-01 5.0613821e-01 -4.0787332e-02 
6.6418427e-01 5.0126684e-01 -5.0946724e-02 
6.6494596e-01 5.0228137e-01 -1.3138426e-02 
6.6338176e-01 5.0080884e-01 -2.7082829e-02 
6.7007685e-01 5.0597298e-01 -5.8335491e-02 
6.6363138e-01 5.0071180e-01 -4.8454747e-02 
6.6393948e-01 5.0138462e-01 -2.4013199e-02 
6.6112828e-01 4.9889392e-01 -3.0690996e-02 
6.6141444e-01 4.9908891e-01 -1.7736364e-02 
6.6153836e-01 4.9922064e-01 -1.3588811e-02 
6.6073841e-01 4.9851552e-01 -4.3222826e-02 
6.6157687e-01 4.9928564e-01 -1.1852664e-02 
6.5990388e-01 4.9776435e-01 -3.4811847e-02 
6.5852666e-01 4.9640608e-01 -5.0389390e-02 
6.5751177e-01 4.9572590e-01 -4.7972959e-02 
6.5912139e-01 4.9735489e-01 -1.6186221e-02 
6.5834171e-01 4.9658990e-01 -1.1245529e-02 
6.6311264e-01 5.0017744e-01 -5.2866347e-02 
6.5773171e-01 4.9596864e-01 -2.9390432e-02 
6.6302735e-01 5.0017279e-01 -4.9129441e-02 
6.5645307e-01 4.9484760e-01 -3.2921929e-02 
6.5479040e-01 4.9349752e-01 -3.7004624e-02 
6.5396506e-01 4.9280682e-01 -2.4656188e-02 
6.5519631e-01 4.9356467e-01 -4.7651976e-02 
6.5616453e-01 4.9436390e-01 -4.9461886e-02 
6.5518063e-01 4.9380705e-01 -3.2661214e-02 
6.5116930e-01 4.9042788e-01 -2.2878787e-02 
6.5600449e-01 4.9439195e-01 -4.0128801e-02 
6.5077245e-01 4.9003014e-01 -1.4365498e-02 
6.5085953e-01 4.9015036e-01 -1.2001522e-02 
6.5074742e-01 4.9007836e-01 -2.2475410e-02 
6.5043861e-01 4.8960230e-01 -5.0369114e-02 
6.5087211e-01 4.9021596e-01 -1.0855461e-02 
6.5117824e-01 4.9057630e-01 -1.2442568e-02 
6.5624470e-01 4.9422026e-01 -5.7633802e-02 
6.4850837e-01 4.8815063e-01 -4.2607855e-02 
6.4416629e-01 4.8447162e-01 -3.2017116e-02 
6.4385140e-01 4.8412508e-01 -4.7457974e-02 
6.4464694e-01 4.8497468e-01 -1.0566820e-02 
6.4936572e-01 4.8852775e-01 -5.2225310e-02 
6.4927787e-01 4.8852253e-01 -4.8486907e-02 
6.4331323e-01 4.8377687e-01 -2.4599129e-02 
6.4261889e-01 4.8323774e-01 -3.6358185e-02 
6.4341730e-01 4.8358339e-01 -4.9582496e-02 
6.4395535e-01 4.8450020e-01 -1.6147261e-02 
6.4229000e-01 4.8285004e-01 -3.2704771e-02 
6.4009804e-01 4.8100451e-01 -1.6535422e-02 
6.4023596e-01 4.8113531e-01 -1.2452114e-02 
6.4025789e-01 4.8121566e-01 -1.0697013e-02 
6.4251739e-01 4.8279577e-01 -4.8915833e-02 
6.4233780e-01 4.8283395e-01 -3.9530061e-02 
6.3680446e-01 4.7828850e-01 -2.9286608e-02 
6.3692939e-01 4.7837222e-01 -2.2638081e-02 
6.3697708e-01 4.7838947e-01 -3.1073283e-02 
6.3640076e-01 4.7794089e-01 -4.1943096e-02 
6.3685894e-01 4.7815028e-01 -4.9792577e-02 
6.3761312e-01 4.7908708e-01 -1.1756983e-02 
6.3696414e-01 4.7835460e-01 -3.3512179e-02 
6.4258730e-01 4.8265448e-01 -5.6942940e-02 
6.3630414e-01 4.7756439e-01 -4.7471311e-02 
6.3661963e-01 4.7822952e-01 -2.2349736e-02 
6.3137406e-01 4.7367537e-01 -2.1738289e-02 
6.3061255e-01 4.7307152e-01 -3.5707336e-02 
6.3132095e-01 4.7340307e-01 -4.9315292e-02 
6.3033772e-01 4.7275367e-01 -4.6923097e-02 
6.3185304e-01 4.7426578e-01 -1.4799120e-02 
6.3115889e-01 4.7357997e-01 -9.8455260e-03 
6.3580227e-01 4.7705215e-01 -5.1599778e-02 
6.3057780e-01 4.7295782e-01 -3.4077086e-02 
6.3571244e-01 4.7704551e-01 -4.7863636e-02 
6.2967360e-01 4.7221604e-01 -1.3188578e-02 
6.2976015e-01 4.7231144e-01 -1.0885172e-02 
6.2561131e-01 4.6887991e-01 -2.9259952e-02 
6.2519962e-01 4.6848512e-01 -2.2800507e-02 
6.2806726e-01 4.7063091e-01 -4.6680495e-02 
6.2447137e-01 4.6786654e-01 -4.1415229e-02 
6.2903661e-01 4.7143182e-01 -4.8330214e-02 
6.2802857e-01 4.7086859e-01 -3.1360030e-02 
6.2886971e-01 4.7145689e-01 -3.8933266e-02 
6.2369663e-01 4.6718067e-01 -3.2731831e-02 
6.2346107e-01 4.6686435e-01 -4.9204055e-02 
6.2420452e-01 4.6779630e-01 -1.1041444e-02 
6.2458932e-01 4.6789899e-01 -3.3702414e-02 
6.2910873e-01 4.7128293e-01 -5.6277867e-02 
6.2009001e-01 4.6413401e-01 -1.4217079e-02 
6.1869544e-01 4.6307123e-01 -3.5050936e-02 
6.1933821e-01 4.6351832e-01 -1.1305374e-02 
6.1935300e-01 4.6359712e-01 -9.5418347e-03 
6.1703330e-01 4.6154743e-01 -4.6446715e-02 
6.1780870e-01 4.6234459e-01 -9.1350926e-03 
6.2241739e-01 4.6578744e-01 -5.0997075e-02 
6.2232548e-01 4.6578014e-01 -4.7267817e-02 
6.1701590e-01 4.6161988e-01 -2.4947440e-02 
6.1612111e-01 4.6086544e-01 -2.7210766e-02 
6.1658490e-01 4.6104181e-01 -4.8648130e-02 
6.1535764e-01 4.6021590e-01 -2.4078945e-02 
6.1716157e-01 4.6188307e-01 -1.4680205e-02 
6.1263579e-01 4.5795178e-01 -4.0756382e-02 
6.1576337e-01 4.6025658e-01 -4.7813959e-02 
6.1091179e-01 4.5647702e-01 -2.0581963e-02 
6.1557430e-01 4.6029338e-01 -3.8382128e-02 
6.1043388e-01 4.5606941e-01 -3.2427941e-02 
6.1023498e-01 4.5578614e-01 -4.8769418e-02 
6.1096734e-01 4.5666891e-01 -1.0376576e-02 
6.1043423e-01 4.5603606e-01 -3.3380650e-02 
6.1581069e-01 4.6011096e-01 -5.5634245e-02 
6.0894978e-01 4.5480153e-01 -1.2126284e-02 
6.0905367e-01 4.5491102e-01 -9.8095732e-03 
6.0976058e-01 4.5526892e-01 -4.6369415e-02 
6.0995299e-01 4.5582652e-01 -2.1044511e-02 
6.0784489e-01 4.5395014e-01 -1.8775063e-02 
6.0696036e-01 4.5321906e-01 -3.4431398e-02 
6.0834610e-01 4.5421183e-01 -3.7009060e-02 
6.0480320e-01 4.5118150e-01 -4.8401080e-02 
6.0385352e-01 4.5054018e-01 -4.5976214e-02 
6.0540974e-01 4.5200351e-01 -1.3326543e-02 
6.0460329e-01 4.5129895e-01 -8.4389560e-03 
6.0921121e-01 4.5470572e-01 -5.0415196e-02 
6.0911661e-01 4.5469698e-01 -4.6688251e-02 
6.0384715e-01 4.5060477e-01 -2.4077194e-02 
6.0134441e-01 4.4852248e-01 -2.7317073e-02 
6.0097575e-01 4.4822881e-01 -4.0190861e-02 
6.0128981e-01 4.4844812e-01 -2.5168050e-02 
5.9947777e-01 4.4687742e-01 -1.3171857e-02 
6.0170466e-01 4.4854698e-01 -4.5715984e-02 
5.9884953e-01 4.4636527e-01 -1.0274320e-02 
6.0262680e-01 4.4928604e-01 -4.7268618e-02 
6.0165775e-01 4.4875771e-01 -3.0084040e-02 
5.9859097e-01 4.4620818e-01 -8.4921140e-03 
6.0245073e-01 4.4930610e-01 -3.7811358e-02 
5.9713703e-01 4.4497234e-01 -3.3143576e-02 
5.9712172e-01 4.4482923e-01 -4.8327643e-02 
5.9786934e-01 4.4569752e-01 -9.6757514e-03 
6.0267180e-01 4.4911751e-01 -5.5016030e-02 
5.9533495e-01 4.4352746e-01 -3.3795238e-02 
5.9491074e-01 4.4312856e-01 -2.2752792e-02 
5.9510857e-01 4.4325903e-01 -3.1578973e-02 
5.9080911e-01 4.3967420e-01 -4.5483295e-02 
5.9161568e-01 4.4042531e-01 -7.7201920e-03 
5.9614736e-01 4.4380209e-01 -4.9847823e-02 
5.9605044e-01 4.4379255e-01 -4.6120562e-02 
5.9081697e-01 4.3974528e-01 -2.3201307e-02 
5.8980280e-01 4.3885952e-01 -1.9446051e-02 
5.8941627e-01 4.3857244e-01 -3.9604094e-02 
5.9047663e-01 4.3922284e-01 -4.7685530e-02 
5.9098023e-01 4.4002399e-01 -1.3355073e-02 
5.8866018e-01 4.3787569e-01 -1.1098759e-02 
5.8877182e-01 4.3799874e-01 -8.7988013e-03 
5.8965272e-01 4.3844241e-01 -4.6783887e-02 
5.8478010e-01 4.3469808e-01 -2.1807287e-02 
5.8945346e-01 4.3847406e-01 -3.7273951e-02 
5.8385915e-01 4.3398756e-01 -3.3227257e-02 
5.8417141e-01 4.3409723e-01 -4.7897093e-02 
5.8490270e-01 4.3494308e-01 -9.0585696e-03 
5.8438516e-01 4.3430963e-01 -3.2765947e-02 
5.8967447e-01 4.3828374e-01 -5.4407846e-02 
5.8379072e-01 4.3361962e-01 -4.5592330e-02 
5.8241904e-01 4.3273622e-01 -2.1283615e-02 
5.8401132e-01 4.3418044e-01 -1.9539462e-02 
5.8236670e-01 4.3260252e-01 -3.6417559e-02 
5.7838339e-01 4.2941147e-01 -2.6109271e-02 
5.7882738e-01 4.2970636e-01 -1.2130357e-02 
5.7798803e-01 4.2910439e-01 -3.9082158e-02 
5.7875675e-01 4.2965323e-01 -9.2773745e-03 
5.7893229e-01 4.2967147e-01 -4.7497362e-02 
5.7792783e-01 4.2901546e-01 -4.5090623e-02 
5.7879090e-01 4.2971882e-01 -7.2473120e-03 
5.7947886e-01 4.3049392e-01 -1.2001110e-02 
5.7873505e-01 4.2975342e-01 -7.1479478e-03 
5.8322310e-01 4.3303725e-01 -4.9291372e-02 
5.7789361e-01 4.2894265e-01 -3.2515585e-02 
5.7822299e-01 4.2927963e-01 -2.4077175e-02 
5.8312410e-01 4.3302602e-01 -4.5561396e-02 
5.7471550e-01 4.2634732e-01 -2.1296622e-02 
5.7498729e-01 4.2656538e-01 -1.9084351e-02 
5.7252169e-01 4.2457631e-01 -3.2660451e-02 
5.7590485e-01 4.2705411e-01 -4.4817984e-02 
5.7677996e-01 4.2776212e-01 -4.6276771e-02 
5.7583225e-01 4.2727363e-01 -2.8853051e-02 
5.7659966e-01 4.2778334e-01 -3.6722850e-02 
5.7138789e-01 4.2347544e-01 -4.7411263e-02 
5.7209879e-01 4.2430633e-01 -8.4242737e-03 
5.7048893e-01 4.2283252e-01 -3.2343771e-02 
5.7150584e-01 4.2366254e-01 -2.8660700e-02 
5.7680786e-01 4.2759016e-01 -5.3810373e-02 
5.6878954e-01 4.2139739e-01 -1.0100048e-02 
5.6890810e-01 4.2150742e-01 -7.8430725e-03 
5.6795019e-01 4.2074335e-01 -1.8287016e-02 
5.6703013e-01 4.1999915e-01 -2.3951873e-02 
5.6671757e-01 4.1975760e-01 -3.8549628e-02 
5.6519872e-01 4.1844526e-01 -4.4649482e-02 
5.6596732e-01 4.1918811e-01 -6.4430414e-03 
5.7042116e-01 4.2241850e-01 -4.8738752e-02 
5.6516939e-01 4.1840851e-01 -3.2251507e-02 
5.7032019e-01 4.2240655e-01 -4.5012552e-02 
5.6488752e-01 4.1802692e-01 -4.6884459e-02 
5.6540757e-01 4.1881165e-01 -1.2038523e-02 
5.6126946e-01 4.1527116e-01 -3.2103866e-02 
5.6406045e-01 4.1721135e-01 -4.5782514e-02 
5.6385142e-01 4.1723928e-01 -3.6212642e-02 
5.5931789e-01 4.1361862e-01 -6.4692916e-03 
5.5902708e-01 4.1335595e-01 -8.2661984e-03 
5.5872512e-01 4.1300529e-01 -4.6965953e-02 
5.5900061e-01 4.1334686e-01 -2.0660069e-02 
5.5947125e-01 4.1387999e-01 -7.7847647e-03 
5.5890012e-01 4.1319624e-01 -3.2205578e-02 
5.5809790e-01 4.1256139e-01 -1.1109063e-02 
5.6408012e-01 4.1705328e-01 -5.3214356e-02 
5.5830985e-01 4.1254124e-01 -4.4772834e-02 
5.5857813e-01 4.1317698e-01 -1.8114895e-02 
5.5588645e-01 4.1081750e-01 -2.4957780e-02 
5.5552226e-01 4.1051215e-01 -3.8046584e-02 
5.5688274e-01 4.1150376e-01 -3.5839248e-02 
5.5472368e-01 4.0983263e-01 -1.9781223e-02 
5.5359066e-01 4.0870833e-01 -4.6683326e-02 
5.5261475e-01 4.0803105e-01 -4.4277444e-02 
5.5416232e-01 4.0954015e-01 -1.0752289e-02 
5.5339378e-01 4.0879852e-01 -5.8727013e-03 
5.5256099e-01 4.0799952e-01 -3.1941272e-02 
5.5776584e-01 4.1195926e-01 -4.8185002e-02 
5.5766535e-01 4.1194454e-01 -4.4470541e-02 
5.5012846e-01 4.0611345e-01 -3.1535950e-02 
5.5016035e-01 4.0607330e-01 -2.5424039e-02 
5.4924047e-01 4.0525270e-01 -9.1301454e-03 
5.4936683e-01 4.0538499e-01 -6.8690861e-03 
5.5146736e-01 4.0684149e-01 -4.5254651e-02 
5.5127889e-01 4.0685114e-01 -3.5693087e-02 
5.4974002e-01 4.0541169e-01 -4.3939821e-02 
5.4951793e-01 4.0552345e-01 -2.7704176e-02 
5.4620916e-01 4.0268540e-01 -4.6495851e-02 
5.4649270e-01 4.0308830e-01 -1.9894015e-02 
5.4689670e-01 4.0352702e-01 -7.1795513e-03 
5.4550272e-01 4.0224037e-01 -1.9440180e-02 
5.4711872e-01 4.0355575e-01 -2.8324094e-02 
5.4527318e-01 4.0203312e-01 -1.7153643e-02 
5.5150223e-01 4.0669206e-01 -5.2625950e-02 
5.4444355e-01 4.0141228e-01 -3.7469331e-02 
5.4450202e-01 4.0140587e-01 -3.2015577e-02 
5.4015678e-01 3.9780775e-01 -4.3809328e-02 
5.4093981e-01 3.9856449e-01 -5.2683768e-03 
5.4526341e-01 4.0168259e-01 -4.7639795e-02 
5.4034841e-01 3.9803380e-01 -5.3323847e-03 
5.4516286e-01 4.0166584e-01 -4.3941680e-02 
5.3912687e-01 3.9706421e-01 -3.1003565e-02 
5.3969795e-01 3.9742664e-01 -7.3751416e-03 
5.3917968e-01 3.9707378e-01 -2.5082136e-02 
5.3982472e-01 3.9740935e-01 -4.6047222e-02 
5.4035836e-01 3.9814442e-01 -1.0766265e-02 
5.3823924e-01 3.9629787e-01 -2.1151543e-02 
5.3723609e-01 3.9540064e-01 -1.0154909e-02 
5.3490275e-01 3.9354011e-01 -1.8210094e-02 
5.3904873e-01 3.9662951e-01 -4.4772733e-02 
5.3884214e-01 3.9665055e-01 -3.5198301e-02 
5.3387326e-01 3.9273697e-01 -2.3823401e-02 
5.3352320e-01 3.9246324e-01 -3.6937028e-02 
5.3398764e-01 3.9277893e-01 -3.0741828e-02 
5.3384274e-01 3.9257121e-01 -4.6136692e-02 
5.3412563e-01 3.9292821e-01 -1.9105842e-02 
5.3455538e-01 3.9337561e-01 -6.5497085e-03 
5.3407842e-01 3.9288571e-01 -2.2704422e-02 
5.3907275e-01 3.9650589e-01 -5.2044068e-02 
5.3345805e-01 3.9209220e-01 -4.3793790e-02 
5.3372091e-01 3.9273557e-01 -1.6973408e-02 
5.3210694e-01 3.9129660e-01 -2.2814360e-02 
5.3017849e-01 3.8963771e-01 -5.9755361e-03 
5.2995563e-01 3.8943237e-01 -7.7717509e-03 
5.2824080e-01 3.8816404e-01 -3.0449493e-02 
5.2880120e-01 3.8837397e-01 -4.5891918e-02 
5.2784544e-01 3.8776463e-01 -4.3421432e-02 
5.2934885e-01 3.8915408e-01 -9.5393658e-03 
5.2863771e-01 3.8846931e-01 -4.6454561e-03 
5.2805239e-01 3.8788810e-01 -3.1820100e-02 
5.3290021e-01 3.9156231e-01 -4.7102757e-02 
5.2751267e-01 3.8749793e-01 -1.7724007e-02 
5.3279769e-01 3.9154220e-01 -4.3411117e-02 
5.2499521e-01 3.8544467e-01 -1.8500501e-02 
5.2445364e-01 3.8499105e-01 -1.6978288e-02 
5.2689421e-01 3.8674697e-01 -4.3060545e-02 
5.2672195e-01 3.8658735e-01 -4.4279832e-02 
5.2574021e-01 3.8608098e-01 -2.6456350e-02 
5.2653933e-01 3.8660863e-01 -3.4681775e-02 
5.2179843e-01 3.8281402e-01 -1.6023848e-02 
5.2250177e-01 3.8341883e-01 -1.8190255e-02 
5.2159005e-01 3.8257039e-01 -4.5648854e-02 
5.2228928e-01 3.8337612e-01 -5.9684729e-03 
5.2195525e-01 3.8298246e-01 -2.3261372e-02 
5.2068985e-01 3.8186181e-01 -6.4524300e-03 
5.2677560e-01 3.8645977e-01 -5.1454917e-02 
5.1978505e-01 3.8118652e-01 -4.4875629e-03 
5.2080500e-01 3.8192731e-01 -3.2200333e-02 
5.1790595e-01 3.7970039e-01 -3.8524482e-02 
5.1740742e-01 3.7929744e-01 -3.0425549e-02 
5.1673424e-01 3.7869349e-01 -1.7287808e-02 
5.2099228e-01 3.8196304e-01 -4.1228913e-02 
5.1565742e-01 3.7779433e-01 -4.3040387e-02 
5.1644528e-01 3.7856025e-01 -4.0732715e-03 
5.2067316e-01 3.8160262e-01 -4.6541739e-02 
5.2056849e-01 3.8157713e-01 -4.2864967e-02 
5.1520288e-01 3.7746635e-01 -1.4585761e-02 
5.1536936e-01 3.7738919e-01 -4.5226570e-02 
5.1587778e-01 3.7817195e-01 -9.6249543e-03 
5.1404667e-01 3.7652636e-01 -3.0333823e-02 
5.1134580e-01 3.7427279e-01 -5.1413090e-03 
5.1091653e-01 3.7391385e-01 -7.4113468e-03 
5.1138222e-01 3.7435922e-01 -3.7620540e-03 
5.1454180e-01 3.7667280e-01 -4.3755185e-02 
5.1433575e-01 3.7665623e-01 -3.4173068e-02 
5.0899887e-01 3.7244660e-01 -3.9593939e-02 
5.0946081e-01 3.7267908e-01 -4.5272473e-02 
5.1019186e-01 3.7353918e-01 -5.3905416e-03 
5.0822836e-01 3.7184510e-01 -2.6104972e-02 
5.0807667e-01 3.7172967e-01 -3.3734147e-02 
5.1458949e-01 3.7654105e-01 -5.0854594e-02 
5.0858319e-01 3.7208748e-01 -1.8529218e-02 
5.0901121e-01 3.7240511e-01 -2.7875267e-02 
5.0898612e-01 3.7220764e-01 -4.3011364e-02 
5.0934315e-01 3.7281594e-01 -1.5670156e-02 
5.0567746e-01 3.6973533e-01 -2.7626727e-02 
5.0837696e-01 3.7169397e-01 -4.2392027e-02 
5.0580651e-01 3.6982912e-01 -1.4631934e-02 
5.0516713e-01 3.6932549e-01 -2.0389562e-02 
5.0453138e-01 3.6858270e-01 -4.5070380e-02 
5.0357318e-01 3.6799240e-01 -4.2608518e-02 
5.0439811e-01 3.6873862e-01 -3.5321505e-03 
5.0356287e-01 3.6796680e-01 -3.0888209e-02 
5.0853175e-01 3.7172672e-01 -4.5974068e-02 
5.0363809e-01 3.6794332e-01 -3.7447993e-02 
5.0842917e-01 3.7170181e-01 -4.2324446e-02 
5.0384110e-01 3.6841083e-01 -9.0343021e-03 
5.0242215e-01 3.6704776e-01 -3.7085637e-03 
5.0163698e-01 3.6637688e-01 -5.7109087e-03 
5.0103992e-01 3.6593673e-01 -1.5180315e-02 
4.9997970e-01 3.6513796e-01 -3.7581660e-02 
4.9897990e-01 3.6437491e-01 -2.9598948e-02 
4.9900058e-01 3.6427885e-01 -1.4900599e-02 
5.0250059e-01 3.6689165e-01 -4.3221675e-02 
5.0230378e-01 3.6688584e-01 -3.3694431e-02 
4.9772367e-01 3.6326811e-01 -1.7224452e-02 
5.0083715e-01 3.6582643e-01 -2.5351737e-02 
4.9748117e-01 3.6298105e-01 -4.4810791e-02 
4.9820906e-01 3.6378866e-01 -4.8479508e-03 
4.9772263e-01 3.6330745e-01 -2.2450622e-02 
5.0254738e-01 3.6677852e-01 -5.0248638e-02 
4.9552864e-01 3.6153466e-01 -2.4760867e-02 
4.9769729e-01 3.6319500e-01 -3.0180356e-02 
4.9540201e-01 3.6142740e-01 -1.6334511e-02 
4.9361902e-01 3.5997021e-01 -1.4660590e-02 
4.9284774e-01 3.5928237e-01 -4.3044039e-03 
4.9256670e-01 3.5903874e-01 -6.0916101e-03 
4.9169227e-01 3.5837919e-01 -4.2255066e-02 
4.9250138e-01 3.5909685e-01 -2.9937224e-03 
4.9166644e-01 3.5836467e-01 -3.0597383e-02 
4.9113256e-01 3.5794011e-01 -1.5524449e-02 
4.9658865e-01 3.6206552e-01 -4.5417458e-02 
4.9648339e-01 3.6203951e-01 -4.1803379e-02 
4.9145171e-01 3.5800639e-01 -4.4366445e-02 
4.8996291e-01 3.5706332e-01 -2.5253566e-02 
4.8981395e-01 3.5696325e-01 -3.2838766e-02 
4.9108285e-01 3.5805288e-01 -7.5723464e-03 
4.8750052e-01 3.5502496e-01 -2.8462341e-02 
4.8726842e-01 3.5482681e-01 -1.5406894e-02 
4.9062398e-01 3.5731491e-01 -4.2718366e-02 
4.8910505e-01 3.5610884e-01 -4.1582797e-02 
4.8629960e-01 3.5405669e-01 -1.7133322e-02 
4.9042648e-01 3.5730788e-01 -3.3215944e-02 
4.8566058e-01 3.5343102e-01 -4.4362735e-02 
4.8556596e-01 3.5338706e-01 -7.8136977e-03 
4.8641491e-01 3.5423175e-01 -4.3109846e-03 
4.8632884e-01 3.5413107e-01 -1.8566152e-02 
4.8578143e-01 3.5367721e-01 -1.8217985e-02 
4.8544458e-01 3.5331449e-01 -2.9925074e-02 
4.9067494e-01 3.5718578e-01 -4.9646296e-02 
4.8559046e-01 3.5362962e-01 -1.4526343e-02 
4.8368093e-01 3.5188928e-01 -4.8502586e-03 
4.8603415e-01 3.5375205e-01 -3.3581462e-02 
4.8319340e-01 3.5152510e-01 -2.8416761e-03 
4.8085287e-01 3.4973544e-01 -3.6607787e-02 
4.8033485e-01 3.4932026e-01 -2.7909713e-02 
4.7991642e-01 3.4891135e-01 -4.1773997e-02 
4.8144752e-01 3.5028601e-01 -7.3504047e-03 
4.8075649e-01 3.4961739e-01 -2.4459055e-03 
4.8478907e-01 3.5254639e-01 -4.4856727e-02 
4.8005214e-01 3.4904352e-01 -1.6427755e-02 
4.8468167e-01 3.5252103e-01 -4.1271299e-02 
4.7853333e-01 3.4762520e-01 -4.4113729e-02 
4.7773015e-01 3.4712690e-01 -1.3923729e-02 
4.7738457e-01 3.4686637e-01 -1.5642907e-02 
4.7721267e-01 3.4673682e-01 -1.3546034e-02 
4.7513333e-01 3.4511033e-01 -2.6025696e-02 
4.7890380e-01 3.4787002e-01 -4.2189717e-02 
4.7458300e-01 3.4455270e-01 -5.7454859e-03 
4.7471851e-01 3.4467235e-01 -3.5616844e-03 
4.7476292e-01 3.4476385e-01 -2.1151484e-03 
4.7439650e-01 3.4449616e-01 -1.2874253e-02 
4.7397566e-01 3.4407684e-01 -4.3891754e-02 
4.7471234e-01 3.4484696e-01 -3.8416549e-03 
4.7444436e-01 3.4453824e-01 -2.1669723e-02 
4.7382575e-01 3.4396178e-01 -3.1725593e-02 
4.7755033e-01 3.4691089e-01 -3.3873267e-02 
4.7892892e-01 3.4773675e-01 -4.9047820e-02 
4.7206771e-01 3.4266454e-01 -2.4431186e-02 
4.7344312e-01 3.4357396e-01 -3.4783401e-02 
4.7190276e-01 3.4257549e-01 -3.1983234e-02 
4.7183293e-01 3.4248537e-01 -3.8378235e-02 
4.7360229e-01 3.4361953e-01 -4.1659724e-02 
4.7266614e-01 3.4311143e-01 -2.3951555e-02 
4.6831268e-01 3.3961064e-01 -4.1345619e-02 
4.6901819e-01 3.4000149e-01 -4.3731019e-02 
4.6915627e-01 3.4033316e-01 -2.0159699e-03 
4.6805701e-01 3.3942911e-01 -2.8961543e-02 
4.6846518e-01 3.3975786e-01 -1.5757626e-02 
4.7310862e-01 3.4316245e-01 -4.4289142e-02 
4.7299558e-01 3.4312847e-01 -4.0725619e-02 
4.6861464e-01 3.4000677e-01 -7.5348378e-03 
4.6697107e-01 3.3854178e-01 -1.6978905e-02 
4.6655408e-01 3.3812469e-01 -7.0128199e-03 
4.6573728e-01 3.3745837e-01 -4.0638032e-03 
4.6500662e-01 3.3700499e-01 -2.1270361e-02 
4.6579581e-01 3.3756456e-01 -2.3031824e-03 
4.6317315e-01 3.3559805e-01 -2.7950304e-02 
4.6802250e-01 3.3927271e-01 -3.3712383e-02 
4.6290800e-01 3.3534777e-01 -3.6271833e-02 
4.6421412e-01 3.3636710e-01 -2.1157261e-02 
4.6235406e-01 3.3483416e-01 -1.3865434e-02 
4.6244368e-01 3.3483276e-01 -4.3436624e-02 
4.6320486e-01 3.3562151e-01 -3.3811361e-03 
4.6612015e-01 3.3761320e-01 -4.1829724e-02 
4.6519026e-01 3.3704650e-01 -3.0173222e-02 
4.6198764e-01 3.3451307e-01 -2.9547077e-02 
4.6729448e-01 3.3839583e-01 -4.8414283e-02 
4.6137246e-01 3.3383194e-01 -4.0409677e-02 
4.5782530e-01 3.3120042e-01 -1.3059027e-02 
4.5781490e-01 3.3123311e-01 -2.8608169e-02 
4.5763761e-01 3.3110508e-01 -1.8878024e-02 
4.6086890e-01 3.3354887e-01 -3.3254210e-02 
4.5681608e-01 3.3041850e-01 -4.0922068e-02 
4.5766690e-01 3.3113238e-01 -1.4766387e-03 
4.5708826e-01 3.3063811e-01 -8.7836077e-03 
4.5676669e-01 3.3031017e-01 -4.9653477e-03 
4.5689133e-01 3.3042130e-01 -2.8248974e-03 
4.5703480e-01 3.3062834e-01 -1.5115102e-02 
4.6153033e-01 3.3388996e-01 -4.3683488e-02 
4.5815068e-01 3.3160189e-01 -1.3183040e-02 
4.6141770e-01 3.3385670e-01 -4.0170059e-02 
4.5625722e-01 3.2995558e-01 -2.9566687e-02 
4.5662618e-01 3.3009633e-01 -4.2934131e-02 
4.5714742e-01 3.3083978e-01 -7.0443121e-03 
4.5448512e-01 3.2862955e-01 -2.3667840e-02 
4.5436639e-01 3.2855058e-01 -3.1166289e-02 
4.5425192e-01 3.2844582e-01 -3.7579097e-02 
4.5393491e-01 3.2813317e-01 -1.5320797e-02 
4.5576361e-01 3.2934487e-01 -4.1084766e-02 
4.5554000e-01 3.2932398e-01 -3.1784184e-02 
4.5103031e-01 3.2579693e-01 -1.4220411e-02 
4.5103586e-01 3.2572326e-01 -4.2978436e-02 
4.5179147e-01 3.2654470e-01 -2.8635280e-03 
4.5580694e-01 3.2923052e-01 -4.7769509e-02 
4.4935411e-01 3.2450137e-01 -2.9144371e-02 
4.4885322e-01 3.2411075e-01 -2.1923289e-02 
4.4823930e-01 3.2349941e-01 -6.2863845e-03 
4.4807595e-01 3.2337940e-01 -3.3493133e-03 
4.4798249e-01 3.2335553e-01 -1.3316048e-03 
4.4681072e-01 3.2250622e-01 -2.0453708e-02 
4.4967693e-01 3.2477072e-01 -2.3143431e-02 
4.4574708e-01 3.2167917e-01 -2.7135059e-02 
4.4563103e-01 3.2160532e-01 -3.4137882e-02 
4.4547939e-01 3.2142240e-01 -4.0457781e-02 
4.4633290e-01 3.2211754e-01 -1.0096324e-03 
4.4659162e-01 3.2207176e-01 -4.0535185e-02 
4.4568661e-01 3.2159936e-01 -1.4476976e-02 
4.5012298e-01 3.2481116e-01 -4.3079205e-02 
4.5001128e-01 3.2477555e-01 -3.9616808e-02 
4.4527480e-01 3.2104903e-01 -4.2511143e-02 
4.4588941e-01 3.2190540e-01 -6.4748493e-03 
4.4377863e-01 3.1997308e-01 -3.0730367e-02 
4.4194171e-01 3.1858894e-01 -1.1925771e-02 
4.4033116e-01 3.1732941e-01 -1.8326802e-02 
4.4019336e-01 3.1724578e-01 -2.4671024e-02 
4.4423786e-01 3.2033327e-01 -3.1289108e-02 
4.3991682e-01 3.1698510e-01 -2.8465902e-02 
4.3981504e-01 3.1685206e-01 -4.2487685e-02 
4.4055662e-01 3.1760129e-01 -2.4200769e-03 
4.3984914e-01 3.1695220e-01 -1.1270291e-02 
4.3905842e-01 3.1626704e-01 -1.2228112e-02 
4.4336280e-01 3.1948858e-01 -4.0659934e-02 
4.3930650e-01 3.1640032e-01 -4.2685838e-03 
4.3942687e-01 3.1651023e-01 -2.1126929e-03 
4.3978369e-01 3.1691644e-01 -1.8487625e-02 
4.3949017e-01 3.1663007e-01 -6.3800061e-04 
4.3992984e-01 3.1703344e-01 -1.9199790e-02 
4.4448960e-01 3.2022750e-01 -4.7110107e-02 
4.3722305e-01 3.1491175e-01 -2.2905111e-02 
4.3709403e-01 3.1484908e-01 -3.0337008e-02 
4.3702221e-01 3.1475341e-01 -3.6734708e-02 
4.3878761e-01 3.1588721e-01 -3.9362226e-02 
4.3428761e-01 3.1255001e-01 -4.0042352e-02 
4.3515614e-01 3.1324968e-01 -5.7934859e-04 
4.3371496e-01 3.1209084e-01 -2.7613945e-02 
4.3889192e-01 3.1589213e-01 -4.2456087e-02 
4.3877557e-01 3.1585559e-01 -3.9048169e-02 
4.3411782e-01 3.1224605e-01 -4.2009167e-02 
4.3469504e-01 3.1302488e-01 -6.0427091e-03 
4.3325725e-01 3.1169897e-01 -1.2375307e-02 
4.3503058e-01 3.1328169e-01 -1.2192573e-02 
4.3246982e-01 3.1111327e-01 -2.2743145e-02 
4.3318000e-01 3.1167886e-01 -1.8104894e-02 
4.3181378e-01 3.1056660e-01 -1.4457108e-02 
4.3057281e-01 3.0949828e-01 -6.9289384e-03 
4.3077350e-01 3.0964327e-01 -2.6610179e-03 
4.3083024e-01 3.0974481e-01 -9.2700799e-04 
4.3020305e-01 3.0930743e-01 -8.6276811e-03 
4.3331659e-01 3.1153589e-01 -3.9913859e-02 
4.2879254e-01 3.0823156e-01 -1.8556733e-02 
4.2865762e-01 3.0816829e-01 -2.6339473e-02 
4.2859113e-01 3.0810416e-01 -3.4739915e-02 
4.2865205e-01 3.0803898e-01 -4.2014152e-02 
4.2944846e-01 3.0878970e-01 -1.9493933e-03 
4.2870396e-01 3.0808803e-01 -2.8439049e-02 
4.3199304e-01 3.1062636e-01 -3.1894494e-02 
4.3331876e-01 3.1138235e-01 -4.6451565e-02 
4.2693275e-01 3.0669072e-01 -2.6922733e-02 
4.2736301e-01 3.0713797e-01 -2.2245755e-02 
4.2334849e-01 3.0391312e-01 -1.7751297e-02 
4.2321631e-01 3.0382904e-01 -3.9613444e-02 
4.2320734e-01 3.0382887e-01 -2.4423793e-02 
4.2409584e-01 3.0451721e-01 -1.0838459e-04 
4.2779559e-01 3.0712819e-01 -4.1826759e-02 
4.2327470e-01 3.0390173e-01 -1.6291467e-02 
4.2767417e-01 3.0708957e-01 -3.8463984e-02 
4.2366594e-01 3.0429587e-01 -5.5488432e-03 
4.2214900e-01 3.0283788e-01 -3.6047101e-03 
4.2226347e-01 3.0294633e-01 -1.4420139e-03 
4.2233074e-01 3.0307290e-01 4.7182311e-05 
4.2142704e-01 3.0234045e-01 -1.1488033e-02 
4.2197490e-01 3.0270714e-01 -4.1763607e-02 
4.2028141e-01 3.0154577e-01 -2.2139791e-02 
4.2015731e-01 3.0149469e-01 -2.9527599e-02 
4.2007798e-01 3.0140898e-01 -3.5908565e-02 
4.1938516e-01 3.0079237e-01 -1.0655900e-02 
4.1895193e-01 3.0042028e-01 -1.0902576e-02 
4.1973668e-01 3.0111217e-01 -1.6353825e-02 
4.2203364e-01 3.0280283e-01 -3.0256493e-02 
4.1767597e-01 2.9941097e-01 -4.1565657e-02 
4.1846439e-01 3.0014929e-01 -1.4640236e-03 
4.1758814e-01 2.9934144e-01 -3.0027740e-02 
4.2119139e-01 3.0196878e-01 -3.9469462e-02 
4.1724560e-01 2.9901025e-01 -3.2918971e-02 
4.2225209e-01 3.0265906e-01 -4.5784738e-02 
4.1739032e-01 2.9902679e-01 -3.9207827e-02 
4.1537187e-01 2.9765785e-01 -2.7898915e-02 
4.1506821e-01 2.9738045e-01 -1.4901771e-02 
4.1488063e-01 2.9727387e-01 -2.0751886e-02 
4.1672301e-01 2.9848126e-01 -3.8293093e-02 
4.1375890e-01 2.9625192e-01 -1.9708776e-03 
4.1351703e-01 2.9604959e-01 -4.9430905e-03 
4.1383448e-01 2.9635569e-01 -2.6057154e-04 
4.1234416e-01 2.9529613e-01 -1.8921493e-02 
4.1225663e-01 2.9523551e-01 -3.9143350e-02 
4.1301629e-01 2.9566649e-01 -4.1382343e-02 
4.1316876e-01 2.9590240e-01 3.4031586e-04 
4.1186231e-01 2.9496038e-01 -2.5554605e-02 
4.1174445e-01 2.9486558e-01 -3.2468770e-02 
4.1233546e-01 2.9523689e-01 -2.8386125e-02 
4.1252574e-01 2.9543263e-01 -1.2685620e-02 
4.1678014e-01 2.9845741e-01 -4.1192729e-02 
4.1665629e-01 2.9841912e-01 -3.7880588e-02 
4.1274321e-01 2.9568484e-01 -5.0049582e-03 
4.1300210e-01 2.9589584e-01 -1.1239129e-02 
4.1059586e-01 2.9384533e-01 -1.1255204e-02 
4.1131541e-01 2.9420379e-01 -3.8749844e-02 
4.0665722e-01 2.9079878e-01 -1.7171409e-02 
4.0651265e-01 2.9071507e-01 -2.3495501e-02 
4.0675804e-01 2.9082170e-01 -4.1049756e-02 
4.0759510e-01 2.9159257e-01 -1.0485380e-03 
4.1002175e-01 2.9333067e-01 -3.0876506e-02 
4.0633437e-01 2.9052573e-01 -2.7991854e-02 
4.1131547e-01 2.9405797e-01 -4.5092162e-02 
4.0529221e-01 2.8960246e-01 -2.9551797e-03 
4.0538004e-01 2.8969541e-01 -8.0502738e-04 
4.0479320e-01 2.8928366e-01 -1.0806094e-02 
4.0548596e-01 2.8981417e-01 7.4084516e-04 
4.0364257e-01 2.8849027e-01 -2.1398267e-02 
4.0350798e-01 2.8843376e-01 -2.8711535e-02 
4.0343204e-01 2.8835607e-01 -3.5070110e-02 
4.0515521e-01 2.8957403e-01 -2.5771625e-02 
4.0550181e-01 2.8992254e-01 -2.1340443e-02 
4.0146294e-01 2.8674325e-01 -3.8715392e-02 
4.0234903e-01 2.8743002e-01 7.6039223e-04 
4.0154707e-01 2.8677517e-01 -2.8040774e-02 
4.0142962e-01 2.8668240e-01 -9.3420744e-03 
4.0592358e-01 2.8992632e-01 -4.0536568e-02 
4.0154281e-01 2.8682810e-01 -1.5063831e-02 
4.0059334e-01 2.8607613e-01 -2.6222471e-02 
4.0579900e-01 2.8988358e-01 -3.7286859e-02 
4.0132841e-01 2.8649548e-01 -4.0557202e-02 
4.0193740e-01 2.8724441e-01 -4.5535830e-03 
3.9888513e-01 2.8476009e-01 -2.2088317e-02 
3.9708760e-01 2.8329200e-01 -1.2533060e-02 
3.9686552e-01 2.8302735e-01 -5.6879874e-03 
3.9706281e-01 2.8319421e-01 -1.3324413e-03 
3.9710149e-01 2.8325337e-01 7.2369498e-04 
3.9597020e-01 2.8248796e-01 -1.8207397e-02 
4.0028691e-01 2.8572208e-01 -2.9272459e-02 
3.9549437e-01 2.8218722e-01 -3.3152226e-02 
3.9603934e-01 2.8246474e-01 -4.0566806e-02 
3.9537108e-01 2.8206429e-01 -2.4806116e-02 
3.9685893e-01 2.8318790e-01 -6.0166122e-04 
3.9628595e-01 2.8264782e-01 -2.7938403e-02 
3.9948782e-01 2.8494275e-01 -3.8212840e-02 
4.0052748e-01 2.8560171e-01 -4.4388812e-02 
3.9585096e-01 2.8214806e-01 -3.8111906e-02 
3.9446032e-01 2.8115901e-01 -3.1013003e-02 
3.9516529e-01 2.8159645e-01 -3.7093688e-02 
3.9163524e-01 2.7902594e-01 -1.1723664e-02 
3.9171061e-01 2.7900994e-01 -4.0337745e-02 
3.9130387e-01 2.7878097e-01 -9.5308423e-03 
3.9075148e-01 2.7843314e-01 -3.8232692e-02 
3.9167199e-01 2.7907920e-01 1.1685237e-03 
3.9051545e-01 2.7820995e-01 -1.7433332e-02 
3.9104742e-01 2.7861619e-01 -1.1553263e-02 
3.9520517e-01 2.8155258e-01 -3.9855428e-02 
3.9507854e-01 2.8150892e-01 -3.6680359e-02 
3.9130670e-01 2.7891564e-01 -4.0857233e-03 
3.9147934e-01 2.7910018e-01 -1.0346333e-02 
3.8905078e-01 2.7699077e-01 -1.0197376e-02 
3.8873330e-01 2.7666292e-01 -2.3512002e-03 
3.8886371e-01 2.7679667e-01 -1.8976153e-04 
3.8892850e-01 2.7689713e-01 1.3610582e-03 
3.8727495e-01 2.7572939e-01 -2.0667415e-02 
3.8715178e-01 2.7567178e-01 -2.7925406e-02 
3.8707122e-01 2.7562702e-01 -3.4218822e-02 
3.8676775e-01 2.7528220e-01 -9.0520121e-03 
3.8634598e-01 2.7496487e-01 -2.1520775e-02 
3.8647658e-01 2.7503282e-01 -3.3372287e-02 
3.8591099e-01 2.7456921e-01 -1.2234774e-02 
3.8990295e-01 2.7747968e-01 -3.7427753e-02 
3.8541061e-01 2.7417934e-01 -4.0026028e-02 
3.8622928e-01 2.7490976e-01 -2.3241351e-04 
3.8598725e-01 2.7463976e-01 -2.4394726e-02 
3.8550076e-01 2.7429694e-01 -1.5435246e-02 
3.8861784e-01 2.7661926e-01 -2.9816661e-02 
3.8987741e-01 2.7731645e-01 -4.3677073e-02 
3.8364184e-01 2.7281669e-01 -1.1955304e-02 
3.8256192e-01 2.7203766e-01 -2.6532849e-02 
3.8205957e-01 2.7162996e-01 -1.9524677e-02 
3.8387123e-01 2.7298543e-01 -2.4481025e-02 
3.8103610e-01 2.7067465e-01 -3.7732206e-03 
3.8420132e-01 2.7333042e-01 -2.0449210e-02 
3.8009945e-01 2.7011910e-01 -1.7533783e-02 
3.8063595e-01 2.7036861e-01 -7.5396436e-04 
3.8016340e-01 2.7020872e-01 -3.7720494e-02 
3.8110724e-01 2.7085555e-01 1.5819711e-03 
3.8073450e-01 2.7046779e-01 1.0207455e-03 
3.8462523e-01 2.7334148e-01 -3.9169654e-02 
3.7911692e-01 2.6942635e-01 -2.4028471e-02 
3.7903461e-01 2.6937124e-01 -3.0765349e-02 
3.8006791e-01 2.6995283e-01 -3.9467506e-02 
3.8449621e-01 2.7329367e-01 -3.6059164e-02 
3.8071498e-01 2.7069584e-01 -3.6556844e-03 
3.7524077e-01 2.6632228e-01 -2.1217532e-02 
3.7911320e-01 2.6927492e-01 -2.8211214e-02 
3.7500653e-01 2.6608795e-01 -8.7933913e-03 
3.7490204e-01 2.6604357e-01 -3.9484348e-02 
3.7575278e-01 2.6677734e-01 2.3191242e-04 
3.7514189e-01 2.6622987e-01 -2.7129216e-02 
3.7414822e-01 2.6541391e-01 -9.6259499e-03 
3.7412468e-01 2.6547047e-01 -1.6038155e-02 
3.7833989e-01 2.6853049e-01 -3.6869999e-02 
3.7398902e-01 2.6539004e-01 -2.2177609e-02 
3.7499985e-01 2.6617128e-01 -1.4879773e-02 
3.7434891e-01 2.6560643e-01 -8.6306790e-03 
3.7517121e-01 2.6630622e-01 -1.5625658e-02 
3.7935096e-01 2.6915672e-01 -4.2945273e-02 
3.7473437e-01 2.6575753e-01 -3.6950059e-02 
3.7245429e-01 2.6401076e-01 -1.7840207e-03 
3.7338001e-01 2.6482078e-01 -3.0056974e-02 
3.7259054e-01 2.6411730e-01 4.1839064e-04 
3.7267268e-01 2.6424763e-01 1.9694024e-03 
3.7118027e-01 2.6324809e-01 -1.9961873e-02 
3.7106538e-01 2.6320171e-01 -2.7073532e-02 
3.7100041e-01 2.6315427e-01 -3.3299558e-02 
3.7410650e-01 2.6527557e-01 -3.5851713e-02 
3.7070176e-01 2.6273260e-01 -3.9214429e-02 
3.6973324e-01 2.6212505e-01 -3.7249692e-02 
3.7066472e-01 2.6274440e-01 1.9614308e-03 
3.6988184e-01 2.6218280e-01 -2.6839770e-02 
3.7007698e-01 2.6233479e-01 -1.0481754e-02 
3.7415317e-01 2.6524058e-01 -3.8454328e-02 
3.7402305e-01 2.6519066e-01 -3.5413720e-02 
3.7028378e-01 2.6259777e-01 -3.2406263e-03 
3.7051979e-01 2.6277578e-01 -9.3337232e-03 
3.6659282e-01 2.5963154e-01 -1.3443823e-02 
3.6600181e-01 2.5922015e-01 -2.7293127e-02 
3.6506900e-01 2.5848946e-01 -1.8044114e-02 
3.6470354e-01 2.5822973e-01 -1.6904162e-02 
3.6897439e-01 2.6129326e-01 -3.6069956e-02 
3.6528358e-01 2.5865638e-01 -1.3505970e-02 
3.6451077e-01 2.5800979e-01 -3.8916752e-02 
3.6537337e-01 2.5872993e-01 6.0125103e-04 
3.6461246e-01 2.5798717e-01 1.6042341e-03 
3.6419722e-01 2.5772923e-01 -5.4775518e-03 
3.6318225e-01 2.5712532e-01 -2.3236915e-02 
3.6382133e-01 2.5733736e-01 -2.8469111e-04 
3.6769786e-01 2.6043007e-01 -2.8686684e-02 
3.6893746e-01 2.6111791e-01 -4.2193998e-02 
3.6360165e-01 2.5734425e-01 -9.8012192e-03 
3.6248150e-01 2.5658238e-01 -3.0312993e-02 
3.5996485e-01 2.5444940e-01 -9.0943305e-03 
3.6336246e-01 2.5722787e-01 -1.9546131e-02 
3.6214417e-01 2.5614572e-01 -2.6337985e-02 
3.5936883e-01 2.5416058e-01 -3.6670294e-02 
3.6033556e-01 2.5477022e-01 2.3477885e-03 
3.5957971e-01 2.5421968e-01 -2.6415283e-02 
3.5883740e-01 2.5360611e-01 -9.5364274e-03 
3.6380288e-01 2.5725994e-01 -3.7725337e-02 
3.5933739e-01 2.5392407e-01 -3.8324352e-02 
3.6366934e-01 2.5720760e-01 -3.4751605e-02 
3.5827199e-01 2.5333470e-01 -2.9943567e-03 
3.5612458e-01 2.5161999e-01 -1.8161360e-02 
3.5644683e-01 2.5165045e-01 -1.2890231e-03 
3.5660186e-01 2.5179839e-01 9.8217546e-04 
3.5666379e-01 2.5188726e-01 2.5408510e-03 
3.5527024e-01 2.5103605e-01 -2.6247693e-02 
3.5523108e-01 2.5101021e-01 -3.2377303e-02 
3.5526004e-01 2.5089046e-01 -7.6396400e-03 
3.5868242e-01 2.5336492e-01 -3.5379123e-02 
3.5768652e-01 2.5261837e-01 -3.4774441e-02 
3.5840532e-01 2.5330290e-01 -2.7083112e-02 
3.5424751e-01 2.5012246e-01 -3.8284760e-02 
3.5509714e-01 2.5082672e-01 9.8343065e-04 
3.5446075e-01 2.5026685e-01 -2.5013059e-02 
3.5285169e-01 2.4910858e-01 -2.1528998e-02 
3.5862055e-01 2.5317636e-01 -4.1425146e-02 
3.5408553e-01 2.4985720e-01 -3.5750076e-02 
3.5085231e-01 2.4746151e-01 -9.0835067e-03 
3.4917304e-01 2.4631068e-01 -3.6148258e-02 
3.5013738e-01 2.4693210e-01 2.7060981e-03 
3.4941199e-01 2.4644038e-01 -2.1178035e-02 
3.5353178e-01 2.4935502e-01 -3.6982823e-02 
3.4925166e-01 2.4631679e-01 -8.7768845e-03 
3.4913763e-01 2.4611731e-01 -3.7662264e-02 
3.5339433e-01 2.4929973e-01 -3.4070008e-02 
3.4879687e-01 2.4580905e-01 2.1091972e-03 
3.4774652e-01 2.4527223e-01 -2.9313486e-02 
3.4838384e-01 2.4543963e-01 1.8849922e-04 
3.4746873e-01 2.4502173e-01 -2.1453584e-02 
3.4824914e-01 2.4554498e-01 -1.9401453e-02 
3.4652394e-01 2.4412495e-01 -8.5945334e-03 
3.4649816e-01 2.4414720e-01 -6.6587520e-03 
3.4846672e-01 2.4551183e-01 -3.4690227e-02 
3.4433845e-01 2.4256344e-01 -2.5107896e-02 
3.4414145e-01 2.4239150e-01 -3.7728947e-02 
3.4495273e-01 2.4303447e-01 1.3285023e-03 
3.4383920e-01 2.4213850e-01 -2.1226052e-02 
3.4275642e-01 2.4132533e-01 -1.4058337e-02 
3.4273508e-01 2.4136852e-01 -2.0783329e-02 
3.4416720e-01 2.4250488e-01 -1.8702827e-03 
3.4840572e-01 2.4530017e-01 -4.0618312e-02 
3.4431595e-01 2.4265060e-01 -7.1246163e-03 
3.4082827e-01 2.3965333e-01 -7.9864147e-04 
3.4093758e-01 2.3975283e-01 1.4964641e-03 
3.4103721e-01 2.3991211e-01 3.0462029e-03 
3.4377480e-01 2.4211922e-01 -2.0025928e-02 
3.3989322e-01 2.3920777e-01 -1.7957360e-02 
3.3980402e-01 2.3920736e-01 -2.5378430e-02 
3.3975545e-01 2.3917386e-01 -3.1410512e-02 
3.4137788e-01 2.4019164e-01 -2.4389889e-02 
3.3913693e-01 2.3863216e-01 -3.5607319e-02 
3.4007111e-01 2.3922665e-01 3.0238773e-03 
3.4292218e-01 2.4136725e-01 -2.6910655e-02 
3.4338987e-01 2.4153455e-01 -3.6197428e-02 
3.3907932e-01 2.3843583e-01 -3.7049893e-02 
3.3895099e-01 2.3841421e-01 -9.1720615e-03 
3.4324840e-01 2.4147624e-01 -3.3371929e-02 
3.3774421e-01 2.3742595e-01 -8.9198034e-03 
3.3794165e-01 2.3757659e-01 -7.1685966e-03 
3.4019610e-01 2.3918118e-01 -3.3711247e-02 
3.3871827e-01 2.3807402e-01 -3.4786720e-02 
3.3787230e-01 2.3763417e-01 -7.2525158e-03 
3.3682853e-01 2.3676687e-01 -2.2313235e-02 
3.3562377e-01 2.3592800e-01 -2.3249080e-02 
3.3840999e-01 2.3777409e-01 -3.3893649e-02 
3.3375099e-01 2.3436561e-01 -8.1288256e-03 
3.3330256e-01 2.3413719e-01 -1.6701536e-02 
3.3354032e-01 2.3429558e-01 -3.7139274e-02 
3.3331686e-01 2.3394278e-01 6.8081322e-04 
3.3325285e-01 2.3393178e-01 2.6065409e-03 
3.3220243e-01 2.3337471e-01 -2.1662626e-02 
3.3314621e-01 2.3394662e-01 -2.7629493e-03 
3.3831874e-01 2.3756775e-01 -3.9806854e-02 
3.3358145e-01 2.3435156e-01 2.0037626e-03 
3.3161560e-01 2.3295954e-01 -2.8594973e-02 
3.3403209e-01 2.3461705e-01 -2.2603355e-02 
3.2915127e-01 2.3103715e-01 -3.4977790e-02 
3.3011943e-01 2.3165686e-01 3.3184688e-03 
3.3060950e-01 2.3215784e-01 -1.0264968e-03 
3.3046967e-01 2.3209529e-01 -4.6810205e-03 
3.2884023e-01 2.3063298e-01 -3.6817320e-02 
3.3287057e-01 2.3350276e-01 -3.5258684e-02 
3.2889113e-01 2.3062019e-01 -3.5057094e-02 
3.3024979e-01 2.3188250e-01 -1.2428201e-02 
3.2797676e-01 2.3005472e-01 -2.5267538e-02 
3.2721990e-01 2.2953276e-01 -2.0309275e-02 
3.2716981e-01 2.2940831e-01 -8.5981246e-03 
3.3199883e-01 2.3286228e-01 -3.3644684e-02 
3.2891840e-01 2.3057115e-01 -3.3455305e-02 
3.3111724e-01 2.3231019e-01 -2.7979890e-02 
3.2733706e-01 2.2958472e-01 -1.1908183e-02 
3.2858703e-01 2.3064470e-01 -8.0265030e-03 
3.2970241e-01 2.3137322e-01 -2.1581460e-02 
3.2855994e-01 2.3028815e-01 -3.2804601e-02 
3.2538256e-01 2.2789665e-01 -3.3086044e-04 
3.2561547e-01 2.2810440e-01 1.9524599e-03 
3.2821196e-01 2.3027217e-01 -1.7090874e-02 
3.2623187e-01 2.2876175e-01 -1.4007554e-02 
3.2657063e-01 2.2880682e-01 -3.3773731e-02 
3.2463309e-01 2.2765513e-01 -2.4499703e-02 
3.2561368e-01 2.2816212e-01 3.5086412e-03 
3.2437685e-01 2.2740291e-01 -1.6732190e-02 
3.2443956e-01 2.2750701e-01 -3.0691439e-02 
3.2544693e-01 2.2809511e-01 -2.4301909e-02 
3.2838035e-01 2.3011427e-01 -3.3371065e-02 
3.2673669e-01 2.2891067e-01 -3.2666348e-02 
3.2495385e-01 2.2771241e-01 -2.3471272e-02 
3.2334799e-01 2.2654787e-01 -1.9334104e-02 
3.2836431e-01 2.2995707e-01 -3.8960770e-02 
3.2258716e-01 2.2590634e-01 -7.9472894e-03 
3.2160518e-01 2.2514926e-01 -7.7057295e-03 
3.2230580e-01 2.2580421e-01 1.5434223e-03 
3.2116854e-01 2.2487070e-01 -3.6349107e-02 
3.2013059e-01 2.2414030e-01 -1.6764577e-02 
3.2210088e-01 2.2554892e-01 -2.1830129e-02 
3.1937748e-01 2.2361021e-01 -3.4378543e-02 
3.2030481e-01 2.2421423e-01 3.6588649e-03 
3.2121781e-01 2.2488756e-01 -2.1967648e-02 
3.1862170e-01 2.2279717e-01 1.1052629e-03 
3.1936771e-01 2.2363347e-01 -2.3946145e-03 
3.1750187e-01 2.2225170e-01 -2.7629109e-02 
3.1719130e-01 2.2199729e-01 -2.0874904e-02 
3.1808403e-01 2.2241688e-01 3.0347570e-03 
3.1826165e-01 2.2258034e-01 -3.5252664e-02 
3.1922051e-01 2.2352719e-01 -6.1446116e-03 
3.1773099e-01 2.2224303e-01 -1.9946429e-03 
3.1827211e-01 2.2255066e-01 -3.3437535e-02 
3.1656674e-01 2.2146071e-01 -1.4596103e-02 
3.1905079e-01 2.2342615e-01 -9.9300425e-03 
3.1826460e-01 2.2248973e-01 -3.2886516e-02 
3.1633773e-01 2.2130410e-01 -2.7452167e-02 
3.1885940e-01 2.2323303e-01 -1.3891603e-02 
3.1663892e-01 2.2145234e-01 -1.9918753e-02 
3.2083336e-01 2.2442192e-01 -3.0467512e-02 
3.1750861e-01 2.2206086e-01 -2.2135206e-02 
3.2055411e-01 2.2414082e-01 -3.3899583e-02 
3.1816810e-01 2.2241411e-01 -3.2284383e-02 
3.1863648e-01 2.2299808e-01 -1.8389557e-02 
3.1802040e-01 2.2231409e-01 -3.1825237e-02 
3.1475431e-01 2.2002390e-01 -1.1170259e-02 
3.1838906e-01 2.2274302e-01 -2.3311628e-02 
3.1787086e-01 2.2215648e-01 -3.2141406e-02 
3.1404603e-01 2.1949774e-01 -1.4274127e-02 
3.1854984e-01 2.2252467e-01 -3.8102802e-02 
3.1264725e-01 2.1850255e-01 -1.9271789e-02 
3.1276387e-01 2.1847226e-01 -5.9263413e-03 
3.1284916e-01 2.1854872e-01 -2.4678726e-02 
3.1290227e-01 2.1866523e-01 -1.2177741e-02 
3.1270123e-01 2.1843204e-01 -2.1587512e-02 
3.1009540e-01 2.1645558e-01 -7.3214192e-03 
3.1040400e-01 2.1657798e-01 1.5268715e-04 
3.0987298e-01 2.1642691e-01 -1.7096490e-02 
3.0977157e-01 2.1641754e-01 -2.3612650e-02 
3.1055272e-01 2.1669774e-01 2.4020683e-03 
3.0972338e-01 2.1638568e-01 -2.9324180e-02 
3.1063315e-01 2.1681698e-01 3.8817981e-03 
3.1062922e-01 2.1689035e-01 3.9227735e-03 
3.0970144e-01 2.1630035e-01 -3.3711970e-02 
3.0969799e-01 2.1622603e-01 -3.5359398e-02 
3.1055707e-01 2.1690433e-01 2.4508152e-03 
3.0970791e-01 2.1616292e-01 -3.5368029e-02 
3.1042027e-01 2.1684694e-01 -3.5971208e-04 
3.0974069e-01 2.1611093e-01 -3.3546612e-02 
3.1027025e-01 2.1678030e-01 -3.9403085e-03 
3.0967417e-01 2.1603027e-01 -3.2392971e-02 
3.1006810e-01 2.1663979e-01 -7.6509276e-03 
3.0959415e-01 2.1594153e-01 -3.1917982e-02 
3.0985245e-01 2.1648587e-01 -1.1418498e-02 
3.0787295e-01 2.1482499e-01 -6.5107462e-03 
3.0950093e-01 2.1587463e-01 -3.1234223e-02 
3.0966029e-01 2.1626246e-01 -1.5522379e-02 
3.0935761e-01 2.1575965e-01 -3.1191539e-02 
3.0729157e-01 2.1436077e-01 -2.2623586e-02 
3.0946371e-01 2.1605600e-01 -2.0159466e-02 
3.0568099e-01 2.1325850e-01 -2.2499532e-02 
3.0550289e-01 2.1304874e-01 -1.0808616e-02 
3.0705881e-01 2.1417432e-01 -2.1833908e-02 
3.0515879e-01 2.1283236e-01 -1.5851250e-02 
3.0921012e-01 2.1561159e-01 -3.1731296e-02 
3.0671588e-01 2.1398725e-01 -1.5518886e-02 
3.0926389e-01 2.1579780e-01 -2.5190832e-02 
3.0505806e-01 2.1268095e-01 -7.2095585e-03 
3.0904830e-01 2.1545711e-01 -3.3418562e-02 
3.0907193e-01 2.1551785e-01 -3.0785309e-02 
3.0341205e-01 2.1154043e-01 -1.3999045e-02 
3.0387512e-01 2.1180220e-01 -2.5410604e-02 
3.0892658e-01 2.1526964e-01 -3.7202574e-02 
3.0389482e-01 2.1187909e-01 -8.6248647e-03 
3.0252936e-01 2.1093653e-01 -2.0042513e-02 
3.0319467e-01 2.1119377e-01 3.4337188e-03 
3.0204961e-01 2.1059890e-01 -2.6629992e-02 
3.0252188e-01 2.1064827e-01 1.5729158e-03 
3.0410576e-01 2.1197191e-01 -2.0733014e-02 
3.0343643e-01 2.1144731e-01 -2.0884650e-02 
3.0128053e-01 2.0977165e-01 -3.3894256e-02 
3.0018038e-01 2.0900136e-01 -7.3481444e-03 
3.0013075e-01 2.0911251e-01 -3.3057459e-02 
3.0107731e-01 2.0967321e-01 4.2002904e-03 
3.0121294e-01 2.0968680e-01 -3.2037739e-02 
3.0140847e-01 2.1011022e-01 -1.7735499e-03 
3.0121216e-01 2.0996673e-01 -5.4842653e-03 
3.0112448e-01 2.0959774e-01 -3.1440280e-02 
2.9901376e-01 2.0810148e-01 -6.9644246e-03 
3.0097699e-01 2.0979658e-01 -9.1656270e-03 
3.0099601e-01 2.0948361e-01 -3.0803297e-02 
2.9826531e-01 2.0762508e-01 -1.2184319e-02 
3.0078435e-01 2.0960933e-01 -1.2887239e-02 
3.0093095e-01 2.0943725e-01 -3.0395482e-02 
2.9833162e-01 2.0766467e-01 -3.4632735e-02 
3.0182981e-01 2.1024987e-01 -2.2539893e-02 
2.9911289e-01 2.0829469e-01 -1.3029621e-02 
2.9783607e-01 2.0735648e-01 -1.8687213e-02 
2.9869992e-01 2.0801799e-01 2.3574450e-03 
3.0062154e-01 2.0945117e-01 -1.7178981e-02 
3.0083063e-01 2.0933700e-01 -3.0618029e-02 
2.9823783e-01 2.0756820e-01 -2.1737074e-02 
2.9581222e-01 2.0584883e-01 -1.5336395e-02 
2.9762661e-01 2.0715873e-01 -1.6894147e-02 
2.9854405e-01 2.0781969e-01 -2.0137176e-02 
3.0029920e-01 2.0898385e-01 -2.7773632e-02 
2.9523143e-01 2.0549347e-01 -2.2681087e-02 
2.9591236e-01 2.0568748e-01 2.7765350e-03 
2.9520270e-01 2.0546868e-01 -2.8655350e-02 
2.9545480e-01 2.0547226e-01 -5.7040271e-03 
2.9586464e-01 2.0572451e-01 4.3145888e-03 
2.9561350e-01 2.0563401e-01 -3.3611411e-03 
2.9480305e-01 2.0484409e-01 3.5156996e-04 
2.9933688e-01 2.0806395e-01 -3.6262646e-02 
2.9356623e-01 2.0413959e-01 -2.4851259e-02 
2.9769742e-01 2.0695004e-01 -3.1833019e-02 
2.9248640e-01 2.0323834e-01 -6.8854922e-03 
2.9079145e-01 2.0207679e-01 -1.5357046e-02 
2.9071733e-01 2.0206390e-01 -3.2403637e-02 
2.9161102e-01 2.0259435e-01 4.4998298e-03 
2.9113218e-01 2.0222694e-01 -3.3920094e-02 
2.9207131e-01 2.0311992e-01 -6.5861172e-03 
2.9109856e-01 2.0212090e-01 -3.2043751e-02 
2.9235002e-01 2.0299938e-01 -2.9669423e-02 
2.9097402e-01 2.0198563e-01 -3.0825309e-02 
2.9172206e-01 2.0274170e-01 -1.7168015e-02 
2.8904301e-01 2.0080228e-01 -2.4873627e-02 
2.9075098e-01 2.0183146e-01 -3.0292705e-02 
2.8915033e-01 2.0066762e-01 3.8727436e-03 
2.9013941e-01 2.0166929e-01 -2.8895608e-03 
2.8810403e-01 2.0015025e-01 -1.9197240e-02 
2.8864551e-01 2.0025091e-01 2.0342635e-03 
2.8803644e-01 2.0011991e-01 -2.5030306e-02 
2.9286239e-01 2.0335573e-01 -2.9918872e-02 
2.8774384e-01 1.9968113e-01 -6.5898271e-03 
2.8918976e-01 2.0092016e-01 8.9414301e-04 
2.9010162e-01 2.0162603e-01 -1.0387545e-02 
2.9067484e-01 2.0173927e-01 -2.9522281e-02 
2.8806135e-01 1.9994351e-01 -2.2240080e-02 
2.8818932e-01 2.0004383e-01 -1.9876432e-02 
2.8784299e-01 1.9987300e-01 3.4694746e-03 
2.9060206e-01 2.0168746e-01 -3.0007126e-02 
2.8972211e-01 2.0128416e-01 -1.6025288e-02 
2.8736469e-01 1.9948140e-01 -8.5124532e-03 
2.8683299e-01 1.9908974e-01 -4.9415790e-03 
2.8604522e-01 1.9849718e-01 -3.3535920e-02 
2.8967845e-01 2.0112301e-01 -2.3513379e-02 
2.8992173e-01 2.0103477e-01 -3.5349134e-02 
2.8428689e-01 1.9719565e-01 -1.1899600e-02 
2.8390425e-01 1.9694793e-01 -1.7563922e-02 
2.8349212e-01 1.9658914e-01 -1.1173659e-02 
2.8165153e-01 1.9535565e-01 -2.7793491e-02 
2.8143546e-01 1.9514148e-01 -3.1689227e-02 
2.8229100e-01 1.9566993e-01 4.7396100e-03 
2.8096989e-01 1.9484439e-01 -2.1729810e-02 
2.8143910e-01 1.9487923e-01 5.7387288e-04 
2.8148425e-01 1.9491912e-01 3.0956557e-03 
2.8142491e-01 1.9494134e-01 4.6706982e-03 
2.8529835e-01 1.9767983e-01 -3.1035494e-02 
2.8144410e-01 1.9496731e-01 -3.2604776e-02 
2.8015581e-01 1.9416675e-01 -1.4581012e-02 
2.8514603e-01 1.9760597e-01 -2.8837994e-02 
2.8124085e-01 1.9475953e-01 -3.0020647e-02 
2.7867672e-01 1.9295304e-01 -4.8601618e-03 
2.7754506e-01 1.9221248e-01 -1.5034324e-02 
2.7931243e-01 1.9340141e-01 -2.0872120e-02 
2.7721369e-01 1.9197933e-01 -1.9933013e-02 
2.8075704e-01 1.9434635e-01 -2.8865691e-02 
2.7712452e-01 1.9186367e-01 -2.1393046e-02 
2.7804673e-01 1.9263497e-01 3.9605919e-04 
2.7718061e-01 1.9189309e-01 -5.7192864e-03 
2.7687997e-01 1.9168077e-01 -3.2805793e-02 
2.7630836e-01 1.9116166e-01 -6.2226634e-03 
2.8043467e-01 1.9425395e-01 -2.2251913e-02 
2.7754799e-01 1.9222474e-01 3.4290601e-03 
2.7626964e-01 1.9119820e-01 -9.0006748e-03 
2.7758107e-01 1.9232576e-01 -4.4120816e-03 
2.7845761e-01 1.9263200e-01 -2.8301556e-02 
2.7508849e-01 1.9047588e-01 -2.8480740e-02 
2.8064212e-01 1.9411941e-01 -3.4368943e-02 
2.7487090e-01 1.9015887e-01 -8.5648559e-03 
2.7708149e-01 1.9189700e-01 -1.1618083e-02 
2.7411476e-01 1.8966125e-01 -1.2159325e-02 
2.7401686e-01 1.8966818e-01 -1.8376339e-02 
2.7394539e-01 1.8965088e-01 -2.3983357e-02 
2.7438962e-01 1.8962424e-01 2.3538559e-03 
2.7439287e-01 1.8966916e-01 4.1111549e-03 
2.7427819e-01 1.8971314e-01 -2.2839202e-02 
2.7418467e-01 1.8966271e-01 -8.6460458e-03 
2.7228001e-01 1.8834950e-01 -3.1007398e-02 
2.7311122e-01 1.8883933e-01 4.9421098e-03 
2.7166733e-01 1.8773392e-01 -5.4658498e-03 
2.7231762e-01 1.8818128e-01 -3.1789344e-02 
2.7611575e-01 1.9085293e-01 -3.0111792e-02 
2.7596360e-01 1.9077688e-01 -2.8032634e-02 
2.7245104e-01 1.8840770e-01 -1.5700184e-02 
2.6998329e-01 1.8660778e-01 -2.2307457e-02 
2.6974007e-01 1.8640138e-01 -1.1560304e-02 
2.6965457e-01 1.8637757e-01 -1.6761739e-02 
2.7048555e-01 1.8688519e-01 -1.9142762e-02 
2.7163711e-01 1.8757382e-01 -2.7952382e-02 
2.6711801e-01 1.8452270e-01 -1.4905266e-02 
2.6774091e-01 1.8491167e-01 -3.2038670e-02 
2.6850525e-01 1.8548153e-01 3.7124758e-03 
2.6704326e-01 1.8452311e-01 -2.0790363e-02 
2.6801309e-01 1.8498275e-01 4.9802023e-03 
2.6697636e-01 1.8447843e-01 -2.6039565e-02 
2.6733038e-01 1.8440807e-01 7.8291824e-04 
2.6738080e-01 1.8446170e-01 3.4078704e-03 
2.7002117e-01 1.8652274e-01 -2.0374466e-02 
2.7153417e-01 1.8737063e-01 -3.3399511e-02 
2.6467523e-01 1.8255641e-01 -5.8663823e-03 
2.6466617e-01 1.8256153e-01 -5.7561537e-03 
2.6489824e-01 1.8278733e-01 -9.9307299e-03 
2.6356852e-01 1.8183093e-01 -2.0945303e-02 
2.6324379e-01 1.8167914e-01 -3.0294003e-02 
2.6411259e-01 1.8215284e-01 5.2194130e-03 
2.6360968e-01 1.8183531e-01 -5.5777854e-03 
2.6277676e-01 1.8129297e-01 -1.8639581e-02 
2.6326892e-01 1.8152000e-01 -3.0997908e-02 
2.6708081e-01 1.8416679e-01 -2.9187612e-02 
2.6379853e-01 1.8205880e-01 6.2547001e-04 
2.6374164e-01 1.8178818e-01 -2.8357234e-02 
2.6693189e-01 1.8408741e-01 -2.7228631e-02 
2.6139948e-01 1.8002231e-01 2.4865533e-03 
2.6021338e-01 1.7945859e-01 -1.7562486e-02 
2.6105431e-01 1.7980747e-01 4.5617037e-03 
2.6014519e-01 1.7944057e-01 -2.2968166e-02 
2.6010746e-01 1.7942365e-01 -2.7745124e-02 
2.5960472e-01 1.7894246e-01 -1.2233585e-02 
2.5949109e-01 1.7887698e-01 -2.1544535e-02 
2.5918803e-01 1.7857482e-01 -1.9296192e-02 
2.5877646e-01 1.7830168e-01 -3.1215662e-02 
2.5952187e-01 1.7883448e-01 3.9793961e-03 
2.5810274e-01 1.7782153e-01 -1.3580400e-02 
2.5938767e-01 1.7869262e-01 -2.1397725e-02 
2.5800711e-01 1.7769076e-01 -8.9280345e-03 
2.6176229e-01 1.8031326e-01 -2.7025718e-02 
2.5900117e-01 1.7856321e-01 -4.2193644e-03 
2.6122153e-01 1.8000580e-01 -2.1477677e-02 
2.6258200e-01 1.8077786e-01 -3.2434586e-02 
2.5613713e-01 1.7629305e-01 -4.5925328e-03 
2.5820422e-01 1.7769863e-01 -2.6394792e-02 
2.5616688e-01 1.7638242e-01 -1.0656487e-02 
2.5579903e-01 1.7616872e-01 1.4415256e-03 
2.5433442e-01 1.7512468e-01 -2.9575042e-02 
2.5516763e-01 1.7556067e-01 5.4774499e-03 
2.5417089e-01 1.7469777e-01 9.0453995e-04 
2.5484306e-01 1.7539972e-01 -6.5075126e-03 
2.5346252e-01 1.7444938e-01 -1.4196103e-02 
2.5337943e-01 1.7445615e-01 -1.9879080e-02 
2.5440803e-01 1.7500004e-01 -3.0155996e-02 
2.5333735e-01 1.7443641e-01 -2.4942987e-02 
2.5818780e-01 1.7764346e-01 -2.8246114e-02 
2.5663874e-01 1.7675288e-01 -1.4401947e-02 
2.5803983e-01 1.7756061e-01 -2.6400872e-02 
2.5356123e-01 1.7424528e-01 3.7490961e-03 
2.5285035e-01 1.7384368e-01 -5.5137700e-03 
2.5354543e-01 1.7429560e-01 5.3162826e-03 
2.5132778e-01 1.7286485e-01 -1.5634852e-02 
2.5080255e-01 1.7235646e-01 -6.0273907e-03 
2.5086451e-01 1.7239840e-01 -3.9542257e-03 
2.5383940e-01 1.7448767e-01 -2.6089789e-02 
2.5026932e-01 1.7199528e-01 -4.5530372e-03 
2.4997261e-01 1.7183767e-01 -3.0454006e-02 
2.5065336e-01 1.7232850e-01 4.1805622e-03 
2.5352299e-01 1.7435627e-01 -2.0256601e-02 
2.4920738e-01 1.7121603e-01 -7.8015574e-03 
2.4949911e-01 1.7146291e-01 -1.8844005e-02 
2.4911654e-01 1.7125173e-01 -2.0420639e-02 
2.5374913e-01 1.7431454e-01 -3.1465832e-02 
2.4678813e-01 1.6951396e-01 -1.1018462e-02 
2.4670203e-01 1.6953257e-01 -1.6728483e-02 
2.4663015e-01 1.6952424e-01 -2.1960177e-02 
2.4677747e-01 1.6930351e-01 -4.7133025e-04 
2.4659872e-01 1.6950199e-01 -2.6594546e-02 
2.4675019e-01 1.6925238e-01 2.9021683e-03 
2.4680156e-01 1.6941643e-01 -6.0309165e-05 
2.4671282e-01 1.6924478e-01 4.8614652e-03 
2.4814475e-01 1.7062829e-01 -7.6219295e-03 
2.4556284e-01 1.6869360e-01 -2.8843906e-02 
2.4635033e-01 1.6909562e-01 5.6627570e-03 
2.4676521e-01 1.6934049e-01 -2.6701931e-02 
2.4562448e-01 1.6854572e-01 -2.9374164e-02 
2.4941260e-01 1.7122155e-01 -2.7312083e-02 
2.4608022e-01 1.6908802e-01 1.1686620e-03 
2.4458578e-01 1.6794795e-01 -1.7425500e-02 
2.4926494e-01 1.7113732e-01 -2.5571220e-02 
2.4371628e-01 1.6718274e-01 -5.9644855e-03 
2.4386594e-01 1.6736674e-01 -6.7171678e-03 
2.4182405e-01 1.6576718e-01 -4.2651850e-03 
2.4152312e-01 1.6566341e-01 -1.7646288e-02 
2.4081464e-01 1.6503112e-01 -5.1554423e-03 
2.4172187e-01 1.6576524e-01 -1.7986374e-02 
2.4217728e-01 1.6614519e-01 -1.1863540e-02 
2.4126923e-01 1.6544440e-01 -2.9679466e-02 
2.4192473e-01 1.6593026e-01 4.4266465e-03 
2.4478333e-01 1.6797417e-01 -1.9568074e-02 
2.4438991e-01 1.6759446e-01 -2.5259152e-02 
2.4008769e-01 1.6466065e-01 -1.3503052e-02 
2.4000934e-01 1.6467847e-01 -1.8969649e-02 
2.3997222e-01 1.6467363e-01 -2.3827637e-02 
2.4005035e-01 1.6433585e-01 3.9870800e-03 
2.4147055e-01 1.6571479e-01 -3.4510358e-03 
2.4502958e-01 1.6793723e-01 -3.0493144e-02 
2.3919916e-01 1.6372949e-01 1.1329267e-03 
2.3961155e-01 1.6409032e-01 5.7012867e-03 
2.4078928e-01 1.6495951e-01 -2.4599440e-02 
2.4030039e-01 1.6477486e-01 -1.3319703e-02 
2.3689713e-01 1.6238128e-01 -2.8123377e-02 
2.3772034e-01 1.6279958e-01 5.8962959e-03 
2.3718561e-01 1.6247663e-01 -4.4784499e-03 
2.3605131e-01 1.6161396e-01 -7.8822896e-03 
2.3701754e-01 1.6226546e-01 -2.8592208e-02 
2.4074490e-01 1.6487813e-01 -2.6364082e-02 
2.3744549e-01 1.6275576e-01 1.4480798e-03 
2.3595780e-01 1.6164310e-01 -1.6796272e-02 
2.4059451e-01 1.6478954e-01 -2.4722731e-02 
2.3631367e-01 1.6189577e-01 -6.2214131e-03 
2.3394477e-01 1.6015387e-01 -1.1078039e-02 
2.3349047e-01 1.5989684e-01 -1.5930824e-02 
2.3342864e-01 1.5989207e-01 -2.0919444e-02 
2.3340628e-01 1.5988916e-01 -2.5390388e-02 
2.3735888e-01 1.6243643e-01 -2.4468683e-02 
2.3318590e-01 1.5961960e-01 -1.9387407e-02 
2.3341285e-01 1.5954085e-01 4.9435156e-03 
2.3338419e-01 1.5957063e-01 6.1133453e-03 
2.3305957e-01 1.5942460e-01 -1.5109852e-03 
2.3312452e-01 1.5949646e-01 -1.7319012e-02 
2.3266838e-01 1.5923367e-01 -2.8922753e-02 
2.3332621e-01 1.5967019e-01 4.6132011e-03 
2.3618747e-01 1.6167121e-01 -1.8865706e-02 
2.3331355e-01 1.5963358e-01 -1.9212125e-02 
2.3225540e-01 1.5864404e-01 3.0477080e-03 
2.3640648e-01 1.6164175e-01 -2.9505758e-02 
2.3042990e-01 1.5747121e-01 -4.0711700e-03 
2.2950646e-01 1.5689175e-01 -9.5554665e-03 
2.3154469e-01 1.5845627e-01 -6.8937442e-03 
2.2859855e-01 1.5612964e-01 -4.8115067e-03 
2.2877651e-01 1.5638320e-01 -1.8438265e-02 
2.2836873e-01 1.5620510e-01 -2.7360963e-02 
2.2914916e-01 1.5654676e-01 6.0696295e-03 
2.2929017e-01 1.5684910e-01 3.3925290e-04 
2.2848240e-01 1.5609123e-01 -2.7707634e-02 
2.3218633e-01 1.5863785e-01 -2.5417827e-02 
2.2702067e-01 1.5514702e-01 -1.2832534e-02 
2.2696494e-01 1.5519010e-01 -1.8044781e-02 
2.3203570e-01 1.5854889e-01 -2.3883957e-02 
2.2693390e-01 1.5517882e-01 -2.2730274e-02 
2.2834150e-01 1.5591773e-01 -2.4915891e-02 
2.2722933e-01 1.5521474e-01 -6.9951531e-03 
2.2685760e-01 1.5474682e-01 4.1975877e-03 
2.2639585e-01 1.5446529e-01 6.0396059e-03 
2.2570816e-01 1.5407375e-01 -5.2219215e-03 
2.2503753e-01 1.5369277e-01 -1.3940709e-02 
2.2508445e-01 1.5346020e-01 1.6254220e-03 
2.2503696e-01 1.5358710e-01 -2.7594070e-03 
2.2800501e-01 1.5562876e-01 -2.3331450e-02 
2.2422224e-01 1.5310942e-01 -2.8064696e-02 
2.2486366e-01 1.5353538e-01 4.8525673e-03 
2.2458822e-01 1.5332671e-01 -1.0451911e-02 
2.2316866e-01 1.5224302e-01 -7.3733544e-03 
2.2327153e-01 1.5243274e-01 -1.8179337e-02 
2.2685423e-01 1.5486743e-01 -1.8876949e-02 
2.2790848e-01 1.5547565e-01 -2.8524531e-02 
2.2199611e-01 1.5135232e-01 -4.4016680e-03 
2.2127707e-01 1.5095828e-01 -1.0509864e-02 
2.2059807e-01 1.5053602e-01 -1.5134586e-02 
2.2054695e-01 1.5055163e-01 -1.9919686e-02 
2.2053117e-01 1.5053433e-01 -2.4216412e-02 
2.2330117e-01 1.5240917e-01 -1.2170441e-02 
2.1999685e-01 1.5011476e-01 -2.6639497e-02 
2.2036727e-01 1.5008429e-01 5.1621585e-03 
2.2044617e-01 1.5031494e-01 -1.6580597e-02 
2.2076464e-01 1.5046473e-01 6.2404247e-03 
2.2014214e-01 1.5002358e-01 -2.6901269e-02 
2.1941264e-01 1.4935087e-01 3.1987168e-03 
2.2373866e-01 1.5252374e-01 -2.4470201e-02 
2.2052971e-01 1.5045786e-01 2.0632066e-03 
2.2358993e-01 1.5243283e-01 -2.3037998e-02 
2.2029971e-01 1.5004753e-01 -2.2387482e-02 
2.1777031e-01 1.4829494e-01 4.8216392e-04 
2.1688296e-01 1.4782365e-01 -1.4389363e-02 
2.1671185e-01 1.4761908e-01 -8.9245215e-03 
2.1618898e-01 1.4714925e-01 -4.4576926e-03 
2.1693420e-01 1.4774965e-01 -1.6532948e-02 
2.1959975e-01 1.4955787e-01 -2.2407711e-02 
2.1997300e-01 1.4989758e-01 -1.8440491e-02 
2.1594329e-01 1.4707945e-01 -2.7280310e-02 
2.1616299e-01 1.4722195e-01 -3.2206904e-03 
2.1655656e-01 1.4753065e-01 5.0498322e-03 
2.1616958e-01 1.4724712e-01 -5.9083803e-03 
2.1510881e-01 1.4647315e-01 -1.4670021e-02 
2.1427754e-01 1.4593667e-01 -1.2141502e-02 
2.1423642e-01 1.4598818e-01 -1.7164875e-02 
2.1607120e-01 1.4725710e-01 -2.2137333e-03 
2.1951951e-01 1.4942820e-01 -2.7539277e-02 
2.1381421e-01 1.4571580e-01 -2.1873126e-02 
2.1388921e-01 1.4538378e-01 1.2521460e-03 
2.1398130e-01 1.4542514e-01 4.4183494e-03 
2.1477804e-01 1.4624037e-01 -6.1427471e-03 
2.1382520e-01 1.4539272e-01 6.1426107e-03 
2.1256669e-01 1.4458399e-01 -5.6164605e-03 
2.1312040e-01 1.4511904e-01 2.7762887e-03 
2.1175309e-01 1.4417234e-01 -2.5898164e-02 
2.1247962e-01 1.4449754e-01 6.4094788e-03 
2.1538430e-01 1.4651012e-01 -2.3523174e-02 
2.1059334e-01 1.4312004e-01 -3.7277383e-03 
2.1524079e-01 1.4641787e-01 -2.2185946e-02 
2.1039237e-01 1.4309268e-01 -1.0837803e-02 
2.1032289e-01 1.4284629e-01 -3.8890791e-04 
2.1106419e-01 1.4349493e-01 -2.6337648e-02 
2.1027020e-01 1.4305237e-01 -1.5283937e-02 
2.0871961e-01 1.4191444e-01 -9.9571124e-03 
2.0800297e-01 1.4147590e-01 -1.4326947e-02 
2.0798221e-01 1.4151390e-01 -1.8935157e-02 
2.0798808e-01 1.4151870e-01 -2.3046747e-02 
2.1126209e-01 1.4356743e-01 -2.1512831e-02 
2.0803145e-01 1.4135112e-01 -1.7429898e-02 
2.0772368e-01 1.4121321e-01 -2.6468789e-02 
2.0779894e-01 1.4116462e-01 -1.0856095e-03 
2.0830995e-01 1.4158821e-01 5.2512586e-03 
2.0768851e-01 1.4092940e-01 5.3328150e-03 
2.1094482e-01 1.4340833e-01 -1.6778424e-02 
2.0726769e-01 1.4057218e-01 3.0091305e-03 
2.0765895e-01 1.4095360e-01 6.5669827e-03 
2.0776038e-01 1.4111380e-01 -1.8947128e-02 
2.0773289e-01 1.4101638e-01 -2.2794630e-02 
2.0733444e-01 1.4089446e-01 -5.9142839e-03 
2.1125410e-01 1.4346987e-01 -2.6531739e-02 
2.0495480e-01 1.3907449e-01 -3.7970967e-03 
2.0494452e-01 1.3906020e-01 -3.3192160e-03 
2.0518735e-01 1.3924210e-01 -1.8912820e-03 
2.0466074e-01 1.3901852e-01 -1.6966967e-02 
2.0358334e-01 1.3809134e-01 -4.1143461e-03 
2.0669010e-01 1.4042231e-01 -1.1176396e-02 
2.0442128e-01 1.3870876e-01 -2.5670797e-02 
2.0367503e-01 1.3837001e-01 -2.5141804e-02 
2.0433773e-01 1.3863792e-01 6.5460103e-03 
2.0328334e-01 1.3800113e-01 -1.2202175e-02 
2.0387682e-01 1.3837239e-01 -3.1135986e-03 
2.0410547e-01 1.3862319e-01 2.5547592e-03 
2.0717500e-01 1.4059633e-01 -2.2541413e-02 
2.0703010e-01 1.4050062e-01 -2.1302752e-02 
2.0186280e-01 1.3703059e-01 -1.1481892e-02 
2.0182393e-01 1.3706662e-01 -1.6278584e-02 
2.0181255e-01 1.3708572e-01 -2.0528503e-02 
2.0143835e-01 1.3642280e-01 4.5578140e-03 
2.0146106e-01 1.3647410e-01 6.1475886e-03 
2.0124339e-01 1.3641742e-01 6.4486673e-04 
2.0283277e-01 1.3750625e-01 -2.0500608e-02 
2.0368885e-01 1.3817246e-01 -1.6850904e-02 
2.0317160e-01 1.3774315e-01 -2.0544844e-02 
1.9967766e-01 1.3516848e-01 1.7539406e-03 
1.9973551e-01 1.3536806e-01 -4.1249963e-03 
1.9974658e-01 1.3544086e-01 -2.5688071e-02 
2.0053522e-01 1.3600935e-01 -9.9739619e-03 
2.0025721e-01 1.3581076e-01 5.3818966e-03 
1.9923781e-01 1.3502155e-01 -1.5340131e-02 
1.9808614e-01 1.3428085e-01 -1.0114971e-02 
1.9983315e-01 1.3557102e-01 -1.4630717e-03 
1.9813351e-01 1.3419397e-01 -3.4149252e-03 
1.9808282e-01 1.3432159e-01 -1.4082108e-02 
2.0311056e-01 1.3762292e-01 -2.5503702e-02 
1.9765562e-01 1.3394715e-01 -1.0971753e-02 
1.9691829e-01 1.3338830e-01 -6.0660997e-03 
1.9581267e-01 1.3266648e-01 -8.8747712e-03 
1.9576634e-01 1.3270381e-01 -1.3591371e-02 
1.9574036e-01 1.3274415e-01 -1.7946813e-02 
1.9575505e-01 1.3275962e-01 -2.1888504e-02 
1.9574173e-01 1.3267717e-01 -2.4420269e-02 
1.9636175e-01 1.3293488e-01 6.6705807e-03 
1.9526076e-01 1.3199337e-01 3.4805737e-03 
1.9583240e-01 1.3250552e-01 -2.4338700e-02 
1.9529776e-01 1.3205859e-01 5.4996135e-03 
1.9612047e-01 1.3294113e-01 2.8528627e-03 
1.9912863e-01 1.3483016e-01 -2.1589899e-02 
1.9528931e-01 1.3208531e-01 6.7048836e-03 
1.9898194e-01 1.3473475e-01 -2.0447005e-02 
1.9411059e-01 1.3130820e-01 -2.6423105e-03 
1.9342853e-01 1.3097814e-01 -1.5439183e-02 
1.9294815e-01 1.3052781e-01 -4.3643713e-03 
1.9301657e-01 1.3057512e-01 -1.0985723e-03 
1.9519626e-01 1.3204131e-01 -1.9641690e-02 
1.9184047e-01 1.2978137e-01 -2.4900099e-02 
1.9242379e-01 1.3019986e-01 -5.9205298e-03 
1.9234124e-01 1.3017522e-01 5.5452469e-03 
1.9486308e-01 1.3187647e-01 -1.5377766e-02 
1.9084328e-01 1.2898976e-01 -3.7738322e-03 
1.9096330e-01 1.2914763e-01 -6.9892947e-03 
1.9097714e-01 1.2909673e-01 -2.2024752e-03 
1.9179460e-01 1.2959705e-01 -2.1046333e-02 
1.8978129e-01 1.2841229e-01 -1.0863325e-02 
1.8977055e-01 1.2845355e-01 -1.5402522e-02 
1.9513783e-01 1.3192314e-01 -2.4493599e-02 
1.8976580e-01 1.2846546e-01 -1.9459521e-02 
1.9157857e-01 1.2970437e-01 -5.8047292e-03 
1.8936016e-01 1.2805358e-01 -1.0522950e-02 
1.8913667e-01 1.2765925e-01 1.2774885e-03 
1.8925060e-01 1.2771347e-01 4.6887938e-03 
1.8925111e-01 1.2778734e-01 6.2668873e-03 
1.8814541e-01 1.2710467e-01 -4.9816850e-03 
1.8825123e-01 1.2724520e-01 -1.5223064e-02 
1.8786620e-01 1.2707685e-01 -2.3645541e-02 
1.8852426e-01 1.2735015e-01 6.7666876e-03 
1.8808632e-01 1.2711142e-01 -2.5735307e-03 
1.8798700e-01 1.2692124e-01 -2.3502355e-02 
1.9121291e-01 1.2918805e-01 -2.0629425e-02 
1.9107012e-01 1.2909253e-01 -1.9580252e-02 
1.8767646e-01 1.2692243e-01 3.6256483e-03 
1.8612947e-01 1.2573977e-01 -9.4178896e-03 
1.8529141e-01 1.2497220e-01 -1.3455356e-04 
1.8745643e-01 1.2652013e-01 -1.8795220e-02 
1.8506691e-01 1.2490538e-01 -1.3321172e-03 
1.8719940e-01 1.2649570e-01 -1.0547796e-02 
1.8390255e-01 1.2417693e-01 -8.3438866e-03 
1.8386495e-01 1.2423708e-01 -1.2833791e-02 
1.8428577e-01 1.2445316e-01 -1.5196975e-02 
1.8385620e-01 1.2427587e-01 -1.6979914e-02 
1.8735316e-01 1.2647749e-01 -1.8722607e-02 
1.8392834e-01 1.2431561e-01 -2.0788983e-02 
1.8409573e-01 1.2426330e-01 -2.3962032e-02 
1.8459916e-01 1.2464255e-01 5.6688492e-03 
1.8704112e-01 1.2630637e-01 -1.4678887e-02 
1.8451492e-01 1.2463250e-01 -3.6628481e-03 
1.8387207e-01 1.2408223e-01 -7.6855527e-04 
1.8416896e-01 1.2434430e-01 -3.4153692e-03 
1.8325412e-01 1.2343781e-01 3.5643689e-03 
1.8465206e-01 1.2455224e-01 -1.5355285e-02 
1.8329550e-01 1.2351896e-01 5.5971872e-03 
1.8329445e-01 1.2358201e-01 6.8005933e-03 
1.8406491e-01 1.2438549e-01 -8.3543157e-04 
1.8336590e-01 1.2370823e-01 -1.4661667e-02 
1.8731806e-01 1.2635840e-01 -2.3480142e-02 
1.8216680e-01 1.2283583e-01 -3.8779159e-03 
1.8212783e-01 1.2294271e-01 -1.2914423e-02 
1.8136342e-01 1.2245284e-01 3.6228907e-03 
1.8024065e-01 1.2164482e-01 -2.2868918e-02 
1.8083400e-01 1.2192005e-01 6.8716691e-03 
1.8031940e-01 1.2152038e-01 -2.2580871e-02 
1.8348564e-01 1.2369573e-01 -1.9678876e-02 
1.8043502e-01 1.2151001e-01 -1.9746343e-02 
1.8334021e-01 1.2359823e-01 -1.8714430e-02 
1.7911558e-01 1.2068310e-01 -1.9128763e-03 
1.7804888e-01 1.2007426e-01 -1.0216640e-02 
1.7858529e-01 1.2036514e-01 -4.9829236e-03 
1.7804754e-01 1.2014990e-01 -1.4566104e-02 
1.7798148e-01 1.1987340e-01 -3.4481019e-03 
1.7806010e-01 1.2016641e-01 -1.8373802e-02 
1.7741650e-01 1.1931433e-01 4.7544087e-03 
1.7746693e-01 1.1942682e-01 6.3037886e-03 
1.7708202e-01 1.1930619e-01 -1.8398180e-03 
1.7971072e-01 1.2105437e-01 -1.7799908e-02 
1.7632629e-01 1.1877900e-01 -6.9245342e-03 
1.7635180e-01 1.1884970e-01 -1.0752384e-02 
1.7661048e-01 1.1892436e-01 1.4750946e-03 
1.7655355e-01 1.1896352e-01 -2.3232782e-02 
1.7696568e-01 1.1928343e-01 5.7923971e-03 
1.7602393e-01 1.1863608e-01 -1.4880130e-02 
1.7939775e-01 1.2088963e-01 -1.3974639e-02 
1.7642610e-01 1.1884663e-01 -5.6012641e-03 
1.7965434e-01 1.2092664e-01 -2.2473892e-02 
1.7671920e-01 1.1915537e-01 -4.9950816e-03 
1.7237219e-01 1.1604453e-01 -7.8581795e-03 
1.7234609e-01 1.1610663e-01 -1.2094361e-02 
1.7274068e-01 1.1636261e-01 -2.2124819e-02 
1.7313696e-01 1.1651783e-01 -1.2772191e-02 
1.7251723e-01 1.1625155e-01 -2.0219130e-02 
1.7234278e-01 1.1613917e-01 -1.6034314e-02 
1.7330565e-01 1.1660277e-01 6.9598849e-03 
1.7286627e-01 1.1622500e-01 -2.1791860e-02 
1.7303096e-01 1.1656532e-01 3.3718017e-03 
1.7590423e-01 1.1834230e-01 -1.8751804e-02 
1.7575884e-01 1.1824551e-01 -1.7864790e-02 
1.7162068e-01 1.1521775e-01 3.5456955e-03 
1.7167112e-01 1.1530809e-01 5.6248088e-03 
1.7165798e-01 1.1534969e-01 6.8641407e-03 
1.7074837e-01 1.1481540e-01 -4.6098302e-03 
1.7265150e-01 1.1603942e-01 -1.7101061e-02 
1.7331378e-01 1.1664947e-01 -1.0453140e-02 
1.7049092e-01 1.1471381e-01 -1.4302363e-02 
1.7121157e-01 1.1524236e-01 -5.1900195e-03 
1.6996950e-01 1.1426102e-01 -6.2624761e-04 
1.7220275e-01 1.1576398e-01 -1.6937315e-02 
1.6887917e-01 1.1361756e-01 -1.0269663e-02 
1.6917096e-01 1.1371967e-01 -2.2426844e-02 
1.6948400e-01 1.1400592e-01 5.9262523e-03 
1.7188545e-01 1.1558855e-01 -1.3266870e-02 
1.6908540e-01 1.1369751e-01 -5.1664533e-03 
1.7213450e-01 1.1562131e-01 -2.1493221e-02 
1.6672620e-01 1.1213495e-01 -9.6300002e-03 
1.6671230e-01 1.1220147e-01 -1.3734185e-02 
1.6674046e-01 1.1224122e-01 -1.7359465e-02 
1.6597524e-01 1.1127075e-01 4.7800192e-03 
1.6572970e-01 1.1127328e-01 -3.2367108e-03 
1.6600190e-01 1.1136556e-01 6.3673193e-03 
1.6503066e-01 1.1077030e-01 -3.1442188e-03 
1.6545992e-01 1.1125134e-01 -2.1362543e-02 
1.6582806e-01 1.1139224e-01 -1.2151841e-02 
1.6594999e-01 1.1142063e-01 7.0193899e-03 
1.6677158e-01 1.1204380e-01 -1.0569582e-02 
1.6549727e-01 1.1114886e-01 -1.6972853e-03 
1.6552135e-01 1.1108447e-01 -2.1026138e-02 
1.6844316e-01 1.1307755e-01 -1.7834555e-02 
1.6430794e-01 1.1042334e-01 -1.2826875e-02 
1.6829650e-01 1.1297902e-01 -1.7010275e-02 
1.6499667e-01 1.1092607e-01 4.0176646e-03 
1.6330460e-01 1.0967556e-01 -8.1199957e-03 
1.6367263e-01 1.0970862e-01 -1.8061509e-02 
1.6479911e-01 1.1052991e-01 -1.6084859e-02 
1.6118181e-01 1.0829403e-01 -1.1403555e-02 
1.6189489e-01 1.0865325e-01 -2.1664029e-02 
1.6120157e-01 1.0834099e-01 -1.5123583e-02 
1.6224411e-01 1.0889211e-01 5.9699379e-03 
1.6448747e-01 1.1036719e-01 -1.2577512e-02 
1.6180018e-01 1.0851176e-01 -1.2994169e-02 
1.6172479e-01 1.0855762e-01 -2.5057932e-03 
1.6135503e-01 1.0823587e-01 -5.2429887e-04 
1.6042274e-01 1.0777164e-01 -1.8734122e-02 
1.6005877e-01 1.0742724e-01 -7.7823689e-03 
1.6176240e-01 1.0869854e-01 1.9057139e-05 
1.6144013e-01 1.0837886e-01 -2.6553732e-03 
1.6034374e-01 1.0732934e-01 3.5074968e-03 
1.6473721e-01 1.1039729e-01 -2.0503834e-02 
1.6040701e-01 1.0739470e-01 5.6656199e-03 
1.6040386e-01 1.0744128e-01 6.9627757e-03 
1.5923408e-01 1.0675890e-01 -4.8236731e-03 
1.5908347e-01 1.0658832e-01 -2.0591604e-02 
1.5882374e-01 1.0646656e-01 -1.2643384e-02 
1.5824334e-01 1.0619299e-01 -2.0709321e-02 
1.5910149e-01 1.0679101e-01 4.1754227e-03 
1.5875866e-01 1.0638687e-01 7.0571695e-03 
1.5821017e-01 1.0600201e-01 -6.9741835e-04 
1.5745796e-01 1.0562821e-01 -1.3142977e-02 
1.6112496e-01 1.0791375e-01 -1.6924225e-02 
1.6097921e-01 1.0781486e-01 -1.6166961e-02 
1.5916255e-01 1.0669935e-01 -8.6193057e-03 
1.5629557e-01 1.0464940e-01 -2.5904938e-03 
1.5572742e-01 1.0442225e-01 -9.0702279e-03 
1.5571845e-01 1.0448961e-01 -1.2930686e-02 
1.5634382e-01 1.0476066e-01 -7.6644602e-03 
1.5576833e-01 1.0455491e-01 -1.6366398e-02 
1.5580580e-01 1.0438917e-01 -5.2237292e-03 
1.5759264e-01 1.0547358e-01 -1.5338083e-02 
1.5535556e-01 1.0423189e-01 -1.9007649e-02 
1.5493350e-01 1.0353957e-01 4.8300955e-03 
1.5453933e-01 1.0348503e-01 -5.2867713e-03 
1.5759476e-01 1.0549278e-01 -1.5172448e-02 
1.5495156e-01 1.0359069e-01 6.3759559e-03 
1.5479010e-01 1.0367356e-01 -2.0926295e-02 
1.5482774e-01 1.0369403e-01 -1.0052548e-03 
1.5541491e-01 1.0404579e-01 -1.0997573e-02 
1.5414837e-01 1.0328889e-01 -9.2851156e-03 
1.5510589e-01 1.0395057e-01 6.0436418e-03 
1.5725365e-01 1.0529995e-01 -1.1861255e-02 
1.5388171e-01 1.0298019e-01 1.7106939e-03 
1.5409620e-01 1.0322137e-01 -4.0856823e-03 
1.5296373e-01 1.0235922e-01 -3.4784852e-03 
1.5750501e-01 1.0531058e-01 -1.9524381e-02 
1.5264702e-01 1.0226399e-01 -1.3517000e-02 
1.5430719e-01 1.0344144e-01 -3.6108966e-03 
1.5263847e-01 1.0209677e-01 -7.2609144e-04 
1.5198238e-01 1.0164169e-01 -2.8813751e-03 
1.5122120e-01 1.0131382e-01 -1.9985653e-02 
1.5170899e-01 1.0148493e-01 7.0729782e-03 
1.5040645e-01 1.0077602e-01 -1.0744328e-02 
1.5042876e-01 1.0081180e-01 -1.4227453e-02 
1.5133670e-01 1.0114653e-01 -1.9362627e-02 
1.5039895e-01 1.0079974e-01 -1.7859049e-02 
1.5144020e-01 1.0147392e-01 3.8146172e-03 
1.5397927e-01 1.0292808e-01 -1.6003430e-02 
1.5035626e-01 1.0060496e-01 -1.3825289e-02 
1.4966987e-01 1.0018452e-01 -7.7252057e-03 
1.5383153e-01 1.0283042e-01 -1.5319212e-02 
1.4944550e-01 9.9728733e-02 3.4370357e-03 
1.4983174e-01 1.0021222e-01 -5.4573477e-03 
1.4955316e-01 9.9797852e-02 5.6906776e-03 
1.4957337e-01 9.9894866e-02 6.8995724e-03 
1.4885561e-01 9.9580422e-02 -7.3521184e-03 
1.4866088e-01 9.9491380e-02 -1.1170876e-02 
1.4868662e-01 9.9438414e-02 -7.1051545e-03 
1.4810333e-01 9.9034913e-02 -5.3190463e-03 
1.5060738e-01 1.0062445e-01 -1.4311645e-02 
1.4820759e-01 9.9071778e-02 -1.0344785e-02 
1.4787357e-01 9.8869488e-02 -2.0069089e-02 
1.4789470e-01 9.8864667e-02 -8.2082115e-04 
1.4817056e-01 9.9157035e-02 6.1114593e-03 
1.5025266e-01 1.0045990e-01 -1.1191525e-02 
1.4679879e-01 9.8212212e-02 -1.4833413e-02 
1.4779685e-01 9.8660424e-02 -1.6087478e-02 
1.4769548e-01 9.8889537e-02 5.0258363e-04 
1.4642873e-01 9.7795583e-02 -1.7532532e-03 
1.5044068e-01 1.0041154e-01 -1.8555434e-02 
1.4527501e-01 9.7094223e-02 -6.3666170e-03 
1.4515966e-01 9.7068898e-02 -8.5580591e-03 
1.4515404e-01 9.7140804e-02 -1.2149167e-02 
1.4518321e-01 9.7184904e-02 -1.5396276e-02 
1.4721484e-01 9.8309211e-02 -1.4092458e-02 
1.4472340e-01 9.6458085e-02 1.9742840e-03 
1.4439426e-01 9.6565977e-02 -1.9226713e-02 
1.4389072e-01 9.6054435e-02 -3.8060402e-03 
1.4487763e-01 9.6742027e-02 7.0629357e-03 
1.4455865e-01 9.6489362e-02 2.5612849e-03 
1.4426737e-01 9.6110508e-02 4.7839652e-03 
1.4429468e-01 9.6181124e-02 6.3513671e-03 
1.4449522e-01 9.6401311e-02 -1.8555688e-02 
1.4363840e-01 9.5994204e-02 -8.6282287e-03 
1.4436716e-01 9.6450768e-02 -2.8007468e-03 
1.4463244e-01 9.6741192e-02 4.0061749e-03 
1.4704305e-01 9.8148465e-02 -1.5143465e-02 
1.4689063e-01 9.8049372e-02 -1.4509696e-02 
1.4297546e-01 9.5441908e-02 -4.2425976e-03 
1.4247830e-01 9.5198423e-02 -1.3110294e-02 
1.4081338e-01 9.4040781e-02 -7.3283506e-03 
1.4372179e-01 9.5883794e-02 -1.3571442e-02 
1.4110763e-01 9.4167657e-02 -1.9346146e-02 
1.4140590e-01 9.4429120e-02 6.2369183e-03 
1.4061221e-01 9.3753994e-02 -3.7085856e-04 
1.4063920e-01 9.3834341e-02 -4.0952135e-03 
1.4000161e-01 9.3560129e-02 -1.0098220e-02 
1.4003037e-01 9.3623035e-02 -1.3381197e-02 
1.4272292e-01 9.5241442e-02 -1.0996883e-02 
1.3951656e-01 9.3278877e-02 -1.6756153e-02 
1.4044867e-01 9.3702793e-02 -8.1876004e-03 
1.4116122e-01 9.4347395e-02 -2.8175770e-03 
1.3898043e-01 9.2633732e-02 -2.5728906e-03 
1.4356875e-01 9.5659383e-02 -1.7614184e-02 
1.3912363e-01 9.2782818e-02 -4.5054792e-03 
1.3897187e-01 9.2463203e-02 3.3678999e-03 
1.3908941e-01 9.2542514e-02 5.6393840e-03 
1.3850021e-01 9.2411004e-02 -6.8090381e-03 
1.3908681e-01 9.2633337e-02 6.8267286e-03 
1.3771503e-01 9.1963440e-02 -1.8501857e-02 
1.3985205e-01 9.3372621e-02 -6.5078177e-03 
1.3815153e-01 9.2071995e-02 7.1140490e-03 
1.3787377e-01 9.1940507e-02 -1.1522176e-02 
1.3776807e-01 9.1874436e-02 -7.4911531e-04 
1.3787314e-01 9.1851488e-02 -1.7823752e-02 
1.3807826e-01 9.1938183e-02 -1.4941053e-02 
1.3714457e-01 9.1464296e-02 -1.0611586e-02 
1.3680145e-01 9.1311507e-02 -1.1315121e-02 
1.4025442e-01 9.3445480e-02 -1.4299712e-02 
1.4010224e-01 9.3345210e-02 -1.3703956e-02 
1.3593228e-01 9.0716049e-02 -8.0995541e-03 
1.3734527e-01 9.1697484e-02 4.5641740e-03 
1.3589591e-01 9.0556867e-02 -8.0012524e-04 
1.3550815e-01 9.0228550e-02 -9.8704058e-04 
1.3496818e-01 9.0124540e-02 -1.1433125e-02 
1.3499469e-01 9.0176292e-02 -1.4459173e-02 
1.3506235e-01 9.0192869e-02 -1.7088849e-02 
1.3454202e-01 8.9545503e-02 -1.3203858e-03 
1.3544253e-01 9.0305045e-02 -2.3226098e-03 
1.3454606e-01 8.9700967e-02 -1.8582102e-02 
1.3481161e-01 8.9873977e-02 6.2394696e-03 
1.3400038e-01 8.9008018e-02 4.7062603e-03 
1.3665943e-01 9.1074370e-02 -9.8504713e-03 
1.3405524e-01 8.9123920e-02 6.2718275e-03 
1.3348475e-01 8.8701367e-02 1.9498654e-03 
1.3634451e-01 9.0791993e-02 -1.2723630e-02 
1.3417923e-01 8.9414015e-02 -2.2724508e-03 
1.3435379e-01 8.9674227e-02 1.0105658e-03 
1.3685134e-01 9.1011986e-02 -1.6682021e-02 
1.3191558e-01 8.7893628e-02 -6.4380867e-03 
1.3386294e-01 8.9066572e-02 -1.2558107e-02 
1.3167118e-01 8.7597683e-02 -1.8655508e-03 
1.3107236e-01 8.7350793e-02 -6.5447865e-03 
1.3141061e-01 8.7437056e-02 -1.3871605e-03 
1.3120222e-01 8.7498747e-02 -1.7845577e-02 
1.3160945e-01 8.7585159e-02 7.0958761e-03 
1.3124251e-01 8.7394439e-02 -5.4514484e-04 
1.3135852e-01 8.7369524e-02 -1.7104832e-02 
1.3141164e-01 8.7609462e-02 4.2592096e-03 
1.3001065e-01 8.6707085e-02 -9.4601912e-03 
1.3360994e-01 8.8872738e-02 -1.3452837e-02 
1.3005766e-01 8.6747058e-02 -1.2568965e-02 
1.3008317e-01 8.6768471e-02 -1.5404245e-02 
1.3023701e-01 8.6735345e-02 -7.2874841e-03 
1.3346024e-01 8.8774465e-02 -1.2901515e-02 
1.3000023e-01 8.6568519e-02 -8.7791719e-03 
1.2891620e-01 8.5552596e-02 3.2328661e-03 
1.2903249e-01 8.5634433e-02 5.5282819e-03 
1.2907052e-01 8.5732006e-02 6.7498009e-03 
1.2830912e-01 8.5352115e-02 -1.2312229e-04 
1.3050158e-01 8.6766057e-02 -1.2015112e-02 
1.2812696e-01 8.5258827e-02 -1.7913841e-02 
1.2836489e-01 8.5462376e-02 6.2636160e-03 
1.2703978e-01 8.4519759e-02 -4.6999645e-03 
1.2703577e-01 8.4573373e-02 -7.6206499e-03 
1.2663044e-01 8.4163286e-02 -2.2637895e-03 
1.2952468e-01 8.6146891e-02 -9.6627641e-03 
1.2750016e-01 8.4858634e-02 -4.8305057e-03 
1.3031419e-01 8.6515084e-02 -1.5755989e-02 
1.2512834e-01 8.3309531e-02 -7.5277723e-03 
1.2517205e-01 8.3413944e-02 -1.0703978e-02 
1.2524332e-01 8.3491012e-02 -1.3578290e-02 
1.2695159e-01 8.4584050e-02 -1.9670934e-03 
1.2530011e-01 8.3484814e-02 -1.6102573e-02 
1.2492967e-01 8.3168894e-02 -1.7228654e-02 
1.2687948e-01 8.4449925e-02 -5.5465819e-03 
1.2532780e-01 8.3252668e-02 6.9871712e-03 
1.2494858e-01 8.3074652e-02 -2.5963158e-04 
1.2512231e-01 8.3114348e-02 -1.6411074e-02 
1.2412491e-01 8.2257494e-02 4.6219258e-03 
1.2720454e-01 8.4461778e-02 -1.2646471e-02 
1.2418632e-01 8.2363583e-02 6.1939987e-03 
1.2378510e-01 8.2377248e-02 -9.9379057e-03 
1.2487370e-01 8.2879968e-02 -1.3540669e-02 
1.2705286e-01 8.4363371e-02 -1.2128925e-02 
1.2453517e-01 8.2905330e-02 4.7716293e-03 
1.2213907e-01 8.1139065e-02 -2.9278295e-03 
1.2220640e-01 8.1139252e-02 -7.4450613e-04 
1.2274703e-01 8.1633031e-02 -1.6481178e-03 
1.2217333e-01 8.1183806e-02 -8.3704619e-03 
1.2196697e-01 8.1061281e-02 -1.7232554e-02 
1.2163158e-01 8.0888800e-02 -9.3253637e-03 
1.2215447e-01 8.1194490e-02 6.2555126e-03 
1.2384976e-01 8.2285665e-02 -8.6018471e-03 
1.2356666e-01 8.2016572e-02 -1.1218468e-02 
1.2158791e-01 8.0809079e-02 -1.6517462e-03 
1.2041131e-01 8.0080278e-02 -5.7336832e-03 
1.2043780e-01 8.0184765e-02 -8.8740904e-03 
1.2048393e-01 8.0238603e-02 -1.1792258e-02 
1.2052047e-01 8.0261335e-02 -1.4436159e-02 
1.2174486e-01 8.1072181e-02 1.5097245e-03 
1.2398510e-01 8.2175851e-02 -1.4864704e-02 
1.2125754e-01 8.0434710e-02 -1.1126540e-02 
1.1926879e-01 7.8978710e-02 3.1000795e-03 
1.1906631e-01 7.9134658e-02 -5.7755783e-03 
1.1938816e-01 7.9060175e-02 5.4016421e-03 
1.1940724e-01 7.9158038e-02 6.6980347e-03 
1.1877748e-01 7.9019576e-02 -1.6572878e-02 
1.1917563e-01 7.9106502e-02 7.0454520e-03 
1.1892178e-01 7.8855745e-02 -1.5694365e-02 
1.1895792e-01 7.9138376e-02 4.5045158e-03 
1.2097383e-01 8.0217957e-02 -1.1877005e-02 
1.1768033e-01 7.8241147e-02 -9.4998190e-03 
1.2082407e-01 8.0122098e-02 -1.1388267e-02 
1.1754738e-01 7.7969640e-02 4.7932637e-05 
1.1730158e-01 7.7805690e-02 -1.4707671e-03 
1.1697747e-01 7.7648506e-02 -2.9790085e-03 
1.1575823e-01 7.6956652e-02 -7.0258994e-03 
1.1579396e-01 7.7059433e-02 -1.0041906e-02 
1.1585089e-01 7.7132568e-02 -1.2734123e-02 
1.1593067e-01 7.7165149e-02 -1.5094890e-02 
1.1601408e-01 7.7092193e-02 -1.0741831e-02 
1.1806631e-01 7.8271985e-02 -1.0578460e-02 
1.1588672e-01 7.6917864e-02 -1.6568979e-02 
1.1584575e-01 7.6884739e-02 2.7582483e-04 
1.1492410e-01 7.6216005e-02 -2.0568899e-03 
1.1615952e-01 7.7150650e-02 6.3010063e-03 
1.1469992e-01 7.5857505e-02 4.4849291e-03 
1.1477209e-01 7.5938694e-02 6.0519222e-03 
1.1713084e-01 7.7686682e-02 -8.4016118e-03 
1.1524453e-01 7.6518171e-02 -4.0215864e-03 
1.1785905e-01 7.8009620e-02 -1.4008057e-02 
1.1407214e-01 7.5602323e-02 2.8005384e-03 
1.1363322e-01 7.5453989e-02 -6.7362674e-03 
1.1507114e-01 7.6481342e-02 -1.1272266e-03 
1.1299755e-01 7.5006492e-02 -5.4680561e-03 
1.1288700e-01 7.4806854e-02 -6.0082611e-04 
1.1284703e-01 7.5007275e-02 -1.5891921e-02 
1.1465516e-01 7.6128900e-02 -4.6235132e-03 
1.1325095e-01 7.5057514e-02 6.9622365e-03 
1.1291657e-01 7.4881285e-02 -8.9594200e-03 
1.1263048e-01 7.4755609e-02 -6.2104309e-04 
1.1494826e-01 7.6115765e-02 -1.1132244e-02 
1.1236893e-01 7.4441604e-02 -1.5249336e-02 
1.1480258e-01 7.6022558e-02 -1.0665392e-02 
1.1125090e-01 7.3950484e-02 -8.3066681e-03 
1.1129709e-01 7.4018233e-02 -1.1039828e-02 
1.1250296e-01 7.4752845e-02 4.9361973e-03 
1.1134542e-01 7.4064977e-02 -1.3550996e-02 
1.1150746e-01 7.3971704e-02 -6.7022317e-03 
1.1045036e-01 7.3327959e-02 -5.6568217e-03 
1.1004680e-01 7.2716258e-02 2.9413740e-03 
1.1018790e-01 7.2804205e-02 5.3132661e-03 
1.0970829e-01 7.2717026e-02 -3.0427962e-03 
1.1021397e-01 7.2914168e-02 6.4945356e-03 
1.1005519e-01 7.2972357e-02 -1.5835166e-02 
1.1025563e-01 7.3139310e-02 6.3030347e-03 
1.1179796e-01 7.4102938e-02 -7.4126241e-03 
1.1153537e-01 7.3853903e-02 -9.8325331e-03 
1.0999512e-01 7.2759308e-02 -1.2080828e-02 
1.0890881e-01 7.2153904e-02 -1.6937465e-03 
1.0987563e-01 7.3010005e-02 2.0386444e-03 
1.0852943e-01 7.2036862e-02 -6.5276097e-03 
1.0860930e-01 7.2101265e-02 -8.7970011e-03 
1.1192052e-01 7.3990136e-02 -1.3188174e-02 
1.0735212e-01 7.1077548e-02 -1.4973010e-03 
1.0939473e-01 7.2402902e-02 -9.8190960e-03 
1.0679101e-01 7.0886999e-02 -6.5990472e-03 
1.0682050e-01 7.0986308e-02 -9.4160102e-03 
1.0689454e-01 7.1078412e-02 -1.1901391e-02 
1.0707453e-01 7.0866182e-02 -4.7903945e-04 
1.0697221e-01 7.1085326e-02 -1.4120507e-02 
1.0708774e-01 7.1112476e-02 -1.5304807e-02 
1.0741800e-01 7.1095519e-02 6.9257389e-03 
1.0753401e-01 7.1294501e-02 -4.5537953e-03 
1.0709159e-01 7.0974827e-02 2.5506422e-04 
1.0731328e-01 7.1028747e-02 -1.4394017e-02 
1.0724557e-01 7.1172900e-02 4.7542746e-03 
1.0909735e-01 7.2178215e-02 -1.0426459e-02 
1.0895193e-01 7.2085708e-02 -9.9677239e-03 
1.0568161e-01 6.9748990e-02 4.3462701e-03 
1.0575753e-01 6.9860533e-02 5.8722170e-03 
1.0533487e-01 6.9855340e-02 -9.3926843e-03 
1.0515535e-01 6.9568485e-02 3.6887222e-03 
1.0437784e-01 6.9128014e-02 -2.6861308e-03 
1.0416366e-01 6.9051459e-02 -5.0856764e-03 
1.0384803e-01 6.8724900e-02 -1.8563638e-03 
1.0637175e-01 7.0374012e-02 -9.2627220e-03 
1.0435522e-01 6.9199093e-02 -1.5243792e-02 
1.0455558e-01 6.9276571e-02 6.2754112e-03 
1.0420092e-01 6.9042146e-02 -9.1452355e-04 
1.0392850e-01 6.8856016e-02 -8.2394769e-03 
1.0547057e-01 6.9818914e-02 -7.1907574e-03 
1.0248616e-01 6.8056136e-02 -7.7720224e-03 
1.0255912e-01 6.8155035e-02 -1.0350510e-02 
1.0615617e-01 7.0103996e-02 -1.2387500e-02 
1.0261548e-01 6.8162076e-02 -1.2655329e-02 
1.0391296e-01 6.8975434e-02 -4.1406153e-04 
1.0190075e-01 6.7586198e-02 -5.5804630e-03 
1.0131967e-01 6.7177504e-02 -7.2315433e-03 
1.0123803e-01 6.6795573e-02 2.7645528e-03 
1.0149451e-01 6.7368150e-02 -1.4716061e-02 
1.0316381e-01 6.8387240e-02 -3.7364461e-03 
1.0187320e-01 6.7341052e-02 6.8078581e-03 
1.0141110e-01 6.6897534e-02 5.1398380e-03 
1.0110889e-01 6.6848181e-02 -1.6351050e-04 
1.0148109e-01 6.6994950e-02 6.3528260e-03 
1.0148887e-01 6.7199066e-02 4.5131700e-04 
1.0166483e-01 6.7228325e-02 -1.3797131e-02 
1.0341687e-01 6.8343125e-02 -9.7242864e-03 
1.0146121e-01 6.7052744e-02 -1.1062685e-02 
1.0327586e-01 6.8253711e-02 -9.2748674e-03 
1.0115486e-01 6.7046992e-02 5.0917212e-03 
9.9705793e-02 6.5977968e-02 -2.2565948e-03 
9.8378733e-02 6.5175720e-02 -4.2542368e-03 
9.8841935e-02 6.5411702e-02 -2.2437025e-03 
9.8819785e-02 6.5494142e-02 -9.1976114e-03 
9.8252982e-02 6.5176278e-02 -6.1712242e-03 
9.9513277e-02 6.5907411e-02 -4.4857772e-04 
9.8301828e-02 6.5273337e-02 -8.8159367e-03 
9.8358467e-02 6.5345377e-02 -1.1134466e-02 
9.9127464e-02 6.5612696e-02 -6.7955232e-03 
9.8917522e-02 6.5482467e-02 -1.4599894e-02 
9.8442048e-02 6.5389402e-02 -1.3238851e-02 
9.9083260e-02 6.5583669e-02 6.1998176e-03 
1.0047118e-01 6.6482469e-02 -6.2717455e-03 
1.0023752e-01 6.6250615e-02 -8.5640801e-03 
9.8541491e-02 6.5244347e-02 -5.4463092e-04 
9.7673371e-02 6.4461410e-02 1.6132708e-03 
9.7544141e-02 6.4596333e-02 -3.8983102e-03 
9.8695524e-02 6.5485492e-02 2.4121089e-03 
1.0057033e-01 6.6355802e-02 -1.1607181e-02 
9.7494371e-02 6.4435996e-02 2.8650134e-03 
9.7110450e-02 6.4394765e-02 -7.9615666e-03 
9.7097360e-02 6.4012706e-02 4.1520535e-03 
9.7212061e-02 6.4098820e-02 5.7389303e-03 
9.8261140e-02 6.4911827e-02 -8.6524170e-03 
9.5821105e-02 6.3414387e-02 -2.7641784e-03 
9.6106470e-02 6.3773610e-02 -1.4122084e-02 
9.6450970e-02 6.3733004e-02 6.7424313e-03 
9.6315138e-02 6.3623376e-02 -1.3257252e-02 
9.6251257e-02 6.3825302e-02 4.8404490e-03 
9.7937822e-02 6.4683639e-02 -9.0758223e-03 
9.7796977e-02 6.4595953e-02 -8.6229313e-03 
9.4453052e-02 6.2444158e-02 -1.1039397e-03 
9.4175830e-02 6.2481735e-02 -7.2665536e-03 
9.4212614e-02 6.2547147e-02 -9.6659474e-03 
9.4271667e-02 6.2605254e-02 -1.1831400e-02 
9.3917742e-02 6.2258262e-02 -5.0506438e-03 
9.4257131e-02 6.2283598e-02 3.7650854e-04 
9.3474567e-02 6.1810784e-02 -1.6663872e-03 
9.3957558e-02 6.2300943e-02 -1.1009715e-02 
9.5407888e-02 6.3013829e-02 -8.0623459e-03 
9.3720451e-02 6.2020756e-02 -5.3307777e-03 
9.3632028e-02 6.2013395e-02 -1.4017812e-02 
9.3567163e-02 6.1871439e-02 8.7048335e-04 
9.3801238e-02 6.2093385e-02 6.2080566e-03 
9.2876315e-02 6.1221674e-02 2.5446450e-03 
9.3048856e-02 6.1302401e-02 4.9946136e-03 
9.2491955e-02 6.1166260e-02 -1.9363367e-03 
9.3103588e-02 6.1385728e-02 6.1269561e-03 
9.4548658e-02 6.2497098e-02 -6.0594492e-03 
9.2961967e-02 6.1536163e-02 -2.5734319e-03 
9.2422619e-02 6.1163802e-02 -4.0362398e-03 
9.5180169e-02 6.2753156e-02 -1.0860415e-02 
9.1790609e-02 6.0823489e-02 -7.6185935e-03 
9.1321297e-02 6.0424715e-02 -2.9387814e-03 
9.2713349e-02 6.1442774e-02 2.1975557e-04 
9.0916738e-02 6.0306206e-02 -1.3551113e-02 
9.2409901e-02 6.1184656e-02 -2.9004838e-03 
9.1252111e-02 6.0260247e-02 6.6202707e-03 
9.0140775e-02 5.9779052e-02 -5.7591433e-03 
9.0941988e-02 6.0174253e-02 -7.3108203e-03 
9.0202361e-02 5.9879605e-02 -8.2305940e-03 
9.0274230e-02 5.9952039e-02 -1.0407489e-02 
9.0337493e-02 5.9966024e-02 -1.2356414e-02 
9.0257376e-02 5.9621893e-02 -2.6642202e-04 
9.2628501e-02 6.1128769e-02 -8.4339082e-03 
8.9483880e-02 5.9250273e-02 -3.9313175e-03 
9.0647601e-02 5.9904356e-02 -1.2844498e-02 
9.2493877e-02 6.1045580e-02 -7.9804556e-03 
9.0622716e-02 6.0052570e-02 5.1618158e-03 
8.9053579e-02 5.8979020e-02 -5.4500443e-03 
8.8785224e-02 5.8531351e-02 1.4969667e-03 
8.8975117e-02 5.8564506e-02 3.9486289e-03 
8.9117825e-02 5.8694556e-02 5.5264584e-03 
8.8440478e-02 5.8456551e-02 -1.6845675e-03 
8.9142181e-02 5.8787029e-02 6.4370758e-03 
8.9017585e-02 5.8951087e-02 7.6501768e-05 
8.8499881e-02 5.8564015e-02 -1.3466414e-02 
8.8674217e-02 5.8638908e-02 6.2116617e-03 
8.7989464e-02 5.8273997e-02 -9.0326266e-03 
8.9884654e-02 5.9415326e-02 -5.2109086e-03 
8.9671753e-02 5.9200313e-02 -7.4174074e-03 
8.8164046e-02 5.8321629e-02 -1.9398909e-04 
8.8465162e-02 5.8311358e-02 -9.8520741e-03 
8.8329136e-02 5.8577180e-02 2.8518653e-03 
8.9974299e-02 5.9295636e-02 -1.0137256e-02 
8.6227305e-02 5.7105999e-02 -4.4204993e-03 
8.6259559e-02 5.7221271e-02 -6.7960382e-03 
8.6331613e-02 5.7309948e-02 -9.0304874e-03 
8.6412862e-02 5.7370022e-02 -1.1035969e-02 
8.6450748e-02 5.7154946e-02 -1.9937155e-03 
8.7860011e-02 5.7981431e-02 -7.5889523e-03 
8.6552322e-02 5.7178039e-02 1.5633468e-03 
8.6438313e-02 5.7159375e-02 -9.1720633e-03 
8.5863598e-02 5.6934942e-02 -1.2967446e-02 
8.6203367e-02 5.6913156e-02 6.5324781e-03 
8.5171834e-02 5.6301042e-02 -1.9438002e-03 
8.5882917e-02 5.6772903e-02 9.2236535e-04 
8.6033680e-02 5.6856312e-02 -1.1988085e-02 
8.5148402e-02 5.6378633e-02 -4.2146831e-03 
8.6056836e-02 5.6999255e-02 4.9425242e-03 
8.4972158e-02 5.5957068e-02 2.3584599e-03 
8.7531455e-02 5.7761651e-02 -7.8488542e-03 
8.5150748e-02 5.6033380e-02 4.7552888e-03 
8.7396920e-02 5.7680666e-02 -7.3798797e-03 
8.4885664e-02 5.5930022e-02 6.1195535e-03 
8.3782755e-02 5.5349626e-02 -1.5146496e-03 
8.3398394e-02 5.5235047e-02 -7.9083536e-03 
8.5167073e-02 5.6215256e-02 -6.9791446e-03 
8.3590433e-02 5.5278484e-02 -1.2831361e-02 
8.3714105e-02 5.5331361e-02 6.1298185e-03 
8.3016448e-02 5.5108503e-02 -1.1622793e-02 
8.2457624e-02 5.4661982e-02 -5.3927894e-03 
8.2532831e-02 5.4779433e-02 -7.6813251e-03 
8.2586311e-02 5.4855544e-02 -9.7422050e-03 
8.3395608e-02 5.5145979e-02 1.2116082e-05 
8.4369436e-02 5.5748388e-02 -5.0123176e-03 
8.4952734e-02 5.5973072e-02 -9.4567137e-03 
8.2900152e-02 5.4967172e-02 8.3278917e-04 
8.1692487e-02 5.4140970e-02 -6.9746161e-03 
8.1393659e-02 5.3840093e-02 -3.0290843e-03 
8.1289127e-02 5.3481832e-02 3.7380578e-03 
8.1414200e-02 5.3583998e-02 5.3353161e-03 
8.1519611e-02 5.3919714e-02 -5.1709870e-03 
8.1051655e-02 5.3746242e-02 -1.2429927e-02 
8.2370326e-02 5.4537877e-02 -2.1165560e-03 
8.1377812e-02 5.3677287e-02 6.4505264e-03 
8.1025466e-02 5.3557169e-02 1.0967986e-03 
8.1189036e-02 5.3586334e-02 -1.1587081e-02 
8.2576066e-02 5.4471895e-02 -7.2745280e-03 
8.0363810e-02 5.3051304e-02 1.1355280e-03 
8.0996551e-02 5.3436890e-02 -9.0326332e-03 
8.2447112e-02 5.4394241e-02 -6.7881411e-03 
8.0786884e-02 5.3472128e-02 5.1918188e-03 
7.9286784e-02 5.2655503e-02 -1.0501115e-02 
7.9143956e-02 5.2249849e-02 -4.5388233e-04 
7.9426855e-02 5.2510399e-02 -2.0958574e-03 
7.8769296e-02 5.2177317e-02 -4.1163168e-03 
7.8811698e-02 5.2292109e-02 -6.3546887e-03 
7.8878038e-02 5.2383471e-02 -8.4430287e-03 
7.9282485e-02 5.2469123e-02 5.9405441e-04 
7.8943484e-02 5.2191399e-02 -5.5422541e-03 
7.8217439e-02 5.1494651e-02 2.4485793e-03 
7.8545183e-02 5.2053124e-02 -9.5692249e-03 
7.8835532e-02 5.2166458e-02 -1.2339051e-02 
7.8979284e-02 5.2171763e-02 6.0252366e-03 
8.0008209e-02 5.2887276e-02 -4.2119478e-03 
7.9835236e-02 5.2694798e-02 -6.3932510e-03 
7.7761695e-02 5.1491622e-02 -3.9272122e-03 
7.8486986e-02 5.1924441e-02 2.8916457e-04 
7.8676194e-02 5.2174896e-02 3.2252686e-03 
7.7678047e-02 5.1082779e-02 4.5474283e-03 
7.7728257e-02 5.1194005e-02 5.7297493e-03 
8.0093928e-02 5.2763000e-02 -8.7891202e-03 
7.6831833e-02 5.0910078e-02 -6.4460705e-03 
7.8164235e-02 5.1564608e-02 -6.6596996e-03 
7.6396137e-02 5.0687537e-02 -1.1900409e-02 
7.6582380e-02 5.0648600e-02 -5.7410211e-03 
7.6680548e-02 5.0572734e-02 6.3845338e-03 
7.6107465e-02 5.0246913e-02 8.0214733e-05 
7.6581724e-02 5.0571077e-02 -1.1125233e-02 
7.6566607e-02 5.0700247e-02 4.9679633e-03 
7.7805191e-02 5.1339954e-02 -6.7227730e-03 
7.5183116e-02 4.9880963e-02 -5.0563551e-03 
7.5251333e-02 4.9987953e-02 -7.1835537e-03 
7.5324059e-02 5.0078236e-02 -9.0763010e-03 
7.5423069e-02 5.0104510e-02 -1.0765712e-02 
7.7677883e-02 5.1264759e-02 -6.2144795e-03 
7.4703574e-02 4.9369156e-02 -1.3147942e-03 
7.4776247e-02 4.9425598e-02 -9.6325151e-04 
7.4193522e-02 4.9114488e-02 -2.7982905e-03 
7.3965967e-02 4.8675187e-02 3.4995927e-03 
7.5667076e-02 4.9942460e-02 -6.0193338e-03 
7.4129857e-02 4.8751090e-02 5.0523500e-03 
7.4255355e-02 4.9208753e-02 -1.1813852e-02 
7.4232690e-02 4.8884921e-02 6.0290294e-03 
7.4157260e-02 4.8994847e-02 1.3674292e-03 
7.4397102e-02 4.9172115e-02 5.9791938e-03 
7.4183673e-02 4.9056411e-02 -1.9566412e-03 
7.3392779e-02 4.8665538e-02 -7.3300879e-03 
7.3159032e-02 4.8508480e-02 -5.4102382e-03 
7.4889705e-02 4.9504004e-02 -4.0403609e-03 
7.5424969e-02 4.9686197e-02 -8.1325285e-03 
7.3782571e-02 4.8962876e-02 1.3530620e-03 
7.3257290e-02 4.8508007e-02 -7.2500296e-04 
7.3157787e-02 4.8327602e-02 -6.4052185e-03 
7.1733855e-02 4.7656365e-02 -5.9538539e-03 
7.1841396e-02 4.7767524e-02 -7.9077091e-03 
7.1880877e-02 4.7806464e-02 -9.8216431e-03 
7.2053887e-02 4.7577482e-02 1.8509475e-03 
7.1912862e-02 4.7777653e-02 -1.1447237e-02 
7.3092818e-02 4.8445858e-02 -1.4247947e-03 
7.2204456e-02 4.7641430e-02 6.2210117e-03 
7.1174659e-02 4.7203746e-02 -4.0385672e-03 
7.1781822e-02 4.7492977e-02 9.0932345e-04 
7.3247753e-02 4.8330020e-02 -6.1804405e-03 
7.1721889e-02 4.7418769e-02 -1.0786155e-02 
7.3121004e-02 4.8258532e-02 -5.6553762e-03 
7.0756055e-02 4.6885621e-02 -3.6479342e-03 
7.1671963e-02 4.7474064e-02 5.1695243e-03 
7.0401192e-02 4.6356577e-02 1.9303391e-03 
7.0649803e-02 4.6460778e-02 4.3119951e-03 
7.0469327e-02 4.6723690e-02 -7.6922076e-03 
7.0518926e-02 4.6629775e-02 7.0760638e-04 
7.0347123e-02 4.6329916e-02 5.7759155e-03 
6.9744952e-02 4.6275888e-02 -5.9835790e-03 
6.9885463e-02 4.6276838e-02 -1.1370008e-02 
6.9898844e-02 4.6264838e-02 -4.7335178e-03 
7.0035286e-02 4.6350900e-02 5.9031001e-03 
6.9303341e-02 4.5814548e-02 -2.1279237e-04 
7.0941441e-02 4.6949260e-02 -3.3500330e-03 
6.8976134e-02 4.5580436e-02 -7.7707903e-04 
7.0784427e-02 4.6751451e-02 -5.4664076e-03 
6.9888294e-02 4.6082739e-02 -7.9510948e-03 
6.9733135e-02 4.6283413e-02 3.3342398e-03 
6.8406537e-02 4.5518596e-02 -6.6948002e-03 
6.8491958e-02 4.5614988e-02 -8.5017141e-03 
7.0968941e-02 4.6767272e-02 -7.4945623e-03 
6.8417929e-02 4.5539979e-02 -1.0243622e-02 
6.7853555e-02 4.5080341e-02 -4.7151744e-03 
6.8329223e-02 4.5130711e-02 2.1389916e-03 
6.9277354e-02 4.5782022e-02 -5.8023147e-03 
6.7468882e-02 4.4770774e-02 -4.3740328e-03 
6.7630209e-02 4.4937495e-02 -1.1008850e-02 
6.8088561e-02 4.5072060e-02 -2.0448221e-03 
6.7924865e-02 4.4856183e-02 6.0781175e-03 
6.7154363e-02 4.4193059e-02 3.2202811e-03 
6.7828275e-02 4.4813812e-02 -1.0141452e-02 
6.7319624e-02 4.4289060e-02 4.8381747e-03 
6.7834444e-02 4.5020655e-02 5.0180149e-03 
6.7116462e-02 4.4564050e-02 -7.4183252e-03 
6.7425437e-02 4.4422507e-02 5.7120519e-03 
6.8934552e-02 4.5522653e-02 -5.7098004e-03 
6.6279002e-02 4.3849461e-02 -1.1874470e-03 
6.8808049e-02 4.5455370e-02 -5.1581468e-03 
6.5987445e-02 4.3713462e-02 -2.1112221e-03 
6.6315897e-02 4.3975465e-02 -7.1376138e-03 
6.6490479e-02 4.4020865e-02 6.1560026e-04 
6.5796688e-02 4.3589186e-02 -2.9709220e-03 
6.5097086e-02 4.3331634e-02 -5.5190437e-03 
6.5183230e-02 4.3461014e-02 -7.3709548e-03 
6.5285824e-02 4.3507181e-02 -9.0013240e-03 
6.7001432e-02 4.4282474e-02 -5.1690396e-03 
6.5392092e-02 4.3544497e-02 -1.0313926e-02 
6.5710187e-02 4.3551154e-02 -1.0926062e-02 
6.5832913e-02 4.3566339e-02 5.8594807e-03 
6.4666390e-02 4.2971343e-02 -3.9583952e-03 
6.6707611e-02 4.4168495e-02 -2.9440054e-03 
6.5148659e-02 4.3177493e-02 -2.7098428e-03 
6.6742055e-02 4.4007167e-02 -6.9194110e-03 
6.4259306e-02 4.2707540e-02 -5.0010188e-03 
6.3985340e-02 4.2095385e-02 4.0561887e-03 
6.4111486e-02 4.2243127e-02 5.1584803e-03 
6.3902162e-02 4.2478677e-02 -7.1445503e-03 
6.3299805e-02 4.1719131e-02 2.0536308e-03 
6.3160837e-02 4.1918401e-02 -2.5687371e-03 
6.3059866e-02 4.1783825e-02 -1.3887519e-03 
6.3382767e-02 4.1909575e-02 7.1993429e-04 
6.3523084e-02 4.2299118e-02 -1.0555729e-02 
6.3797653e-02 4.2121060e-02 5.9569441e-03 
6.3498177e-02 4.2035226e-02 1.4623613e-03 
6.4418510e-02 4.2736057e-02 -1.4529342e-03 
6.4794488e-02 4.2811576e-02 -5.2506868e-03 
6.3099198e-02 4.1897289e-02 -7.2206622e-03 
6.3265093e-02 4.1870028e-02 -9.9381590e-03 
6.4667344e-02 4.2747203e-02 -4.6644737e-03 
6.3323796e-02 4.2038690e-02 5.2379570e-03 
6.2008355e-02 4.1183759e-02 -2.8108165e-03 
6.2454868e-02 4.1663449e-02 -9.5866937e-03 
6.1952349e-02 4.1253179e-02 -4.4447309e-03 
6.1997276e-02 4.1352421e-02 -6.2714866e-03 
6.2077310e-02 4.1440863e-02 -7.8967158e-03 
6.2971808e-02 4.1880514e-02 1.0944018e-03 
6.1671186e-02 4.0926807e-02 -3.4870668e-03 
6.3048735e-02 4.1794352e-02 -2.8215419e-03 
6.1284099e-02 4.0763024e-02 -5.4005003e-03 
6.2006909e-02 4.1186180e-02 1.4761484e-03 
6.1640318e-02 4.0921025e-02 -1.0400486e-02 
6.1790470e-02 4.0916778e-02 5.6807515e-03 
6.0927141e-02 4.0482834e-02 -3.3966331e-03 
6.1272155e-02 4.0545516e-02 1.7739326e-03 
6.2505789e-02 4.1364104e-02 -4.6762712e-03 
6.0788348e-02 4.0032905e-02 2.9825356e-03 
6.1453115e-02 4.0695000e-02 -4.9997987e-03 
6.1373536e-02 4.0707301e-02 9.9502457e-04 
6.1654203e-02 4.0730048e-02 -7.4602417e-03 
6.0929433e-02 4.0146858e-02 4.5320815e-03 
6.1586127e-02 4.1009165e-02 3.7067707e-03 
6.0497064e-02 4.0089749e-02 -9.5121004e-04 
6.0814202e-02 4.0486071e-02 -7.9447115e-03 
6.0997758e-02 4.0212438e-02 5.3987023e-03 
6.2654182e-02 4.1353270e-02 -6.3813161e-03 
6.1127484e-02 4.0465210e-02 -4.9958932e-03 
6.0588848e-02 4.0212236e-02 -2.2283860e-03 
5.9549201e-02 3.9707340e-02 -1.0086710e-02 
5.9838820e-02 3.9550349e-02 5.7405713e-03 
5.8827046e-02 3.9162762e-02 -3.3566407e-03 
5.8897540e-02 3.9300386e-02 -5.1851156e-03 
5.8995709e-02 3.9419897e-02 -6.8532280e-03 
5.9084199e-02 3.9496299e-02 -8.3228275e-03 
5.9784506e-02 3.9589923e-02 -9.2168543e-03 
5.8567502e-02 3.8849808e-02 -1.0905531e-03 
5.9775706e-02 3.9731085e-02 5.0204117e-03 
6.0772736e-02 4.0220290e-02 -4.8260391e-03 
6.0646813e-02 4.0161263e-02 -4.2005461e-03 
5.8964279e-02 3.9184891e-02 -5.6930403e-03 
5.8422379e-02 3.8650665e-02 1.7589929e-03 
5.8299500e-02 3.8865577e-02 -7.5349868e-03 
5.7650138e-02 3.8289469e-02 -1.5485509e-03 
5.9336584e-02 3.9433803e-02 -2.1041529e-03 
5.7833727e-02 3.8107868e-02 3.7588882e-03 
5.9000243e-02 3.9098579e-02 -4.3913890e-03 
5.7798404e-02 3.8434796e-02 -9.8975468e-03 
5.7497818e-02 3.8241580e-02 -2.9012498e-03 
5.7942279e-02 3.8426161e-02 5.5819615e-03 
5.7166230e-02 3.8090844e-02 -3.9044784e-03 
5.7631131e-02 3.8182337e-02 1.9311684e-03 
5.7676326e-02 3.8067073e-02 5.3218743e-03 
5.6826446e-02 3.7803546e-02 -2.3414686e-03 
5.7293639e-02 3.8071081e-02 -2.1920625e-04 
5.8696598e-02 3.8803887e-02 -5.8698375e-03 
5.6403842e-02 3.7235383e-02 2.1805773e-03 
5.5934709e-02 3.7360616e-02 -4.0831282e-03 
5.6029860e-02 3.7490033e-02 -5.8134389e-03 
5.6133550e-02 3.7590791e-02 -7.3567606e-03 
5.6231197e-02 3.7636757e-02 -8.8634612e-03 
5.6192320e-02 3.7233409e-02 5.4757023e-04 
5.6417968e-02 3.7572335e-02 -6.4345137e-03 
5.6346010e-02 3.7158053e-02 4.4984887e-03 
5.6392789e-02 3.7489470e-02 -1.6914797e-03 
5.5512119e-02 3.7003018e-02 -2.8336130e-03 
5.6876767e-02 3.7952553e-02 2.4615412e-03 
5.5832036e-02 3.7302621e-02 -9.5935008e-03 
5.6108948e-02 3.7134610e-02 5.5477256e-03 
5.5770122e-02 3.7028924e-02 1.4713048e-03 
5.6021325e-02 3.7289459e-02 4.9318266e-03 
5.5257734e-02 3.6867481e-02 -4.9860291e-03 
5.4917760e-02 3.6510080e-02 -1.2727602e-03 
5.6878477e-02 3.7706032e-02 -4.4180173e-03 
5.4867722e-02 3.6342651e-02 6.2422047e-04 
5.5189859e-02 3.6828574e-02 -6.3050166e-03 
5.6752589e-02 3.7648611e-02 -3.7479161e-03 
5.5719040e-02 3.7195120e-02 3.9187456e-03 
5.5901453e-02 3.7304714e-02 3.1481442e-04 
5.4617044e-02 3.6147684e-02 1.2502151e-03 
5.5364288e-02 3.6679555e-02 -8.3756326e-03 
5.4891780e-02 3.6562722e-02 4.0975463e-04 
5.4981433e-02 3.6352515e-02 -6.2627629e-03 
5.3817779e-02 3.5892203e-02 -3.0287290e-03 
5.4147359e-02 3.6081553e-02 -9.4430242e-03 
5.3916518e-02 3.5654351e-02 5.0154361e-03 
5.3652324e-02 3.5944533e-02 -8.8963788e-03 
5.4904670e-02 3.6565017e-02 -1.7520979e-03 
5.3166106e-02 3.5607859e-02 -4.8066205e-03 
5.3029690e-02 3.5442218e-02 -3.3569797e-03 
5.3265549e-02 3.5721477e-02 -6.4186398e-03 
5.4106466e-02 3.5934489e-02 5.3904513e-03 
5.3335980e-02 3.5769340e-02 -7.7479295e-03 
5.3861070e-02 3.5850290e-02 1.2036791e-03 
5.4425932e-02 3.6087517e-02 -4.5611677e-03 
5.3383943e-02 3.5239469e-02 3.7339767e-03 
5.3104170e-02 3.5124213e-02 1.7856166e-03 
5.3524714e-02 3.5682328e-02 -4.7473074e-03 
5.3686392e-02 3.5652950e-02 -6.0034343e-03 
5.4909788e-02 3.6352418e-02 -5.3471597e-03 
5.3670142e-02 3.5705138e-02 -1.4188536e-03 
5.3594947e-02 3.5682853e-02 -1.3528431e-03 
5.2340057e-02 3.4878943e-02 -1.6664080e-03 
5.2612692e-02 3.5175245e-02 -5.5818735e-03 
5.3169452e-02 3.5360575e-02 -2.7898625e-03 
5.3674571e-02 3.5650991e-02 -3.9443620e-03 
5.2425813e-02 3.4911487e-02 -4.9841418e-03 
5.2259225e-02 3.4979273e-02 -9.1875177e-03 
5.2540734e-02 3.4862146e-02 5.4694163e-03 
5.1495560e-02 3.4289565e-02 -1.0158583e-03 
5.3411089e-02 3.5459630e-02 -4.0523708e-03 
5.1664419e-02 3.4538355e-02 -3.8417971e-03 
5.2445315e-02 3.4952663e-02 5.0337259e-03 
5.2298293e-02 3.4937512e-02 4.4592391e-03 
5.3077973e-02 3.5270404e-02 -3.3274801e-03 
5.2176267e-02 3.4932941e-02 3.7110876e-03 
5.2045770e-02 3.4836236e-02 2.9399579e-03 
5.1900484e-02 3.4738515e-02 2.1326120e-03 
5.0664213e-02 3.4038976e-02 -5.5548782e-03 
5.0795987e-02 3.4147769e-02 -6.9238786e-03 
5.1397607e-02 3.4210194e-02 -8.7387469e-03 
5.1000923e-02 3.4001302e-02 -2.0460447e-03 
5.0865009e-02 3.4167349e-02 -8.1123644e-03 
5.0382316e-02 3.3776768e-02 -3.9292858e-03 
5.1324811e-02 3.4052428e-02 -6.7874570e-03 
5.0568409e-02 3.3425767e-02 2.8784133e-03 
5.0745282e-02 3.3531588e-02 4.1839783e-03 
5.0882887e-02 3.3698659e-02 5.0513721e-03 
5.1537931e-02 3.4429274e-02 -6.4924650e-04 
5.0847426e-02 3.3926528e-02 1.0003021e-03 
5.0611850e-02 3.3662770e-02 2.0772777e-03 
5.1128577e-02 3.3891164e-02 -5.3868592e-03 
5.0860267e-02 3.3791069e-02 -7.7945413e-03 
5.1097989e-02 3.4199487e-02 1.2958386e-03 
5.0745782e-02 3.3858426e-02 3.6008054e-04 
5.1437140e-02 3.4295216e-02 -1.8266274e-03 
5.0631963e-02 3.3770844e-02 -3.4786764e-04 
4.9757421e-02 3.3245586e-02 -2.3341223e-03 
4.9995981e-02 3.3486202e-02 -4.8911585e-03 
5.0131794e-02 3.3553112e-02 -6.1608758e-03 
5.0687138e-02 3.3648383e-02 -5.9205121e-03 
4.9573701e-02 3.2996472e-02 -2.0803092e-04 
5.0826367e-02 3.4016050e-02 4.5904750e-04 
5.0870541e-02 3.3772700e-02 -4.0931967e-03 
4.9795058e-02 3.3123598e-02 9.5710729e-04 
5.1324643e-02 3.4068853e-02 -4.8769875e-03 
5.0045799e-02 3.3356838e-02 -5.0087254e-03 
5.0498571e-02 3.3529397e-02 -4.5206323e-03 
5.0531831e-02 3.3610184e-02 -3.5994353e-03 
4.9875353e-02 3.3230953e-02 -2.4155308e-03 
4.9748305e-02 3.3165645e-02 5.2352487e-03 
4.8915111e-02 3.2565232e-02 -3.3227974e-05 
4.9846400e-02 3.3246566e-02 -1.3747022e-03 
4.9297638e-02 3.2907359e-02 -2.3281414e-03 
4.9250849e-02 3.2911502e-02 -6.4357338e-03 
4.9963400e-02 3.3235751e-02 -3.6574281e-03 
4.9715847e-02 3.3205323e-02 -1.1020234e-03 
4.8888080e-02 3.2813717e-02 -8.7554595e-03 
4.9103357e-02 3.2631066e-02 5.2322540e-03 
4.9117584e-02 3.2726407e-02 -3.2794669e-03 
4.7991522e-02 3.2211829e-02 -3.3294167e-03 
4.8120610e-02 3.2394003e-02 -6.0224729e-03 
4.8131872e-02 3.1913869e-02 1.8586884e-03 
4.7947682e-02 3.2239567e-02 -4.6759243e-03 
4.8208218e-02 3.2466594e-02 -7.2526201e-03 
4.8718084e-02 3.2541674e-02 -8.7000430e-03 
4.8276510e-02 3.2484714e-02 -8.2623055e-03 
4.8601884e-02 3.2432426e-02 1.8376596e-03 
4.8690062e-02 3.2561410e-02 4.6688672e-03 
4.8012238e-02 3.1767473e-02 3.4400772e-03 
4.8198264e-02 3.1918455e-02 4.4679795e-03 
4.8534803e-02 3.2557160e-02 4.0508211e-03 
4.8097700e-02 3.1999271e-02 3.0975919e-03 
4.8423607e-02 3.2502923e-02 3.3999358e-03 
4.8285712e-02 3.2164533e-02 -8.0008302e-03 
4.8320107e-02 3.2434270e-02 2.6418257e-03 
4.8226606e-02 3.2073304e-02 -6.9593857e-03 
4.7507327e-02 3.1674869e-02 -3.1378068e-04 
4.7603231e-02 3.1928249e-02 -5.7229744e-03 
4.8141047e-02 3.2002699e-02 -6.0294541e-03 
4.7757443e-02 3.1880148e-02 1.8046504e-03 
4.8172534e-02 3.2364082e-02 1.8868223e-03 
4.8598889e-02 3.2385662e-02 -2.5351224e-03 
4.8017073e-02 3.1899266e-02 -5.3735953e-03 
4.8035443e-02 3.2251004e-02 1.0613423e-03 
4.7906466e-02 3.1845715e-02 -4.7215517e-03 
4.6794109e-02 3.1329699e-02 -1.9359705e-03 
4.7874592e-02 3.2105979e-02 1.5781031e-04 
4.7440812e-02 3.1737234e-02 1.2403700e-03 
4.6838243e-02 3.1433623e-02 -4.3236786e-03 
4.7755286e-02 3.1774845e-02 -4.0416750e-03 
4.7739949e-02 3.1960540e-02 -8.6097093e-04 
4.7468249e-02 3.1749275e-02 -9.9767244e-04 
4.7607139e-02 3.1707708e-02 -3.6329506e-03 
4.7205292e-02 3.1510483e-02 -2.7244436e-03 
4.7696672e-02 3.1770296e-02 -3.4182107e-03 
4.7946077e-02 3.1877462e-02 -4.3925215e-03 
4.7106419e-02 3.1447954e-02 -2.0590511e-03 
4.7429051e-02 3.1596024e-02 -3.3322156e-03 
4.6475578e-02 3.0945988e-02 1.5989350e-03 
4.6646193e-02 3.1171151e-02 -4.9531623e-03 
4.6910238e-02 3.1398401e-02 -8.4268959e-04 
4.6513651e-02 3.1037612e-02 -3.9838389e-03 
4.6101242e-02 3.0840576e-02 -1.8285218e-03 
4.6316240e-02 3.1036731e-02 3.3173466e-04 
4.5175161e-02 3.0220376e-02 -9.4427017e-04 
4.5594726e-02 3.0246405e-02 2.7131061e-03 
4.5295600e-02 3.0530278e-02 -4.5038108e-03 
4.5415934e-02 3.0668998e-02 -6.2297890e-03 
4.5815419e-02 3.0361980e-02 3.9130445e-03 
4.5559239e-02 3.0778674e-02 -7.5717517e-03 
4.5880504e-02 3.0482331e-02 4.5958459e-03 
4.5690041e-02 3.0771928e-02 -8.3434591e-03 
4.5912512e-02 3.0573433e-02 5.0054011e-03 
4.5795113e-02 3.0724706e-02 -8.4176743e-03 
4.5908112e-02 3.0657340e-02 5.0034835e-03 
4.5850977e-02 3.0664392e-02 -8.0883913e-03 
4.5892827e-02 3.0719699e-02 4.7598658e-03 
4.5845445e-02 3.0545315e-02 -7.2187292e-03 
4.5790210e-02 3.0731075e-02 4.3136533e-03 
4.5656402e-02 3.0543957e-02 -5.9297372e-04 
4.5367815e-02 3.0441342e-02 -5.4043857e-03 
4.5756180e-02 3.0449606e-02 -6.1957869e-03 
4.5679148e-02 3.0734155e-02 3.7112604e-03 
4.5641925e-02 3.0372731e-02 -5.4379809e-03 
4.5565154e-02 3.0671246e-02 3.0588128e-03 
4.5517694e-02 3.0295709e-02 -4.8197196e-03 
4.5418601e-02 3.0599868e-02 2.3722337e-03 
4.4838890e-02 3.0163908e-02 -5.2919826e-03 
4.4910863e-02 2.9983239e-02 1.5982147e-03 
4.4435803e-02 2.9769227e-02 -1.3418826e-03 
4.5391180e-02 3.0244686e-02 -4.1607060e-03 
4.5283165e-02 3.0513274e-02 1.6248014e-03 
4.5259871e-02 3.0192858e-02 -3.6173379e-03 
4.5103479e-02 3.0360527e-02 7.9870643e-04 
4.5083050e-02 3.0084899e-02 -3.2483297e-03 
4.4953384e-02 3.0225020e-02 -1.2347732e-04 
4.4709072e-02 2.9904434e-02 -2.3203224e-03 
4.4138454e-02 2.9483005e-02 8.9125446e-04 
4.4599973e-02 2.9921899e-02 1.0433880e-03 
4.3892797e-02 2.9544335e-02 -4.0449193e-03 
4.3605439e-02 2.9213643e-02 -9.2797738e-04 
4.4903517e-02 2.9972786e-02 -3.0387084e-03 
4.4810891e-02 3.0041069e-02 -1.1488805e-03 
4.4450358e-02 2.9721711e-02 -2.7176698e-03 
4.4541076e-02 2.9864784e-02 -1.0391669e-03 
4.4752818e-02 2.9866533e-02 -3.1946765e-03 
4.4738460e-02 2.9876154e-02 -2.4081713e-03 
4.3395627e-02 2.9363424e-02 -5.7684919e-03 
4.3891329e-02 2.9460354e-02 -5.2974960e-03 
4.4205382e-02 2.9613929e-02 -1.3833529e-03 
4.3122835e-02 2.9091980e-02 -3.3686869e-03 
4.3517239e-02 2.9430477e-02 -7.7167666e-03 
4.4775270e-02 2.9839043e-02 -3.9586690e-03 
4.3435428e-02 2.8848276e-02 3.2112773e-03 
4.3563042e-02 2.8969485e-02 4.1241380e-03 
4.3549340e-02 2.9180961e-02 -4.1551185e-03 
4.2839050e-02 2.8517742e-02 1.6119506e-03 
4.3566808e-02 2.9276174e-02 1.8397282e-04 
4.3277353e-02 2.9006496e-02 -3.8841186e-04 
4.3470472e-02 2.9092977e-02 -7.4238149e-03 
4.2754576e-02 2.8960563e-02 -6.6881222e-03 
4.3429874e-02 2.8998017e-02 -6.4613698e-03 
4.3359056e-02 2.8917030e-02 -5.5390736e-03 
4.2985015e-02 2.8919917e-02 -8.0123004e-03 
4.3125972e-02 2.8995233e-02 4.4699828e-03 
4.3246388e-02 2.8836505e-02 -4.8882049e-03 
4.2666040e-02 2.8824721e-02 -7.9907207e-03 
4.2922251e-02 2.8621897e-02 4.7845156e-03 
4.3041218e-02 2.8995235e-02 3.9577377e-03 
4.1994009e-02 2.8305398e-02 -2.4218981e-03 
4.3119214e-02 2.8775388e-02 -4.2713117e-03 
4.2391978e-02 2.8618924e-02 -5.4423376e-03 
4.2930659e-02 2.8974421e-02 3.4302210e-03 
4.1962013e-02 2.8413793e-02 -4.5781150e-03 
4.1990355e-02 2.8204883e-02 -1.2196325e-03 
4.2123001e-02 2.8396010e-02 -3.1821299e-03 
4.2995773e-02 2.8724318e-02 -3.6572812e-03 
4.2781617e-02 2.8900849e-02 2.7801611e-03 
4.2840876e-02 2.8649438e-02 -3.2202837e-03 
4.2665131e-02 2.8827269e-02 2.0672695e-03 
4.1921467e-02 2.8041180e-02 7.1390223e-04 
4.2484540e-02 2.8467499e-02 -2.4998828e-03 
4.2308632e-02 2.8392604e-02 -5.5955217e-04 
4.2370185e-02 2.8386975e-02 4.8347022e-03 
4.2531863e-02 2.8730731e-02 1.3351074e-03 
4.2680174e-02 2.8553888e-02 -2.8812168e-03 
4.1875765e-02 2.8171357e-02 -2.2752206e-03 
4.2392697e-02 2.8597873e-02 5.2355434e-04 
4.1673824e-02 2.8109455e-02 -6.0011810e-03 
4.2252131e-02 2.8452279e-02 -3.8725475e-04 
4.1996978e-02 2.8188638e-02 -1.6745183e-03 
4.1776963e-02 2.8043779e-02 -4.4536432e-03 
4.1676443e-02 2.7942829e-02 -3.5726640e-03 
4.2112317e-02 2.8194170e-02 -2.8323324e-03 
4.1208543e-02 2.7421400e-02 3.5379564e-03 
4.1088115e-02 2.7883016e-02 -7.3347483e-03 
4.1357197e-02 2.7552849e-02 4.3592039e-03 
4.0786970e-02 2.7696379e-02 -5.5621243e-03 
4.0714893e-02 2.7447119e-02 -2.0968795e-03 
4.0508140e-02 2.7430350e-02 -3.3025728e-03 
4.0784102e-02 2.7174355e-02 2.2319022e-03 
4.1200563e-02 2.7601354e-02 -6.7015402e-03 
4.1327100e-02 2.7815355e-02 -9.4661879e-04 
4.1825175e-02 2.7941810e-02 -3.5411147e-03 
4.1093711e-02 2.7698653e-02 9.0238987e-04 
4.1032523e-02 2.7437035e-02 -4.8927530e-03 
4.1279443e-02 2.7718440e-02 -1.7301047e-03 
4.0741373e-02 2.7410034e-02 -7.3823631e-03 
4.0686797e-02 2.7221357e-02 -5.6551034e-03 
4.0797412e-02 2.7336335e-02 -3.6916952e-03 
4.0582087e-02 2.7476722e-02 3.1579030e-03 
4.0109232e-02 2.6866918e-02 1.7235167e-03 
3.9344177e-02 2.6488803e-02 -8.8287704e-04 
3.9738793e-02 2.7050652e-02 -6.4106309e-03 
4.0677939e-02 2.7259506e-02 -2.8140256e-03 
4.0230472e-02 2.7029760e-02 1.5931259e-03 
4.0511090e-02 2.7100667e-02 -4.3366533e-03 
4.0368404e-02 2.7308686e-02 3.6126841e-03 
3.9816871e-02 2.6965443e-02 -4.7859498e-03 
3.9559092e-02 2.6765620e-02 -3.1140232e-03 
3.9403364e-02 2.6498936e-02 -5.1396113e-04 
3.9364640e-02 2.6781060e-02 -4.4150730e-03 
3.9827656e-02 2.7026089e-02 -7.5942739e-03 
4.0090036e-02 2.6796984e-02 4.6125459e-03 
3.9556980e-02 2.6561707e-02 2.6896084e-04 
4.0092617e-02 2.7022604e-02 4.5849821e-03 
4.0304158e-02 2.6992571e-02 -3.1793814e-03 
4.0007547e-02 2.7008219e-02 4.2351889e-03 
3.9838720e-02 2.6881278e-02 1.6943870e-05 
3.9456695e-02 2.6590062e-02 -3.8421296e-03 
3.9900877e-02 2.7020400e-02 1.0186115e-03 
3.9304569e-02 2.6220672e-02 3.9493414e-03 
3.9671149e-02 2.6916023e-02 2.5247803e-03 
3.9929267e-02 2.6798172e-02 -2.5646575e-03 
3.8723391e-02 2.5912467e-02 1.2150692e-03 
3.9397620e-02 2.6587551e-02 8.5646898e-04 
3.8924884e-02 2.5949413e-02 2.8619589e-03 
3.9562151e-02 2.6826350e-02 1.8395029e-03 
3.8500328e-02 2.6129108e-02 -3.9738254e-03 
3.8589310e-02 2.6291862e-02 -7.0317998e-03 
3.9330661e-02 2.6627809e-02 2.9882416e-04 
3.8316451e-02 2.6137283e-02 -5.3745639e-03 
3.8706549e-02 2.6166813e-02 -4.2712418e-03 
3.9139502e-02 2.6375942e-02 -1.4369244e-03 
3.8054846e-02 2.5876282e-02 -3.2446315e-03 
3.8916126e-02 2.6237877e-02 1.4669868e-03 
3.8995977e-02 2.6239246e-02 -2.0060458e-03 
3.8226455e-02 2.5873134e-02 -2.1057962e-03 
3.8532890e-02 2.5988743e-02 -1.4017528e-03 
3.8867414e-02 2.6097093e-02 4.5995354e-03 
3.8839739e-02 2.6162105e-02 -3.9534965e-03 
3.9218683e-02 2.6494833e-02 -6.0884480e-04 
3.8558461e-02 2.5934810e-02 1.6278406e-03 
3.8646955e-02 2.6131347e-02 -7.3933415e-03 
3.9077852e-02 2.6203940e-02 -3.1668076e-03 
3.8509741e-02 2.6058692e-02 1.5854902e-03 
3.7323542e-02 2.5518898e-02 -6.1961161e-03 
3.7775144e-02 2.5472905e-02 1.5686980e-03 
3.7390590e-02 2.5425071e-02 -4.6467185e-03 
3.7890773e-02 2.5502071e-02 -6.2578879e-03 
3.6967184e-02 2.5235001e-02 -4.2795837e-03 
3.6963243e-02 2.5004061e-02 -1.2420616e-03 
3.6777947e-02 2.4982288e-02 -2.2777165e-03 
3.7142824e-02 2.4953682e-02 1.0925867e-03 
3.7535340e-02 2.5336020e-02 -3.9942972e-03 
3.7810292e-02 2.5380809e-02 -4.4400506e-03 
3.7912909e-02 2.5523916e-02 -2.5296686e-03 
3.7964944e-02 2.5600150e-02 -1.5628482e-03 
3.7382636e-02 2.5077226e-02 4.4394615e-03 
3.7158977e-02 2.5306759e-02 -7.2434777e-03 
3.7808184e-02 2.5420921e-02 -3.1846850e-03 
3.6700591e-02 2.4657872e-02 6.5314170e-04 
3.6743000e-02 2.4599379e-02 2.0508829e-03 
3.7348744e-02 2.5237551e-02 4.3654642e-03 
3.6939379e-02 2.4683630e-02 3.2461346e-03 
3.7394788e-02 2.5400039e-02 3.3323946e-03 
3.7752364e-02 2.5403587e-02 -2.4286879e-03 
3.7096009e-02 2.5119692e-02 2.2157382e-03 
3.7025865e-02 2.5006825e-02 -1.8520468e-03 
3.6252249e-02 2.4781393e-02 -6.7571984e-03 
3.6142204e-02 2.4610749e-02 -3.9022728e-03 
3.5971612e-02 2.4633288e-02 -5.2198656e-03 
3.5730980e-02 2.4386628e-02 -3.1289482e-03 
3.6582116e-02 2.4897737e-02 1.0335587e-03 
3.5933506e-02 2.4245396e-02 7.9127570e-04 
3.6612194e-02 2.4849992e-02 -1.7200153e-04 
3.6023248e-02 2.4477860e-02 -7.0906994e-03 
3.6129106e-02 2.4367834e-02 4.4645127e-03 
3.5895899e-02 2.4231097e-02 1.7547571e-03 
3.6123514e-02 2.4487453e-02 -1.1276050e-04 
3.5186376e-02 2.3843981e-02 -9.2785689e-04 
3.6132395e-02 2.4528842e-02 8.2145300e-04 
3.5676464e-02 2.4273038e-02 -4.6843528e-03 
3.6550600e-02 2.4581941e-02 -2.8413958e-03 
3.6064923e-02 2.4582800e-02 2.2328505e-03 
3.5627961e-02 2.4124630e-02 8.6910895e-04 
3.4967702e-02 2.3740120e-02 -1.3873932e-03 
3.5031572e-02 2.4022974e-02 -5.9303450e-03 
3.4789458e-02 2.3861064e-02 -4.1628345e-03 
3.5094757e-02 2.3943298e-02 -4.4655842e-03 
3.5059329e-02 2.3776133e-02 -1.0542256e-03 
3.4885593e-02 2.3798125e-02 -2.9980494e-03 
3.5043973e-02 2.3787050e-02 -1.6187899e-03 
3.4891691e-02 2.3374893e-02 2.6159619e-03 
3.4579188e-02 2.3252437e-02 1.3292788e-03 
3.5030276e-02 2.3495501e-02 3.6249878e-03 
3.5110578e-02 2.3821224e-02 -3.9276998e-03 
3.4180496e-02 2.3195265e-02 -8.2947133e-04 
3.5443850e-02 2.3949670e-02 -2.1898965e-03 
3.4849532e-02 2.3443207e-02 4.2052004e-03 
3.4648236e-02 2.3719307e-02 -6.9154711e-03 
3.5335679e-02 2.3941230e-02 -1.3744897e-03 
3.4884203e-02 2.3596141e-02 -6.2384275e-03 
3.4593955e-02 2.3441739e-02 1.7084244e-03 
3.4682512e-02 2.3499271e-02 4.2760181e-03 
3.3923380e-02 2.2963716e-02 -5.3285607e-06 
3.4024220e-02 2.3367051e-02 -6.4738649e-03 
3.3918835e-02 2.3205012e-02 -3.7406308e-03 
3.3759695e-02 2.3223469e-02 -5.0057075e-03 
3.3511076e-02 2.2966806e-02 -3.0821038e-03 
3.4471817e-02 2.3337146e-02 -2.2408257e-03 
3.3635180e-02 2.2746300e-02 1.2199918e-03 
3.4230795e-02 2.3356093e-02 8.9198520e-06 
3.3576854e-02 2.2931447e-02 -6.7554615e-03 
3.3676021e-02 2.2762679e-02 4.2964695e-03 
3.3621680e-02 2.2819664e-02 -3.1368884e-03 
3.3345945e-02 2.2565598e-02 1.7150159e-03 
3.4149848e-02 2.3077386e-02 -2.5347911e-03 
3.3349451e-02 2.2422707e-02 3.6794755e-03 
3.3626772e-02 2.2744920e-02 -4.6987827e-03 
3.2836124e-02 2.2118019e-02 1.8355775e-03 
3.2874830e-02 2.2674456e-02 -5.7244124e-03 
3.3033077e-02 2.2188846e-02 2.9387118e-03 
3.2944072e-02 2.2579640e-02 -4.3485533e-03 
3.2609228e-02 2.2448644e-02 -4.0212930e-03 
3.3478037e-02 2.2738330e-02 -2.1832522e-03 
3.2912098e-02 2.2437269e-02 -1.5019901e-03 
3.3297222e-02 2.2638431e-02 1.6216981e-03 
3.3388786e-02 2.2760341e-02 3.8812896e-03 
3.3532824e-02 2.2698130e-02 -2.8968437e-03 
3.2414299e-02 2.1928826e-02 5.2661548e-04 
3.2398690e-02 2.2076873e-02 -1.1477978e-03 
3.2133225e-02 2.2011340e-02 -2.1302083e-03 
3.2652680e-02 2.2312297e-02 -3.9066458e-03 
3.2843590e-02 2.2376658e-02 5.6495203e-04 
3.2918956e-02 2.2566516e-02 2.8699364e-03 
3.2715939e-02 2.2276023e-02 -6.1101713e-03 
3.3137493e-02 2.2486240e-02 -1.9820505e-03 
3.3024997e-02 2.2477245e-02 -1.1327494e-03 
3.2495063e-02 2.1932034e-02 3.9709904e-03 
3.2283682e-02 2.2220295e-02 -6.6241031e-03 
3.2407634e-02 2.2106288e-02 -3.7639455e-03 
3.2301027e-02 2.1916205e-02 1.7554002e-03 
3.2524526e-02 2.2105055e-02 4.1400502e-03 
3.1933807e-02 2.2054208e-02 -6.2138131e-03 
3.1823076e-02 2.1860080e-02 -3.6373904e-03 
3.1672217e-02 2.1890746e-02 -4.8431819e-03 
3.1546678e-02 2.1599352e-02 -1.9485930e-03 
3.1228153e-02 2.1505553e-02 -2.8405571e-03 
3.2422010e-02 2.2012440e-02 -2.0603775e-03 
3.1343382e-02 2.1252636e-02 1.1968338e-03 
3.1277299e-02 2.1330548e-02 -5.5744080e-04 
3.1057650e-02 2.1002637e-02 1.2647531e-03 
3.1168927e-02 2.1013599e-02 2.3468405e-03 
3.0740453e-02 2.0998070e-02 -7.7972101e-04 
3.1305764e-02 2.1111874e-02 3.3393379e-03 
3.1293176e-02 2.1475671e-02 -6.4396737e-03 
3.1397041e-02 2.1282561e-02 4.1253348e-03 
3.1749163e-02 2.1732695e-02 3.8225604e-05 
3.0820820e-02 2.1358170e-02 -5.4985289e-03 
3.1892810e-02 2.1644197e-02 -2.2469733e-03 
3.0569963e-02 2.1152737e-02 -3.8691189e-03 
3.0692177e-02 2.1111796e-02 -2.8337426e-03 
3.0882433e-02 2.1262532e-02 -4.4833040e-03 
3.1160820e-02 2.1287816e-02 -1.1893911e-03 
3.1332228e-02 2.1433612e-02 1.4497682e-04 
3.1103928e-02 2.1188365e-02 1.7845203e-03 
3.0795248e-02 2.1080395e-02 -1.5108051e-03 
3.0372679e-02 2.0695323e-02 1.8643218e-06 
3.1008314e-02 2.1197809e-02 2.2438914e-03 
3.0920681e-02 2.1277549e-02 1.4301916e-03 
2.9612465e-02 2.0284845e-02 -7.9525565e-04 
3.0939490e-02 2.1072304e-02 -1.7915025e-03 
3.0832713e-02 2.1070192e-02 -9.1220706e-04 
2.9952057e-02 2.0783143e-02 -5.9828791e-03 
2.9690528e-02 2.0632157e-02 -4.6449471e-03 
2.9879885e-02 2.0641552e-02 -3.9325450e-03 
3.0265385e-02 2.0477923e-02 3.8511746e-03 
3.0057089e-02 2.0806899e-02 -6.3049351e-03 
3.0293545e-02 2.0691462e-02 -5.6939446e-03 
3.0281283e-02 2.0665767e-02 3.9961683e-03 
3.0092198e-02 2.0501286e-02 1.7568216e-03 
2.9233124e-02 2.0240670e-02 -2.7943538e-03 
2.9312544e-02 1.9877501e-02 1.5922622e-03 
2.9495178e-02 1.9954612e-02 2.7057079e-03 
2.9607372e-02 2.0011654e-02 3.4056762e-03 
2.9746307e-02 2.0399366e-02 -3.8976136e-03 
3.0049039e-02 2.0488171e-02 -1.9605260e-03 
2.9978881e-02 2.0605454e-02 1.5289875e-04 
2.8739993e-02 1.9731078e-02 -7.7239191e-04 
2.9548442e-02 2.0256231e-02 -2.1437496e-04 
2.8897215e-02 2.0141620e-02 -5.2910419e-03 
2.9126072e-02 2.0090008e-02 -3.5132100e-03 
2.8651202e-02 1.9947631e-02 -3.7803068e-03 
2.9141635e-02 1.9865699e-02 1.6281493e-03 
2.8784566e-02 1.9914914e-02 -2.8188038e-03 
2.9472813e-02 2.0187337e-02 -1.3086933e-03 
2.8893093e-02 1.9847672e-02 -1.2800932e-03 
2.9754447e-02 2.0285232e-02 -1.9957391e-03 
2.9170549e-02 2.0107849e-02 -6.1633238e-03 
2.9214999e-02 1.9893957e-02 3.9723790e-03 
2.8565260e-02 1.9535800e-02 1.9599321e-04 
2.8898522e-02 1.9855250e-02 -1.2384625e-03 
2.8407827e-02 1.9606624e-02 -1.7283348e-03 
2.9118476e-02 2.0040751e-02 3.5994258e-03 
2.8761769e-02 1.9845396e-02 -3.8849881e-03 
2.9184580e-02 1.9909214e-02 -2.5861489e-03 
2.8918263e-02 2.0022629e-02 2.5479582e-03 
2.8292909e-02 1.9330956e-02 6.6406734e-04 
2.7717501e-02 1.9212520e-02 -2.0378814e-03 
2.8129403e-02 1.9623417e-02 -5.7841386e-03 
2.7836151e-02 1.9465322e-02 -4.5110453e-03 
2.7973970e-02 1.9424710e-02 -3.4367519e-03 
2.7645718e-02 1.9233037e-02 -2.8217961e-03 
2.8837720e-02 1.9745857e-02 -1.6118755e-03 
2.8734881e-02 1.9749213e-02 -7.0577953e-04 
2.8444167e-02 1.9483114e-02 3.9531253e-03 
2.7559053e-02 1.8828843e-02 6.6528714e-04 
2.7777381e-02 1.8857095e-02 2.0888674e-03 
2.8123884e-02 1.9133238e-02 3.6361553e-03 
2.7968163e-02 1.9452330e-02 -6.0528531e-03 
2.7915856e-02 1.8949157e-02 2.9442483e-03 
2.8071130e-02 1.9258564e-02 1.7671547e-03 
2.8173333e-02 1.9376978e-02 -5.5223666e-03 
2.7364859e-02 1.8914649e-02 -1.3338571e-03 
2.8244551e-02 1.9305771e-02 -4.1693868e-03 
2.8172180e-02 1.9302128e-02 -1.8024680e-03 
2.7433025e-02 1.9066578e-02 -4.1089505e-03 
2.7935101e-02 1.9246390e-02 -3.5980690e-04 
2.7070945e-02 1.8970748e-02 -5.1110382e-03 
2.7447468e-02 1.8938839e-02 -3.0691451e-03 
2.6823873e-02 1.8770047e-02 -3.6599925e-03 
2.7769765e-02 1.9225653e-02 5.1150989e-04 
2.6861576e-02 1.8448429e-02 1.4290065e-04 
2.6537079e-02 1.8474456e-02 -2.1566520e-03 
2.6662346e-02 1.8506801e-02 -1.9225109e-03 
2.7716076e-02 1.8998602e-02 -1.7550746e-03 
2.7070103e-02 1.8777015e-02 -5.9217201e-03 
2.7200473e-02 1.8737650e-02 -2.6514397e-03 
2.7185047e-02 1.8614911e-02 3.8252170e-03 
2.6971666e-02 1.8523972e-02 1.6440272e-03 
2.6748637e-02 1.8341355e-02 1.0118776e-03 
2.7016336e-02 1.8636305e-02 1.5366098e-03 
2.6096139e-02 1.8246522e-02 -2.7291912e-03 
2.6337104e-02 1.8482737e-02 -5.5571883e-03 
2.6393095e-02 1.8279230e-02 -1.8073467e-03 
2.5967583e-02 1.8015971e-02 -1.2587190e-03 
2.6118424e-02 1.7844213e-02 1.3486416e-03 
2.6050767e-02 1.8309947e-02 -4.3757707e-03 
2.6865104e-02 1.8714162e-02 1.6176661e-03 
2.6274271e-02 1.7908536e-02 2.4281766e-03 
2.6399216e-02 1.8339520e-02 -3.8932650e-03 
2.6379565e-02 1.7995689e-02 3.0891707e-03 
2.6853954e-02 1.8478472e-02 -1.4500887e-03 
2.6562762e-02 1.8362472e-02 -6.3898001e-04 
2.5572656e-02 1.7719500e-02 -7.6019677e-04 
2.6753064e-02 1.8488698e-02 -5.2419398e-04 
2.6186479e-02 1.8110080e-02 -7.5632328e-04 
2.6149100e-02 1.7865416e-02 3.4786412e-03 
2.5994124e-02 1.8220693e-02 -5.7848580e-03 
2.6202161e-02 1.8106014e-02 -5.2609839e-03 
2.6230836e-02 1.8079001e-02 3.8509648e-03 
2.5621796e-02 1.7909022e-02 -3.9927927e-03 
2.5340615e-02 1.7864216e-02 -4.9420735e-03 
2.4996907e-02 1.7485131e-02 -2.0544976e-03 
2.6033754e-02 1.8122094e-02 4.8271223e-04 
2.6059128e-02 1.7973188e-02 -1.7050272e-03 
2.5252903e-02 1.7669084e-02 -3.0009700e-03 
2.5216822e-02 1.7372331e-02 6.2741764e-04 
2.5070416e-02 1.7339678e-02 -1.1682951e-04 
2.5279976e-02 1.7440770e-02 7.6194014e-04 
2.5802115e-02 1.7779758e-02 -1.5315763e-03 
2.4595141e-02 1.7309079e-02 -2.9811168e-03 
2.4969390e-02 1.7382164e-02 -1.5875263e-03 
2.5167612e-02 1.7580012e-02 -5.6271316e-03 
2.5275875e-02 1.7350394e-02 3.6937124e-03 
2.5051182e-02 1.7279141e-02 1.5920763e-03 
2.4720700e-02 1.6916880e-02 1.8529347e-03 
2.5106668e-02 1.7360736e-02 1.7651792e-03 
2.4877612e-02 1.7012812e-02 2.6558228e-03 
2.5237670e-02 1.7421287e-02 -3.9572311e-03 
2.5221448e-02 1.7565984e-02 3.5771639e-03 
2.5319494e-02 1.7640011e-02 2.4112116e-04 
2.5276769e-02 1.7433709e-02 -2.3812675e-03 
2.4626721e-02 1.7379327e-02 -5.3481795e-03 
2.4561593e-02 1.7247265e-02 -3.5802459e-03 
2.5137650e-02 1.7567027e-02 2.6704483e-03 
2.4322515e-02 1.6748080e-02 7.4681436e-04 
2.4236210e-02 1.6885646e-02 -1.0081526e-03 
2.4287380e-02 1.7171349e-02 -4.1429102e-03 
2.3977250e-02 1.6776057e-02 -1.5215498e-03 
2.4655303e-02 1.7107066e-02 -5.8982865e-04 
2.4742080e-02 1.7171020e-02 2.3796379e-03 
2.4999274e-02 1.7302943e-02 -1.2834177e-03 
2.4899296e-02 1.7318791e-02 -3.4405341e-04 
2.3997042e-02 1.6662957e-02 -2.2226013e-04 
2.3856016e-02 1.6750285e-02 -2.1278819e-03 
2.4513526e-02 1.7004447e-02 -2.7844079e-03 
2.4543889e-02 1.7054737e-02 3.8383008e-04 
2.4553770e-02 1.7064942e-02 -5.1767011e-03 
2.4579007e-02 1.6989088e-02 3.7229373e-03 
2.3913272e-02 1.6791873e-02 -2.5874523e-03 
2.4305766e-02 1.6678404e-02 3.3400501e-03 
2.4119833e-02 1.7020114e-02 -5.5479361e-03 
2.4239574e-02 1.6916264e-02 -3.3160683e-03 
2.3412300e-02 1.6486004e-02 -2.1377984e-03 
2.3680352e-02 1.6792744e-02 -4.7774576e-03 
2.3796376e-02 1.6460916e-02 9.4798126e-04 
2.4432018e-02 1.6911365e-02 -1.5198877e-03 
2.3739034e-02 1.6660342e-02 -3.1590133e-03 
2.3776928e-02 1.6551252e-02 -3.2253755e-04 
2.3226056e-02 1.6470058e-02 -3.4848091e-03 
2.4050672e-02 1.6864309e-02 7.6777325e-04 
2.3265976e-02 1.6020741e-02 1.2913009e-03 
2.3055667e-02 1.6097045e-02 -7.0045440e-04 
2.3372224e-02 1.6055781e-02 2.1789272e-03 
2.3502788e-02 1.6125413e-02 2.8375867e-03 
2.3998410e-02 1.6644359e-02 -1.3220558e-03 
2.3772066e-02 1.6556291e-02 -1.1108750e-03 
2.3280164e-02 1.6121024e-02 1.4527653e-03 
2.3365663e-02 1.6417835e-02 -5.3987950e-03 
2.3460336e-02 1.6197836e-02 3.5581638e-03 
2.2679534e-02 1.6075829e-02 -2.7432884e-03 
2.3030216e-02 1.6361399e-02 -5.1723877e-03 
2.2730077e-02 1.5927013e-02 -1.0043348e-03 
2.2784049e-02 1.6211763e-02 -4.0788669e-03 
2.2937035e-02 1.6205598e-02 -3.4925016e-03 
2.2868048e-02 1.5990229e-02 -7.6896965e-04 
2.2653377e-02 1.5981104e-02 -2.1641555e-03 
2.3244768e-02 1.6367953e-02 1.7790711e-03 
2.3244180e-02 1.6178234e-02 -1.1497961e-03 
2.2543134e-02 1.5831700e-02 -1.6223310e-03 
2.3149578e-02 1.6197594e-02 -1.9308135e-04 
2.2406951e-02 1.5580525e-02 5.5653113e-04 
2.2025291e-02 1.5442188e-02 -7.4906030e-04 
2.2381997e-02 1.5883669e-02 -5.3248932e-03 
2.2542777e-02 1.5549513e-02 3.1488151e-03 
2.2142101e-02 1.5801560e-02 -4.6114996e-03 
2.1829719e-02 1.5459434e-02 -2.0235218e-03 
2.2279434e-02 1.5766826e-02 -3.7741505e-03 
2.2076800e-02 1.5647205e-02 -2.9528665e-03 
2.1904966e-02 1.5618203e-02 -3.3241857e-03 
2.2601770e-02 1.5811210e-02 -4.8255702e-03 
2.2615442e-02 1.5751645e-02 3.6129928e-03 
2.2390001e-02 1.5583838e-02 1.6519802e-03 
2.1963559e-02 1.5165771e-02 1.6164033e-03 
2.2120818e-02 1.5244438e-02 2.4184990e-03 
2.2513896e-02 1.5860632e-02 7.2247471e-04 
2.2551132e-02 1.5700219e-02 -1.4925463e-03 
2.1858124e-02 1.5446240e-02 -3.6056230e-03 
2.2309510e-02 1.5560951e-02 -1.1326928e-03 
2.1985795e-02 1.5480169e-02 1.3397118e-03 
2.1512803e-02 1.5376452e-02 -4.9842414e-03 
2.1260666e-02 1.5236833e-02 -3.9388202e-03 
2.1182057e-02 1.4928057e-02 -1.0654980e-03 
2.1071641e-02 1.5025934e-02 -2.5469819e-03 
2.1203129e-02 1.5033343e-02 -1.9367996e-03 
2.1685140e-02 1.5341866e-02 -5.1861666e-03 
2.1760538e-02 1.5107742e-02 3.3837848e-03 
2.1870956e-02 1.5380165e-02 2.2632361e-04 
2.1903912e-02 1.5427610e-02 1.7235111e-04 
2.1882767e-02 1.5242213e-02 -2.1764436e-03 
2.1604346e-02 1.5148963e-02 1.3724471e-03 
2.1699721e-02 1.5264972e-02 3.4648054e-03 
2.1645879e-02 1.5199126e-02 1.6452913e-04 
2.1736540e-02 1.5401090e-02 2.6588191e-03 
2.1505648e-02 1.5091298e-02 -2.5438238e-03 
2.1139121e-02 1.4750064e-02 8.7427674e-04 
2.1607801e-02 1.5125271e-02 -1.0168116e-03 
2.1514969e-02 1.5150479e-02 -5.1347895e-05 
2.0884709e-02 1.4744884e-02 -1.1997598e-03 
2.1148827e-02 1.4911022e-02 -2.9414308e-03 
2.0614546e-02 1.4350305e-02 9.1265456e-04 
2.0671071e-02 1.4860678e-02 -4.4489363e-03 
2.0751165e-02 1.4382506e-02 1.9451961e-03 
2.0464223e-02 1.4691711e-02 -3.2435167e-03 
2.1143261e-02 1.4775022e-02 3.4913241e-03 
2.0863600e-02 1.4458620e-02 2.5988929e-03 
2.0735778e-02 1.4784742e-02 -3.6639781e-03 
2.0297185e-02 1.4450887e-02 -1.7517315e-03 
2.0753441e-02 1.4838877e-02 -5.0979448e-03 
2.0886157e-02 1.4504073e-02 3.0285977e-03 
2.0982215e-02 1.4776218e-02 -4.6024541e-03 
2.1056436e-02 1.4726101e-02 -3.5719385e-03 
2.0763861e-02 1.4541177e-02 1.6218500e-03 
2.1104949e-02 1.4772197e-02 -1.3131580e-03 
2.0524768e-02 1.4516236e-02 -1.8396733e-03 
2.0766888e-02 1.4750555e-02 9.7123772e-04 
2.0560898e-02 1.4484257e-02 2.1708298e-03 
1.9909777e-02 1.4091510e-02 -7.7391579e-04 
2.0281728e-02 1.4442144e-02 -3.9316984e-03 
2.0718396e-02 1.4548292e-02 -9.6391392e-04 
2.0091394e-02 1.4456985e-02 -4.7691953e-03 
2.0176673e-02 1.4140076e-02 1.2813353e-03 
1.9876918e-02 1.4343257e-02 -3.8317768e-03 
1.9964524e-02 1.4297451e-02 -3.0334608e-03 
1.9683404e-02 1.4135105e-02 -2.4916704e-03 
1.9821141e-02 1.4141589e-02 -1.9239163e-03 
1.9871844e-02 1.3956655e-02 5.0042680e-04 
2.0081975e-02 1.4302065e-02 -4.9377554e-03 
2.0157188e-02 1.4083597e-02 3.2621829e-03 
1.9757710e-02 1.4031757e-02 -1.5000422e-03 
2.0054549e-02 1.4151412e-02 -9.9161093e-04 
2.0050133e-02 1.4318567e-02 1.9246301e-03 
1.9454816e-02 1.3582993e-02 1.4082341e-03 
1.9595489e-02 1.3646690e-02 2.1796403e-03 
2.0057134e-02 1.4128854e-02 -9.1180392e-04 
1.9418776e-02 1.3779161e-02 -7.7944784e-04 
1.9966057e-02 1.4157899e-02 7.4337237e-05 
1.9311050e-02 1.3965885e-02 -4.3058870e-03 
1.9102046e-02 1.3810635e-02 -3.1663696e-03 
1.9589460e-02 1.3842302e-02 4.0989969e-04 
1.9697318e-02 1.4003905e-02 2.0238948e-03 
1.8918613e-02 1.3573131e-02 -1.7333777e-03 
1.8900750e-02 1.3444538e-02 -7.3898368e-04 
1.9214442e-02 1.3847691e-02 -4.8812581e-03 
1.9314243e-02 1.3493942e-02 2.8512720e-03 
1.9423382e-02 1.3767296e-02 -4.4165268e-03 
1.9414557e-02 1.3668462e-02 3.3983511e-03 
1.9490771e-02 1.3786863e-02 -7.4888580e-04 
1.9210408e-02 1.3529144e-02 1.5995164e-03 
1.9398356e-02 1.3866897e-02 9.3593833e-04 
1.9445380e-02 1.3713539e-02 -1.3056796e-03 
1.9179529e-02 1.3610651e-02 -4.9921242e-04 
1.8565206e-02 1.3230442e-02 -7.1451778e-04 
1.8619571e-02 1.3396189e-02 -2.3002799e-03 
1.8667612e-02 1.3203614e-02 2.4023230e-04 
1.8765237e-02 1.3599844e-02 -4.6141469e-03 
1.8734088e-02 1.3208481e-02 8.1796857e-04 
1.8545659e-02 1.3463253e-02 -3.7154797e-03 
1.8674131e-02 1.3456471e-02 -3.2067907e-03 
1.9214101e-02 1.3576349e-02 -8.0782984e-04 
1.8540317e-02 1.3343023e-02 -3.4728865e-03 
1.8132133e-02 1.3111217e-02 -2.3154158e-03 
1.8860741e-02 1.3434605e-02 1.3946874e-04 
1.8244153e-02 1.2832317e-02 9.3098334e-04 
1.8383222e-02 1.2867388e-02 1.7040599e-03 
1.8626655e-02 1.3357092e-02 -4.7554057e-03 
1.8490380e-02 1.2942459e-02 2.3494449e-03 
1.8665994e-02 1.3106230e-02 3.1202314e-03 
1.8852346e-02 1.3301047e-02 -1.9771680e-03 
1.8065037e-02 1.3129648e-02 -2.9544432e-03 
1.8684577e-02 1.3431474e-02 2.7103361e-03 
1.8560307e-02 1.3175381e-02 1.3637908e-03 
1.8665981e-02 1.3301958e-02 3.2992742e-03 
1.8013667e-02 1.3126286e-02 -4.1484740e-03 
1.7716324e-02 1.2767942e-02 -1.4978534e-03 
1.8595058e-02 1.3181156e-02 -8.0291921e-04 
1.8496631e-02 1.3220571e-02 2.0443463e-04 
1.7768392e-02 1.2801050e-02 -1.6993831e-03 
1.7960744e-02 1.2924381e-02 -3.7256677e-03 
1.7609650e-02 1.2532992e-02 -2.1734599e-05 
1.7998753e-02 1.2877278e-02 -2.1135197e-03 
1.8138502e-02 1.2811878e-02 3.2786448e-03 
1.7828381e-02 1.2789444e-02 -1.9480851e-03 
1.7781185e-02 1.2923221e-02 -4.6692323e-03 
1.7906683e-02 1.2577249e-02 2.7273393e-03 
1.7593328e-02 1.2485654e-02 4.6150829e-04 
1.8139752e-02 1.2864589e-02 -1.1224041e-03 
1.7988751e-02 1.2842791e-02 -4.2239828e-03 
1.7784571e-02 1.2608429e-02 1.5885700e-03 
1.7504409e-02 1.2544767e-02 -9.1908179e-04 
1.7986197e-02 1.2752900e-02 -3.3108448e-03 
1.7307602e-02 1.2281673e-02 3.4510426e-04 
1.7486181e-02 1.2771050e-02 -4.4451519e-03 
1.7858034e-02 1.2733852e-02 -7.4053695e-04 
1.7830787e-02 1.2858556e-02 1.1428278e-03 
1.7173899e-02 1.2576624e-02 -3.4372825e-03 
1.7708244e-02 1.2656669e-02 -6.6693121e-04 
1.7226992e-02 1.2148926e-02 1.2093128e-03 
1.7783711e-02 1.2665048e-02 -6.5723999e-04 
1.7666325e-02 1.2634225e-02 1.2862976e-04 
1.7341387e-02 1.2189915e-02 1.9440855e-03 
1.6938252e-02 1.2359501e-02 -2.5451335e-03 
1.7324774e-02 1.2248918e-02 1.6788309e-03 
1.7059390e-02 1.2407142e-02 -2.7301698e-03 
1.6798958e-02 1.2207253e-02 -1.7650620e-03 
1.7108276e-02 1.2419145e-02 -3.3386298e-03 
1.7224956e-02 1.2449001e-02 -4.5324257e-03 
1.7257759e-02 1.2204236e-02 3.0072983e-03 
1.6968884e-02 1.2171970e-02 -2.6316359e-04 
1.6794998e-02 1.2330514e-02 -4.0168189e-03 
1.6617905e-02 1.2024941e-02 -1.3114521e-03 
1.7211739e-02 1.2499085e-02 1.9861758e-03 
1.6927840e-02 1.2133842e-02 2.0489660e-04 
1.7205916e-02 1.2295049e-02 -6.9170108e-04 
1.7120631e-02 1.2332411e-02 3.0407595e-04 
1.6910281e-02 1.2124894e-02 1.4084122e-03 
1.6553031e-02 1.1799027e-02 7.3996157e-04 
1.6162729e-02 1.1665314e-02 -7.2409643e-04 
1.6412590e-02 1.1879673e-02 -1.3885037e-03 
1.6511526e-02 1.1948173e-02 -2.6037924e-03 
1.6429504e-02 1.2033596e-02 -4.4376315e-03 
1.6517637e-02 1.1687505e-02 2.5674386e-03 
1.6306479e-02 1.1986109e-02 -4.2269365e-03 
1.6617354e-02 1.1938553e-02 -4.0702205e-03 
1.6600231e-02 1.1840831e-02 3.1957417e-03 
1.6107515e-02 1.1468891e-02 6.5727381e-04 
1.6110718e-02 1.1875969e-02 -3.4930152e-03 
1.6241301e-02 1.1868567e-02 -3.1126621e-03 
1.6244872e-02 1.1495681e-02 1.5062516e-03 
1.6401852e-02 1.1702226e-02 1.5258475e-03 
1.5921745e-02 1.1662673e-02 -2.0610958e-03 
1.6622730e-02 1.2079838e-02 1.0981880e-03 
1.5993731e-02 1.1777234e-02 -2.8777460e-03 
1.6335452e-02 1.1547019e-02 2.1179006e-03 
1.6666647e-02 1.1924163e-02 -1.1169248e-03 
1.6459426e-02 1.1812874e-02 -5.1977386e-04 
1.5751733e-02 1.1531908e-02 -2.2837173e-03 
1.6222354e-02 1.1685158e-02 -8.7468489e-04 
1.5672244e-02 1.1433604e-02 -1.5863283e-03 
1.5753830e-02 1.1323835e-02 9.9529403e-05 
1.5576650e-02 1.1270432e-02 -5.8470183e-04 
1.6013324e-02 1.1511916e-02 1.1084062e-03 
1.6203282e-02 1.1709039e-02 9.8815886e-05 
1.5830075e-02 1.1329759e-02 8.8173029e-04 
1.6174765e-02 1.1552424e-02 -1.7837366e-03 
1.6022207e-02 1.1607859e-02 1.8773390e-03 
1.5636491e-02 1.1559052e-02 -3.8707710e-03 
1.5903078e-02 1.1596559e-02 -4.3277927e-03 
1.5935533e-02 1.1340722e-02 2.8573084e-03 
1.5987813e-02 1.1677028e-02 2.7088157e-03 
1.5839484e-02 1.1466412e-02 -2.4840459e-03 
1.5932424e-02 1.1502419e-02 3.1483467e-03 
1.5861977e-02 1.1434465e-02 -2.4903456e-03 
1.5920846e-02 1.1457502e-02 -6.0339132e-04 
1.5829101e-02 1.1505552e-02 4.0526502e-04 
1.5110377e-02 1.1205928e-02 -3.1387925e-03 
1.5195122e-02 1.0835388e-02 1.0371424e-03 
1.5063795e-02 1.0835825e-02 2.2644905e-04 
1.5299488e-02 1.0883579e-02 1.7312325e-03 
1.4975117e-02 1.1084699e-02 -2.4781337e-03 
1.5283403e-02 1.1120684e-02 -1.3315808e-03 
1.5184187e-02 1.1248391e-02 -4.1434546e-03 
1.4850169e-02 1.0937786e-02 -1.7574587e-03 
1.5468068e-02 1.1079772e-02 3.0675395e-03 
1.5521687e-02 1.1170344e-02 -9.5481862e-04 
1.5194836e-02 1.1200594e-02 -4.2797783e-03 
1.5270494e-02 1.0846151e-02 2.4302942e-03 
1.5055095e-02 1.1087411e-02 -2.9429055e-03 
1.5375464e-02 1.1185828e-02 4.8394818e-04 
1.5370683e-02 1.1134550e-02 -3.8794226e-03 
1.5170943e-02 1.0886880e-02 1.4856966e-03 
1.5352966e-02 1.1038879e-02 -3.0480227e-03 
1.4768563e-02 1.0692951e-02 -1.5122701e-04 
1.5255975e-02 1.1196069e-02 1.2907634e-03 
1.4662857e-02 1.0755146e-02 -1.3139674e-03 
1.5210313e-02 1.1004082e-02 -3.8874400e-04 
1.4737418e-02 1.0733930e-02 -7.4019365e-04 
1.4743424e-02 1.0859886e-02 -3.0129342e-03 
1.4539236e-02 1.0739123e-02 -2.2341828e-03 
1.4886979e-02 1.0802270e-02 7.6688640e-04 
1.4676520e-02 1.0785431e-02 -4.1636643e-03 
1.4726114e-02 1.0527915e-02 2.7337207e-03 
1.4419659e-02 1.0753251e-02 -3.8387538e-03 
1.4272183e-02 1.0660665e-02 -3.3478849e-03 
1.4713074e-02 1.0876927e-02 2.0405701e-03 
1.4683236e-02 1.0777221e-02 9.8924164e-04 
1.4723470e-02 1.0712666e-02 -8.9208850e-05 
1.4191652e-02 1.0233983e-02 5.0803425e-04 
1.4126342e-02 1.0547491e-02 -2.7779087e-03 
1.4306348e-02 1.0241351e-02 1.3169120e-03 
1.4708898e-02 1.0662760e-02 -5.0474261e-04 
1.4426794e-02 1.0299073e-02 1.9278065e-03 
1.4557457e-02 1.0517967e-02 1.8003314e-03 
1.4622548e-02 1.0702248e-02 4.9449992e-04 
1.4418608e-02 1.0470080e-02 6.1516303e-06 
1.3979600e-02 1.0391836e-02 -2.0190352e-03 
1.4458673e-02 1.0471081e-02 -1.4934471e-03 
1.3772867e-02 1.0100812e-02 -6.9952308e-04 
1.4161470e-02 1.0389796e-02 -1.8503777e-03 
1.4288341e-02 1.0400982e-02 -1.0567789e-03 
1.3981249e-02 1.0114898e-02 6.9244148e-04 
1.3953664e-02 1.0363998e-02 -2.8730801e-03 
1.3960634e-02 1.0418170e-02 -3.9872937e-03 
1.4010210e-02 1.0411874e-02 -4.1303071e-03 
1.4080276e-02 1.0085809e-02 2.3233350e-03 
1.4191439e-02 1.0482702e-02 1.2027643e-03 
1.4267997e-02 1.0330373e-02 -9.5142372e-04 
1.4150356e-02 1.0343878e-02 -3.7271481e-03 
1.4166339e-02 1.0238025e-02 2.9442520e-03 
1.3985191e-02 1.0111513e-02 1.4534878e-03 
1.3701233e-02 1.0195199e-02 -2.4459350e-03 
1.3598991e-02 1.0105184e-02 -1.9632764e-03 
1.4048420e-02 1.0245827e-02 -2.7175111e-04 
1.3959312e-02 1.0213851e-02 1.7973873e-03 
1.3465046e-02 9.9477340e-03 -1.1917526e-03 
1.3623582e-02 1.0041095e-02 -1.4552722e-03 
1.3353419e-02 9.8345624e-03 -8.1487914e-04 
1.3889003e-02 1.0175750e-02 3.6714840e-04 
1.3467892e-02 1.0127345e-02 -3.5071054e-03 
1.3551462e-02 1.0068641e-02 -2.9887445e-03 
1.3325195e-02 1.0026642e-02 -3.0142183e-03 
1.3386607e-02 9.6576689e-03 8.7758637e-04 
1.3201419e-02 9.9148285e-03 -2.4158328e-03 
1.3802019e-02 1.0002993e-02 -1.6458795e-03 
1.3495998e-02 9.6883522e-03 1.6879044e-03 
1.3245915e-02 9.6737733e-03 -5.7039702e-05 
1.3585503e-02 9.9473018e-03 1.4839112e-04 
1.3086099e-02 9.7789885e-03 -1.7465556e-03 
1.3687667e-02 1.0158735e-02 2.6749561e-03 
1.3522152e-02 1.0010450e-02 -4.0035769e-03 
1.3576416e-02 9.7826729e-03 2.6005912e-03 
1.3078976e-02 9.5331213e-03 1.2496309e-04 
1.3573946e-02 9.9347178e-03 2.9850821e-03 
1.3457498e-02 9.7900210e-03 1.6547187e-03 
1.3579837e-02 9.9279229e-03 -4.2151185e-04 
1.3499914e-02 9.9778287e-03 5.7397631e-04 
1.3499374e-02 9.9528069e-03 6.8523153e-04 
1.3253395e-02 9.7026909e-03 2.2339737e-03 
1.2675908e-02 9.4344094e-03 -1.1829452e-03 
1.2812331e-02 9.5965927e-03 -2.1931133e-03 
1.2702687e-02 9.4238399e-03 -9.7236224e-04 
1.2882813e-02 9.6434904e-03 -2.5401954e-03 
1.3234181e-02 9.6783414e-03 -8.0851681e-04 
1.2951475e-02 9.4212089e-03 9.2509569e-04 
1.2824815e-02 9.4896136e-03 -9.1152365e-04 
1.3170207e-02 9.5686018e-03 2.8083222e-03 
1.2946242e-02 9.5092691e-03 1.1097191e-04 
1.2888134e-02 9.6701495e-03 -3.9332742e-03 
1.2986261e-02 9.3652783e-03 2.1917643e-03 
1.3068414e-02 9.6139386e-03 -3.5711699e-03 
1.2814678e-02 9.5352111e-03 -2.4337131e-03 
1.3094522e-02 9.5875273e-03 -9.9441409e-04 
1.2898331e-02 9.5407451e-03 -2.4224538e-03 
1.2697961e-02 9.5984731e-03 -3.6223838e-03 
1.3076539e-02 9.5369378e-03 -2.8099057e-03 
1.3002089e-02 9.7083114e-03 1.3727940e-03 
1.2561663e-02 9.5222918e-03 -3.1990046e-03 
1.2520766e-02 9.3414625e-03 -1.3681672e-03 
1.2964236e-02 9.5350062e-03 -1.6351974e-04 
1.2432733e-02 9.4221020e-03 -2.6853285e-03 
1.2476371e-02 9.0963636e-03 5.0774083e-04 
1.2582332e-02 9.1149621e-03 1.1490836e-03 
1.2684452e-02 9.1500897e-03 1.7211359e-03 
1.2316133e-02 9.3005141e-03 -2.0763988e-03 
1.2225363e-02 9.1669904e-03 -1.4106426e-03 
1.2338170e-02 9.0953540e-03 -1.9538886e-04 
1.2571320e-02 9.2633925e-03 -1.9834482e-03 
1.2288743e-02 8.9975903e-03 5.8963930e-04 
1.2465949e-02 9.3038529e-03 -3.8293488e-03 
1.2498410e-02 9.0824142e-03 2.4844974e-03 
1.2222669e-02 9.1286693e-03 -1.4660576e-03 
1.2357935e-02 9.0302499e-03 1.2640879e-03 
1.2529655e-02 9.2260707e-03 -3.4649976e-04 
1.2171949e-02 9.1734519e-03 -2.7172309e-03 
1.2074661e-02 9.0686437e-03 -1.7360914e-03 
1.2444776e-02 9.2321141e-03 1.5103734e-03 
1.2452028e-02 9.2776231e-03 6.4668880e-04 
1.2059222e-02 9.1028716e-03 -2.3800081e-03 
1.2349176e-02 9.1922237e-03 1.0184438e-03 
1.1875349e-02 8.8999001e-03 -1.1577588e-03 
1.2285897e-02 9.0469671e-03 1.5440453e-03 
1.2224843e-02 9.0264594e-03 -2.6973640e-04 
1.2329922e-02 9.1347340e-03 8.8219334e-05 
1.2292613e-02 9.1075301e-03 1.7604324e-04 
1.2233437e-02 9.2197573e-03 2.0009291e-03 
1.1989364e-02 9.1014961e-03 -3.6594709e-03 
1.1673435e-02 8.7133376e-03 -6.8978831e-04 
1.1900713e-02 8.8482276e-03 -5.9961260e-04 
1.2195718e-02 9.0200333e-03 -5.9228879e-04 
1.1846041e-02 9.0340190e-03 -3.3238851e-03 
1.2006162e-02 8.8988598e-03 4.6819590e-05 
1.1714444e-02 8.9464411e-03 -2.8895466e-03 
1.1723910e-02 8.5832505e-03 7.2949502e-04 
1.1597738e-02 8.8385073e-03 -2.3626091e-03 
1.1823630e-02 8.6031202e-03 1.3793260e-03 
1.2144133e-02 8.9129424e-03 -8.2278805e-04 
1.1874948e-02 8.9850072e-03 -3.7845101e-03 
1.1925497e-02 8.6573716e-03 2.0789411e-03 
1.1500472e-02 8.7235728e-03 -1.7309639e-03 
1.1999874e-02 8.9090653e-03 -3.4114956e-03 
1.2009324e-02 8.7987920e-03 2.7419855e-03 
1.1985050e-02 9.0253046e-03 1.4095637e-03 
1.1946381e-02 8.8578956e-03 -7.3383431e-05 
1.1666985e-02 8.8220239e-03 -2.8176741e-03 
1.1748911e-02 8.6386837e-03 -1.5114216e-03 
1.1507948e-02 8.6505432e-03 -2.9474320e-03 
1.1649122e-02 8.7799458e-03 2.5530178e-03 
1.1259212e-02 8.5558994e-03 -2.1419947e-03 
1.1224057e-02 8.3419150e-03 1.1682472e-05 
1.1164922e-02 8.4701600e-03 -1.6853155e-03 
1.1253993e-02 8.3185928e-03 5.5483298e-04 
1.1469053e-02 8.6205574e-03 -3.6454902e-03 
1.1474095e-02 8.3783586e-03 2.3798412e-03 
1.1540247e-02 8.5602505e-03 -2.9232627e-04 
1.1304620e-02 8.4742652e-03 -1.3036127e-03 
1.1470830e-02 8.6258762e-03 6.9804158e-04 
1.1380616e-02 8.4940977e-03 -1.6917391e-03 
1.1211015e-02 8.5823247e-03 -3.4878026e-03 
1.1522448e-02 8.5643912e-03 2.8684377e-03 
1.1378140e-02 8.3989799e-03 1.5685530e-03 
1.1205458e-02 8.2761487e-03 9.6939987e-04 
1.1049350e-02 8.4973378e-03 -3.0472060e-03 
1.1368789e-02 8.5244030e-03 4.6914470e-04 
1.0930338e-02 8.4071383e-03 -2.5838213e-03 
1.1035351e-02 8.3067827e-03 -9.9479477e-04 
1.0915592e-02 8.0873566e-03 2.6667857e-04 
1.1015565e-02 8.0871368e-03 9.8800962e-04 
1.0816626e-02 8.2982071e-03 -2.0279533e-03 
1.1106771e-02 8.1209205e-03 1.5479018e-03 
1.0753497e-02 8.1879105e-03 -1.4440652e-03 
1.1217832e-02 8.3755711e-03 1.1797907e-03 
1.0961181e-02 8.3471062e-03 -2.4208967e-03 
1.1234571e-02 8.3326735e-03 2.1568828e-03 
1.1073675e-02 8.2638105e-03 5.7687378e-04 
1.1142494e-02 8.1985649e-03 2.5954822e-03 
1.1173700e-02 8.2847094e-03 -7.6778600e-04 
1.1172391e-02 8.2736826e-03 -2.6598996e-03 
1.0910531e-02 8.3223553e-03 -3.6161267e-03 
1.0944353e-02 8.0125341e-03 1.9626373e-03 
1.1067010e-02 8.3260955e-03 6.7845819e-04 
1.1030208e-02 8.3893938e-03 1.4193319e-03 
1.1061294e-02 8.2881656e-03 -3.2839284e-03 
1.0597210e-02 8.0448557e-03 -1.1703715e-03 
1.0818671e-02 8.2363468e-03 -2.7257758e-03 
1.1022666e-02 8.2745701e-03 5.8528694e-04 
1.0996808e-02 8.2220472e-03 -6.7347664e-06 
1.0392637e-02 7.9537751e-03 -1.8309276e-03 
1.0749029e-02 8.0812098e-03 1.9906855e-03 
1.0400984e-02 8.0529526e-03 -3.1700225e-03 
1.0465601e-02 8.0609778e-03 -3.4381659e-03 
1.0280591e-02 7.9743974e-03 -2.7735080e-03 
1.0610273e-02 7.9590166e-03 -5.6162872e-04 
1.0164911e-02 7.8703715e-03 -2.2780772e-03 
1.0261794e-02 7.6010791e-03 5.9738744e-04 
1.0526476e-02 7.9924157e-03 -3.5078176e-03 
1.0625810e-02 7.9540955e-03 -2.3153846e-04 
1.0378829e-02 7.6387697e-03 1.3524119e-03 
1.0538744e-02 7.7686911e-03 2.2748753e-03 
1.0331468e-02 7.8469384e-03 -1.4728522e-03 
1.0322338e-02 7.7261720e-03 1.0789624e-04 
1.0543808e-02 8.0023790e-03 7.4456789e-04 
1.0073391e-02 7.7604381e-03 -1.7188614e-03 
1.0408457e-02 7.7267773e-03 1.1914009e-03 
1.0400230e-02 7.8403940e-03 -7.0286839e-04 
1.0567495e-02 7.8437319e-03 -1.7965595e-03 
1.0453098e-02 7.8724744e-03 1.4797968e-04 
1.0189555e-02 7.8287795e-03 -2.5846781e-03 
1.0105967e-02 7.7803121e-03 -2.2707088e-03 
1.0337363e-02 7.7671893e-03 -1.7749073e-03 
9.8359976e-03 7.4750413e-03 -6.8026502e-04 
9.9756215e-03 7.4922116e-03 -3.6989306e-05 
1.0331259e-02 7.6974179e-03 -9.0458704e-04 
9.7990073e-03 7.4766735e-03 -9.5858605e-04 
1.0031649e-02 7.6503684e-03 -2.1327024e-03 
9.9263340e-03 7.5463457e-03 -9.9778723e-04 
1.0182289e-02 7.8194793e-03 1.9915346e-03 
1.0004756e-02 7.7092173e-03 -3.4686089e-03 
1.0146228e-02 7.7795377e-03 1.4407939e-03 
1.0048734e-02 7.4036233e-03 1.8471127e-03 
1.0155989e-02 7.6641762e-03 -3.1496899e-03 
1.0120720e-02 7.5260820e-03 2.5410007e-03 
1.0110248e-02 7.6350928e-03 8.3552513e-05 
9.9972654e-03 7.5812070e-03 -2.2573655e-03 
9.9711251e-03 7.4570267e-03 1.3609523e-03 
9.8684952e-03 7.4303132e-03 1.4612135e-04 
9.7960960e-03 7.6140100e-03 -3.2667452e-03 
9.6664587e-03 7.5462507e-03 -2.9125318e-03 
9.5579196e-03 7.4661663e-03 -2.4915263e-03 
9.5250932e-03 7.1527823e-03 1.6976621e-04 
9.4565516e-03 7.3677758e-03 -1.9856659e-03 
9.6239354e-03 7.1456218e-03 8.4747496e-04 
9.7098062e-03 7.1775452e-03 1.3884630e-03 
9.3893502e-03 7.2716665e-03 -1.4953410e-03 
9.7626951e-03 7.3721064e-03 9.3355164e-04 
9.3580605e-03 7.1491222e-03 -7.0005812e-04 
9.7582703e-03 7.3631778e-03 -1.7274657e-04 
9.6332608e-03 7.3872921e-03 -3.3666242e-03 
9.6887499e-03 7.4148974e-03 7.8730762e-04 
9.6529964e-03 7.1578524e-03 2.1593447e-03 
9.3196537e-03 7.2143544e-03 -1.6567595e-03 
9.7563108e-03 7.3138778e-03 -2.4842045e-03 
9.6674804e-03 7.2997739e-03 2.7023838e-03 
9.3894834e-03 7.0433738e-03 4.7786665e-04 
9.5897466e-03 7.2869621e-03 1.5157746e-04 
9.4011528e-03 7.2663375e-03 -2.5807619e-03 
9.2567112e-03 7.1906382e-03 -2.2221995e-03 
9.4599491e-03 7.1318704e-03 1.4513402e-03 
9.1630593e-03 6.9528990e-03 -1.8603215e-04 
9.0722358e-03 6.9943070e-03 -1.0546964e-03 
9.4487770e-03 7.1627563e-03 -7.5522211e-04 
9.2751561e-03 7.0898528e-03 -1.1977438e-03 
9.4240857e-03 7.2368281e-03 1.8239026e-03 
9.4498452e-03 7.0992284e-03 -6.7975488e-04 
9.0805581e-03 6.9444962e-03 -5.6250702e-04 
9.0961866e-03 7.1437131e-03 -2.9948554e-03 
8.9670653e-03 6.7980150e-03 -8.8308851e-05 
8.8736853e-03 6.8851439e-03 -1.2300491e-03 
9.3310857e-03 7.1354141e-03 4.9795076e-04 
9.2181675e-03 7.0082350e-03 -4.2470248e-04 
9.3016131e-03 7.2064037e-03 1.4526079e-03 
8.9785177e-03 7.0698643e-03 -2.6445705e-03 
9.1644339e-03 7.1241474e-03 -3.3162388e-03 
9.1970954e-03 6.8285549e-03 1.7569776e-03 
9.2814881e-03 7.0664552e-03 1.5198172e-04 
8.8805296e-03 6.9853584e-03 -2.2019725e-03 
9.2882188e-03 7.0593520e-03 -3.0325113e-03 
9.2723686e-03 6.9288616e-03 2.4476389e-03 
9.2343660e-03 7.0440634e-03 1.1381720e-03 
9.1469986e-03 7.0095807e-03 -2.1863000e-03 
8.9383302e-03 6.7107552e-03 4.7956131e-04 
9.0208445e-03 6.7187659e-03 1.0546288e-03 
9.2353513e-03 7.0789615e-03 8.5837685e-04 
8.7948404e-03 6.8806787e-03 -1.6927856e-03 
9.2510367e-03 7.0057595e-03 -2.8833971e-04 
8.9982031e-03 6.7338417e-03 1.1299319e-03 
8.9395260e-03 6.7814332e-03 9.1145033e-05 
9.1172149e-03 6.8475027e-03 -1.3497878e-03 
8.6691510e-03 6.7492453e-03 -1.4423579e-03 
8.9673642e-03 6.9331462e-03 2.4672637e-03 
8.7181414e-03 6.7345863e-03 -1.2584919e-03 
8.9127077e-03 6.7910948e-03 -1.7941766e-03 
8.9471349e-03 6.8054399e-03 -1.2358095e-04 
8.7514762e-03 6.8066074e-03 -2.5476345e-03 
8.8820923e-03 6.8617952e-03 8.2130934e-04 
8.5967155e-03 6.7381319e-03 -2.0203369e-03 
8.8309590e-03 6.8214806e-03 -3.2105537e-03 
8.8429432e-03 6.5852511e-03 2.0730754e-03 
8.5426383e-03 6.5124724e-03 -4.4459019e-05 
8.5641341e-03 6.4788447e-03 4.4929265e-04 
8.6984234e-03 6.5714917e-03 1.4201036e-03 
8.5382536e-03 6.7349495e-03 -3.0430779e-03 
8.2973158e-03 6.4156833e-03 -6.6326529e-04 
8.4304642e-03 6.6878367e-03 -2.7637568e-03 
8.3324621e-03 6.6140415e-03 -2.3843520e-03 
8.3780941e-03 6.5266038e-03 -1.3796081e-03 
8.2461974e-03 6.5200436e-03 -1.9377511e-03 
8.2800947e-03 6.3035302e-03 9.4354131e-05 
8.3660129e-03 6.2936689e-03 7.2434935e-04 
8.4319720e-03 6.3084648e-03 1.2283347e-03 
8.6500337e-03 6.5473216e-03 -6.3637865e-04 
8.1682177e-03 6.4127636e-03 -1.4271992e-03 
8.5629988e-03 6.5022442e-03 1.9938890e-03 
8.5445866e-03 6.5390500e-03 -3.3283862e-04 
8.5524861e-03 6.5930011e-03 5.1895401e-04 
8.5299043e-03 6.6683460e-03 1.4565152e-03 
8.3953692e-03 6.4838338e-03 -1.2254121e-03 
8.5012494e-03 6.5298248e-03 2.0901473e-04 
8.3809681e-03 6.5857694e-03 -3.1662756e-03 
8.2626753e-03 6.4995056e-03 -2.2573173e-03 
8.3995750e-03 6.2744580e-03 1.6593601e-03 
8.4945485e-03 6.5185577e-03 -2.9020305e-03 
8.3735464e-03 6.4046518e-03 6.3181727e-04 
8.3239954e-03 6.2960633e-03 1.2174738e-03 
8.0595389e-03 6.2984824e-03 -1.2270495e-03 
8.3900737e-03 6.5900176e-03 1.9485063e-03 
8.2556298e-03 6.3295038e-03 1.0586782e-04 
8.4014526e-03 6.3168108e-03 2.2865732e-03 
8.3714109e-03 6.4278329e-03 8.2509418e-05 
8.3332798e-03 6.4390562e-03 8.1529387e-04 
8.1371116e-03 6.2637716e-03 -2.8442868e-04 
8.0735059e-03 6.2016039e-03 -1.7539739e-04 
8.2601598e-03 6.3591767e-03 1.8210257e-03 
7.9208473e-03 6.0939626e-03 -2.1284560e-04 
8.1917690e-03 6.2785046e-03 -8.5847896e-05 
8.0168527e-03 6.3619125e-03 -3.0529264e-03 
8.0131991e-03 6.0781548e-03 8.6260389e-04 
8.1285583e-03 6.3407845e-03 8.4256742e-04 
8.2096588e-03 6.2524383e-03 -2.3633658e-03 
7.9059321e-03 6.3086501e-03 -2.8243617e-03 
7.9537332e-03 6.2197344e-03 -1.5476195e-03 
7.9839099e-03 6.2761866e-03 -2.4971643e-03 
8.0738263e-03 6.3119614e-03 -3.0732013e-03 
7.8134462e-03 6.2476215e-03 -2.5377676e-03 
8.0668116e-03 6.0572191e-03 1.9697451e-03 
8.0177281e-03 6.1771958e-03 -6.2199362e-04 
8.0361431e-03 6.2247831e-03 -2.0847819e-03 
7.7192425e-03 6.1664665e-03 -2.1388005e-03 
8.0999434e-03 6.1914776e-03 2.4870464e-03 
7.6832059e-03 5.9172055e-03 -1.3593571e-04 
7.7432413e-03 5.8993613e-03 3.7747115e-04 
7.6432512e-03 6.0762819e-03 -1.6673397e-03 
7.5801923e-03 5.9777233e-03 -1.1557972e-03 
7.7784131e-03 5.8733677e-03 9.6848118e-04 
7.7510439e-03 6.1329994e-03 -2.3134060e-03 
7.5959275e-03 6.0206563e-03 -1.8146740e-03 
7.7848891e-03 6.1584096e-03 1.4513714e-03 
7.8379596e-03 6.0593691e-03 -2.8190922e-03 
7.7343192e-03 5.9128990e-03 1.2181246e-03 
7.7720867e-03 6.0223062e-03 2.5444472e-04 
7.8229196e-03 5.9835580e-03 -4.9805240e-04 
7.6480433e-03 6.0686618e-03 -3.0392671e-03 
7.5873742e-03 5.8563924e-03 -1.3548641e-05 
7.6505253e-03 5.7579163e-03 1.5576187e-03 
7.7418382e-03 6.0282000e-03 5.7685009e-04 
7.7400543e-03 5.8680139e-03 2.2425551e-03 
7.7223182e-03 5.9313593e-03 -4.7893744e-04 
7.5908075e-03 5.7779029e-03 1.1701052e-03 
7.3893345e-03 5.7068695e-03 -5.4663749e-05 
7.3304079e-03 5.8030202e-03 -1.2292629e-03 
7.6477309e-03 5.9043840e-03 -2.5291587e-04 
7.3810918e-03 5.6628278e-03 4.2795390e-04 
7.4178893e-03 5.9460476e-03 -2.8720254e-03 
7.3219435e-03 5.8913492e-03 -2.6250870e-03 
7.6254206e-03 5.8107772e-03 -1.2252205e-03 
7.5638308e-03 5.8233049e-03 1.8231131e-03 
7.2320434e-03 5.8305836e-03 -2.2946282e-03 
7.5178025e-03 5.8469917e-03 2.2843300e-04 
7.4871923e-03 5.8293073e-03 6.7408942e-04 
7.5369887e-03 5.9335795e-03 2.3527963e-03 
7.1445564e-03 5.7536247e-03 -1.8825674e-03 
7.1516572e-03 5.5271629e-03 2.1707163e-05 
7.4810260e-03 5.7840561e-03 -4.8414833e-05 
7.2290553e-03 5.5128480e-03 6.1148865e-04 
7.0729586e-03 5.6529907e-03 -1.4013788e-03 
7.4190628e-03 5.8522951e-03 8.6684135e-04 
7.2636586e-03 5.5035036e-03 1.0974244e-03 
7.1659517e-03 5.6080637e-03 -5.2713644e-04 
7.2777444e-03 5.7729911e-03 -2.4095732e-03 
7.3698871e-03 5.7960670e-03 -2.9352328e-03 
7.3498697e-03 5.5537298e-03 1.8605607e-03 
7.3745088e-03 5.7131331e-03 1.1343443e-03 
6.9940928e-03 5.4999692e-03 -6.3784275e-04 
7.1800300e-03 5.7272511e-03 -2.1769877e-03 
7.2713047e-03 5.6906035e-03 -1.3567692e-03 
7.3404564e-03 5.7022581e-03 -1.6508731e-03 
7.2174598e-03 5.5250642e-03 8.0206356e-04 
7.3054498e-03 5.6639505e-03 -7.8933494e-04 
7.0305271e-03 5.6193471e-03 -1.6110488e-03 
7.2574764e-03 5.5583455e-03 1.5225144e-03 
7.2292071e-03 5.6102467e-03 2.0464287e-04 
7.2197728e-03 5.5505135e-03 -5.4038875e-04 
7.0932903e-03 5.5537415e-03 2.9850553e-04 
6.8206699e-03 5.3284173e-03 -2.2757577e-04 
7.0424271e-03 5.6113596e-03 1.3635434e-03 
6.9605266e-03 5.5742897e-03 -2.8997418e-03 
6.8593766e-03 5.5526122e-03 -2.6815687e-03 
6.9718263e-03 5.2728481e-03 1.4675657e-03 
7.0616812e-03 5.5116490e-03 -2.6378718e-03 
6.8108193e-03 5.3896667e-03 -1.0193540e-03 
6.7632268e-03 5.4992968e-03 -2.4109248e-03 
6.8312809e-03 5.4160580e-03 -1.4406317e-03 
6.9104400e-03 5.2946378e-03 1.1250031e-03 
6.6746692e-03 5.4238834e-03 -2.0507819e-03 
6.9987224e-03 5.4565058e-03 2.7799737e-05 
6.9878139e-03 5.3174165e-03 2.0829688e-03 
6.6011506e-03 5.3417538e-03 -1.6301409e-03 
6.6809836e-03 5.1565324e-03 2.8667427e-04 
6.7480095e-03 5.1534451e-03 8.0753962e-04 
6.8337931e-03 5.3116288e-03 4.3980003e-04 
6.7204367e-03 5.2579353e-03 -2.2561186e-04 
6.7771981e-03 5.2781757e-03 1.2458758e-04 
6.5456107e-03 5.2499408e-03 -1.1589773e-03 
6.8832231e-03 5.4513677e-03 1.0631969e-03 
6.5668561e-03 5.1353700e-03 -1.8465550e-04 
6.7318315e-03 5.3936783e-03 -2.2909758e-03 
6.5853870e-03 5.2760183e-03 -1.3567560e-03 
6.6323117e-03 5.3417613e-03 -2.0147034e-03 
6.8100821e-03 5.4576569e-03 1.9226664e-03 
6.8279770e-03 5.3263451e-03 -1.7106129e-05 
6.8310318e-03 5.3723319e-03 1.7052571e-03 
6.5633752e-03 5.2851690e-03 -1.7442750e-03 
6.7731831e-03 5.3835334e-03 8.8459242e-04 
6.4455993e-03 5.1431837e-03 -1.0063704e-03 
6.6989139e-03 5.3255712e-03 -2.8080591e-03 
6.6963835e-03 5.0816401e-03 1.7606895e-03 
6.6557140e-03 5.2443063e-03 -1.9203180e-03 
6.6976971e-03 5.1769940e-03 1.8512432e-03 
6.7547914e-03 5.2128746e-03 -2.0752745e-03 
6.7185406e-03 5.2076154e-03 2.3090823e-03 
6.6583031e-03 5.2695274e-03 1.0234794e-03 
6.5923831e-03 5.1741856e-03 3.9084574e-05 
6.5957829e-03 5.0801230e-03 1.3487386e-03 
6.3713784e-03 4.9799052e-03 -6.7409623e-05 
6.5994449e-03 5.1585864e-03 -2.5773299e-04 
6.4919675e-03 5.1239925e-03 -8.7636971e-04 
6.5332716e-03 5.0922786e-03 8.2868914e-04 
6.4509618e-03 4.9801790e-03 7.3504198e-04 
6.4157997e-03 5.2194046e-03 -2.6998778e-03 
6.5639280e-03 5.1227524e-03 -1.8803061e-03 
6.3246791e-03 5.1742620e-03 -2.4805206e-03 
6.4898771e-03 5.1032971e-03 -8.4808469e-04 
6.2400252e-03 5.1175486e-03 -2.1858425e-03 
6.4781345e-03 5.2184244e-03 1.4323519e-03 
6.4785429e-03 5.0719292e-03 1.2522439e-03 
6.4834817e-03 5.1267585e-03 4.5554456e-04 
6.4656283e-03 5.1030298e-03 3.3283528e-04 
6.5071979e-03 5.0613452e-03 -4.1561271e-04 
6.1572753e-03 5.0430214e-03 -1.8136471e-03 
6.4978707e-03 5.1086019e-03 -2.5621809e-03 
6.1564595e-03 4.8159217e-03 -4.3676086e-05 
6.2008160e-03 4.8901048e-03 -3.2326215e-04 
6.2273992e-03 4.8002568e-03 5.1393663e-04 
6.2876130e-03 4.8078396e-03 9.6953637e-04 
6.2004691e-03 4.9447124e-03 -8.2857208e-04 
6.0684383e-03 4.9334774e-03 -1.3447023e-03 
6.3280924e-03 5.1133223e-03 -2.7685869e-03 
6.3356441e-03 4.8283706e-03 1.3779231e-03 
6.4125150e-03 4.9121869e-03 2.0276408e-03 
6.3032801e-03 5.0296807e-03 -2.0590075e-03 
6.1979042e-03 5.0192126e-03 -2.0682237e-03 
6.3303914e-03 4.9873884e-03 4.0466950e-04 
6.2148171e-03 4.9697147e-03 -1.6288734e-03 
6.0578855e-03 4.9213949e-03 -1.5584732e-03 
6.3403123e-03 4.8939507e-03 -1.1178750e-03 
5.9934738e-03 4.8453761e-03 -1.2009814e-03 
5.9742127e-03 4.7796778e-03 -7.3128904e-04 
5.9022889e-03 4.7184308e-03 -6.1156403e-04 
6.0504274e-03 4.7134440e-03 3.3998096e-04 
6.2424955e-03 4.9090423e-03 -8.4328065e-05 
6.2624644e-03 5.0187712e-03 2.2283858e-03 
6.2127016e-03 4.8819929e-03 5.8709529e-06 
6.1636041e-03 4.9506905e-03 8.9304324e-04 
6.0217846e-03 4.8838831e-03 -2.3877253e-03 
6.0924864e-03 4.8805401e-03 9.4546750e-04 
6.0832575e-03 4.8675700e-03 -2.6617181e-03 
6.0777240e-03 4.6441238e-03 1.6775213e-03 
5.9161740e-03 4.8647965e-03 -2.5226069e-03 
5.8261259e-03 4.8105172e-03 -2.2858351e-03 
5.7446128e-03 4.7460883e-03 -1.9579460e-03 
5.7644662e-03 4.5104832e-03 1.8518715e-04 
5.8641112e-03 4.6087038e-03 1.8581268e-04 
5.9898547e-03 4.6663345e-03 1.3834912e-03 
5.6746537e-03 4.6715257e-03 -1.5822147e-03 
5.8653923e-03 4.5344061e-03 8.6862658e-04 
5.9607602e-03 4.7594719e-03 5.3498009e-04 
5.6197522e-03 4.5850240e-03 -1.1486566e-03 
5.9837336e-03 4.6693678e-03 -4.7727316e-04 
5.7747574e-03 4.4611711e-03 7.2548131e-04 
5.9531503e-03 4.6745995e-03 -6.3265045e-04 
5.8123800e-03 4.6109892e-03 -2.4454351e-04 
5.8741197e-03 4.6757557e-03 3.5374364e-04 
5.5804364e-03 4.4838651e-03 -6.0379278e-04 
5.8442717e-03 4.6218312e-03 -6.1569625e-04 
5.8262073e-03 4.7398242e-03 1.3416025e-03 
5.7858136e-03 4.6261814e-03 -1.7993293e-03 
5.5792551e-03 4.4406140e-03 -2.7970341e-04 
5.7422705e-03 4.6761916e-03 -2.6402522e-03 
5.7373163e-03 4.3975925e-03 1.2925257e-03 
5.6584449e-03 4.5655235e-03 -1.2722630e-03 
5.8416752e-03 4.6146084e-03 -2.3932338e-03 
5.7806894e-03 4.5680078e-03 -4.1887488e-05 
5.5467575e-03 4.5500924e-03 -1.7980859e-03 
5.6891460e-03 4.5035779e-03 4.6516446e-04 
5.7725064e-03 4.4455868e-03 1.8925917e-03 
5.7001906e-03 4.4251657e-03 1.1930148e-03 
5.4232921e-03 4.4063088e-03 -9.1089919e-04 
5.4334193e-03 4.4386820e-03 -1.2099188e-03 
5.6761010e-03 4.5674937e-03 8.1975647e-04 
5.6467666e-03 4.4718864e-03 3.1028103e-05 
5.6432057e-03 4.6207900e-03 1.8382401e-03 
5.4688882e-03 4.2972285e-03 3.2825576e-04 
5.5936775e-03 4.5377417e-03 8.9879124e-04 
5.2929395e-03 4.3316600e-03 -9.9931937e-04 
5.4388153e-03 4.5187841e-03 -2.3461005e-03 
5.6218677e-03 4.5413310e-03 1.3575149e-03 
5.3573526e-03 4.4666976e-03 -2.0735818e-03 
5.4681902e-03 4.5123915e-03 -2.5144694e-03 
5.2858614e-03 4.4020931e-03 -1.7399613e-03 
5.3609973e-03 4.3349685e-03 -9.1913959e-04 
5.2241106e-03 4.3227216e-03 -1.3514860e-03 
5.4244744e-03 4.4217072e-03 -2.0235162e-03 
5.2565066e-03 4.1774018e-03 -9.1221656e-05 
5.5208229e-03 4.4490448e-03 -2.5409262e-03 
5.3162556e-03 4.1600401e-03 4.1570855e-04 
5.3855996e-03 4.1675805e-03 8.5986336e-04 
5.5063958e-03 4.2329468e-03 1.5833804e-03 
5.5470136e-03 4.3520653e-03 -1.9039132e-03 
5.5305217e-03 4.3403460e-03 2.1452962e-03 
5.4004123e-03 4.2125764e-03 9.0470712e-04 
5.4718736e-03 4.3495344e-03 -1.4516743e-03 
5.2746180e-03 4.2191781e-03 -3.0748019e-04 
5.2993177e-03 4.3558483e-03 -1.9783364e-03 
5.4081893e-03 4.3549668e-03 5.0999835e-04 
5.1923064e-03 4.2841048e-03 -1.5094164e-03 
5.2937507e-03 4.2593535e-03 -1.1398252e-03 
5.3723645e-03 4.2305724e-03 1.2755989e-03 
5.2820332e-03 4.1876780e-03 4.1042137e-04 
5.3369976e-03 4.3908451e-03 1.3941056e-03 
5.3622494e-03 4.2858431e-03 2.1290747e-04 
5.3611146e-03 4.2710193e-03 1.4358938e-03 
5.3233039e-03 4.2799967e-03 3.7844456e-04 
5.1401709e-03 4.0997094e-03 -9.6150870e-05 
5.3715724e-03 4.2340187e-03 -3.6974752e-04 
5.0779902e-03 4.1413107e-03 -8.4355765e-04 
4.9981275e-03 4.0571559e-03 -5.8747828e-04 
5.3168987e-03 4.2122258e-03 -1.2281006e-03 
5.3098588e-03 4.1853236e-03 -4.9091573e-04 
5.1928652e-03 4.2713634e-03 -2.5115518e-03 
5.1796590e-03 3.9983816e-03 1.2025096e-03 
5.2889171e-03 4.2090924e-03 -2.2837608e-03 
5.2609690e-03 4.0841382e-03 1.8618166e-03 
5.1788613e-03 4.1987901e-03 -1.8928440e-03 
5.0678547e-03 4.2277193e-03 -2.3648124e-03 
4.9878741e-03 4.1866261e-03 -2.1596912e-03 
5.1411209e-03 4.1074152e-03 -4.6910514e-04 
5.0697909e-03 3.9740731e-03 6.6147762e-04 
5.2414467e-03 4.0913718e-03 -1.0322550e-03 
5.1591224e-03 4.1316613e-03 3.9572633e-04 
5.1572421e-03 4.1309628e-03 1.2298033e-04 
4.9158423e-03 4.1296692e-03 -1.8678691e-03 
4.8546861e-03 4.0644738e-03 -1.5228209e-03 
5.1624649e-03 4.2017680e-03 2.0901975e-03 
5.1075486e-03 4.0817168e-03 5.4784698e-05 
5.0608851e-03 4.1469415e-03 8.9598610e-04 
4.8771081e-03 3.8662641e-03 1.3849384e-04 
4.7991299e-03 3.9829826e-03 -1.1332227e-03 
4.9381400e-03 3.8600792e-03 5.8837963e-04 
5.1098512e-03 4.0564560e-03 -5.7588838e-04 
5.0828434e-03 4.0634209e-03 -3.3190139e-04 
5.0531849e-03 3.9620446e-03 1.1730408e-03 
4.7757779e-03 3.8945633e-03 -6.1577570e-04 
4.8478083e-03 3.9657610e-03 -8.7981619e-04 
4.8697107e-03 3.9083879e-03 -6.5877233e-05 
4.9118255e-03 3.9571840e-03 -4.7153389e-04 
4.7903485e-03 3.8692281e-03 -3.4766769e-04 
4.7694976e-03 3.9598397e-03 -1.3387839e-03 
4.9867565e-03 4.0525477e-03 -2.4100360e-03 
4.9633719e-03 3.8341340e-03 1.4926061e-03 
4.9455953e-03 3.9795488e-03 -1.6567480e-03 
4.7527859e-03 3.7917693e-03 8.3644562e-05 
4.8075300e-03 3.9870134e-03 -1.8855793e-03 
4.9119960e-03 3.9946460e-03 7.2171766e-04 
4.8946142e-03 3.9685098e-03 4.7083225e-04 
4.7327778e-03 3.9453590e-03 -1.7127263e-03 
4.8871473e-03 3.9524352e-03 6.2432099e-04 
4.9143001e-03 3.8888333e-03 -4.1636301e-04 
4.6199891e-03 3.8123189e-03 -9.0128591e-04 
4.8132241e-03 3.9030074e-03 3.9861491e-04 
4.7292751e-03 3.9520958e-03 -2.3551739e-03 
4.7780476e-03 3.9656446e-03 1.2953703e-03 
4.6443683e-03 3.9202096e-03 -2.1946551e-03 
4.4916971e-03 3.7367537e-03 -9.6956914e-04 
4.7610616e-03 3.8102290e-03 6.3866726e-04 
4.6736184e-03 3.6900917e-03 6.2334386e-04 
4.7924593e-03 3.9141853e-03 1.6518250e-03 
4.5643267e-03 3.8704115e-03 -1.9605001e-03 
4.6412717e-03 3.8152735e-03 -1.2151084e-03 
4.7068303e-03 3.7611381e-03 4.6318138e-04 
4.7565177e-03 3.8177907e-03 -1.8731515e-06 
4.5011393e-03 3.8117776e-03 -1.6642667e-03 
4.6906536e-03 3.8835804e-03 -2.3931055e-03 
4.6697711e-03 3.6251645e-03 1.1327282e-03 
4.7727446e-03 3.8280571e-03 -2.1733465e-03 
4.4467961e-03 3.7411794e-03 -1.3085066e-03 
4.4607692e-03 3.5953019e-03 -1.3643224e-04 
4.5112586e-03 3.5747243e-03 3.2750305e-04 
4.5667249e-03 3.5713951e-03 7.4046158e-04 
4.7048796e-03 3.6562178e-03 1.7130659e-03 
4.6354393e-03 3.6467381e-03 1.0871466e-03 
4.7435486e-03 3.7461384e-03 -1.7578120e-03 
4.5662383e-03 3.7866733e-03 -1.9064931e-03 
4.6906271e-03 3.7138897e-03 -6.8457850e-04 
4.6417406e-03 3.6761200e-03 1.2498355e-03 
4.6135713e-03 3.7155212e-03 7.2518706e-05 
4.6219998e-03 3.8500796e-03 1.7472779e-03 
4.5720260e-03 3.7801783e-03 8.8407623e-04 
4.4998690e-03 3.6892097e-03 -1.4429607e-03 
4.6027955e-03 3.6576285e-03 -9.4224431e-04 
4.3963655e-03 3.5072230e-03 2.5759664e-04 
4.5075496e-03 3.6410962e-03 -2.1173430e-05 
4.3427297e-03 3.6464327e-03 -1.5623409e-03 
4.2275367e-03 3.4796228e-03 -5.5660313e-04 
4.2894012e-03 3.6001701e-03 -1.3148534e-03 
4.2576594e-03 3.5544303e-03 -1.0224407e-03 
4.4985241e-03 3.6866199e-03 -2.3060725e-03 
4.4679688e-03 3.4722502e-03 1.4030320e-03 
4.3386184e-03 3.6310833e-03 -1.6998522e-03 
4.4630966e-03 3.5874317e-03 -9.8466361e-04 
4.5270738e-03 3.5913503e-03 1.9633358e-03 
4.4549932e-03 3.6114990e-03 -1.5923741e-03 
4.4225161e-03 3.6153141e-03 4.3594968e-04 
4.3453095e-03 3.6675832e-03 -2.2418685e-03 
4.2086914e-03 3.4577688e-03 -5.3068966e-04 
4.2451071e-03 3.6195861e-03 -2.0191362e-03 
4.3565356e-03 3.6508441e-03 1.3391182e-03 
4.1749007e-03 3.5700726e-03 -1.7668786e-03 
4.3397867e-03 3.5528454e-03 4.0904223e-04 
4.1097780e-03 3.4661312e-03 -1.0959611e-03 
4.2036842e-03 3.4685868e-03 -7.4040570e-04 
4.3851230e-03 3.5018683e-03 -3.1026019e-04 
4.3582120e-03 3.5393822e-03 8.1351266e-04 
4.1136835e-03 3.5080442e-03 -1.4612112e-03 
4.1238153e-03 3.3099637e-03 7.8299039e-05 
4.2283409e-03 3.3369134e-03 6.8281463e-04 
4.1784984e-03 3.2985243e-03 4.9606041e-04 
4.3311506e-03 3.4585551e-03 -4.8242591e-04 
4.1642431e-03 3.4708327e-03 -1.2095512e-03 
4.2732875e-03 3.5263887e-03 7.3188409e-04 
4.1742055e-03 3.3590952e-03 1.0847241e-04 
4.2703296e-03 3.4418942e-03 1.3768281e-03 
4.2097713e-03 3.5275568e-03 -2.2740152e-03 
4.2015663e-03 3.2741665e-03 1.0523282e-03 
4.2393156e-03 3.4366196e-03 -8.8437591e-05 
4.2324010e-03 3.3458204e-03 1.1128719e-03 
4.3018460e-03 3.4646792e-03 -2.0660069e-03 
4.2791348e-03 3.3446851e-03 1.6795598e-03 
4.1430099e-03 3.4660893e-03 -1.8236309e-03 
4.2573558e-03 3.3692811e-03 -9.2575280e-04 
4.2148023e-03 3.4172281e-03 8.1127997e-05 
4.0906249e-03 3.3511717e-03 -6.0204387e-04 
4.0209130e-03 3.2400005e-03 6.7100038e-05 
4.1589458e-03 3.3732150e-03 8.6469285e-05 
4.2088605e-03 3.4791210e-03 1.9360749e-03 
4.1150027e-03 3.4358855e-03 8.6967769e-04 
4.1409181e-03 3.3677048e-03 1.1352451e-04 
4.1388297e-03 3.4160765e-03 1.0279586e-03 
4.0724161e-03 3.3335057e-03 -1.0172945e-03 
4.0557417e-03 3.3564584e-03 -1.7166216e-03 
3.8791904e-03 3.2081173e-03 -5.0996337e-04 
3.8721489e-03 3.2663944e-03 -1.0915062e-03 
3.9390340e-03 3.3743957e-03 -2.0527844e-03 
4.0276060e-03 3.2474385e-03 6.2325649e-04 
3.9800862e-03 3.3782378e-03 -2.1812138e-03 
3.8690239e-03 3.3365288e-03 -1.8485601e-03 
4.0431991e-03 3.3313455e-03 -2.1793528e-03 
3.8045538e-03 3.2822876e-03 -1.5794785e-03 
4.0203957e-03 3.1293053e-03 1.3267599e-03 
3.9375336e-03 3.2668978e-03 -1.2266396e-03 
3.9832443e-03 3.2808483e-03 4.1053139e-04 
3.7519729e-03 3.2168610e-03 -1.2653949e-03 
3.9383196e-03 3.1220189e-03 7.8474998e-04 
3.8417005e-03 3.1376050e-03 -2.0976584e-04 
3.9938614e-03 3.1982292e-03 -3.6695172e-04 
3.7537627e-03 3.0693407e-03 -1.6901470e-04 
3.7128141e-03 3.1426023e-03 -9.1274019e-04 
3.8040353e-03 3.0445778e-03 2.6103578e-04 
3.8544924e-03 3.0402595e-03 6.3624018e-04 
3.9045077e-03 3.2237696e-03 4.1967249e-04 
3.9074034e-03 3.1953554e-03 5.5195013e-04 
3.7866314e-03 3.2193533e-03 -1.5834800e-03 
3.8755962e-03 3.2713683e-03 1.2352939e-03 
3.9177630e-03 3.1842371e-03 -1.2711799e-03 
3.8610832e-03 3.1383093e-03 -2.9830129e-05 
3.7326801e-03 3.1806403e-03 -1.3846603e-03 
3.6629417e-03 3.0882556e-03 -8.6100912e-04 
3.7849804e-03 3.1907442e-03 -1.7649970e-03 
3.8579018e-03 3.1304848e-03 -5.9628717e-05 
3.6693588e-03 2.9918146e-03 -5.9708531e-05 
3.8534256e-03 3.1005756e-03 -8.8139705e-04 
3.5708952e-03 2.9851759e-03 -5.3640926e-04 
3.7594670e-03 2.9386221e-03 9.8811660e-04 
3.7780390e-03 3.1839481e-03 -2.1574700e-03 
3.7843115e-03 3.0916962e-03 -3.9416674e-04 
3.8643805e-03 3.1309223e-03 -1.9712918e-03 
3.7521406e-03 3.1259225e-03 7.7974156e-04 
3.8125932e-03 3.1120512e-03 1.9310790e-03 
3.8264175e-03 3.0535734e-03 -1.6012785e-03 
3.7894130e-03 2.9670547e-03 1.5401335e-03 
3.6364004e-03 3.0543711e-03 -1.0556160e-03 
3.7320005e-03 3.0484516e-03 9.8086632e-05 
3.7331947e-03 2.9618219e-03 1.0017860e-03 
3.7415363e-03 3.1683501e-03 1.6434862e-03 
3.6568996e-03 3.1352143e-03 -2.0693515e-03 
3.6971834e-03 3.1096356e-03 8.5711665e-04 
3.6126715e-03 2.8980849e-03 3.8653839e-04 
3.5837574e-03 3.1031624e-03 -1.8938897e-03 
3.5195795e-03 3.0599770e-03 -1.6669530e-03 
3.6115963e-03 2.9234323e-03 3.2695796e-04 
3.4501159e-03 2.9595096e-03 -1.0481481e-03 
3.4627232e-03 3.0036378e-03 -1.3973515e-03 
3.6485388e-03 3.0177983e-03 1.0380036e-03 
3.4338504e-03 2.8544886e-03 -3.8051195e-04 
3.4537606e-03 2.8071897e-03 3.0015026e-05 
3.6528001e-03 2.9203119e-03 1.3347436e-03 
3.5023743e-03 2.7938688e-03 4.1662957e-04 
3.5498727e-03 2.7926990e-03 7.6514407e-04 
3.5781767e-03 2.9589557e-03 3.7487785e-04 
3.4343933e-03 2.8551465e-03 -4.4429867e-04 
3.5904867e-03 2.8002604e-03 1.2427906e-03 
3.6128524e-03 3.0010547e-03 -2.0662281e-03 
3.5483574e-03 2.9533042e-03 -1.3456000e-03 
3.5121001e-03 2.7919107e-03 6.5986416e-04 
3.6413118e-03 2.9037939e-03 1.7914836e-03 
3.5711732e-03 2.9367069e-03 -1.4541713e-03 
3.3993586e-03 2.9153228e-03 -1.2385562e-03 
3.5074411e-03 2.9912912e-03 1.2599352e-03 
3.5005654e-03 2.9088508e-03 4.2303719e-04 
3.4737955e-03 2.8760449e-03 -6.1608705e-04 
3.5298807e-03 2.8605617e-03 -2.6187315e-04 
3.5318434e-03 2.8784915e-03 1.2485001e-03 
3.4184305e-03 2.8215200e-03 -2.5507639e-04 
3.4630219e-03 2.8342668e-03 3.5703037e-05 
3.3867399e-03 2.9032258e-03 -1.5199394e-03 
3.4382946e-03 2.7864340e-03 7.7047164e-04 
3.2958505e-03 2.7012024e-03 -7.7324461e-05 
3.4443445e-03 2.8289126e-03 3.5211171e-05 
3.3192257e-03 2.8824895e-03 -1.9129402e-03 
3.2074405e-03 2.6414755e-03 -1.4760172e-04 
3.3484674e-03 2.6287250e-03 9.2226965e-04 
3.2509139e-03 2.8452186e-03 -1.7258758e-03 
3.3742439e-03 2.8657636e-03 -2.0432090e-03 
3.4387137e-03 2.7437413e-03 -8.4819674e-04 
3.4193234e-03 2.6875546e-03 1.5002611e-03 
3.4420763e-03 2.8055252e-03 -1.8555664e-03 
3.1916345e-03 2.7970213e-03 -1.4945589e-03 
3.3420017e-03 2.7489816e-03 1.0601010e-04 
3.1399475e-03 2.7369347e-03 -1.2169927e-03 
3.3860765e-03 2.8530820e-03 1.8101176e-03 
3.3039097e-03 2.8040435e-03 8.4057590e-04 
3.3207459e-03 2.7459327e-03 2.0174893e-04 
3.1038756e-03 2.6733757e-03 -8.9127157e-04 
3.1765122e-03 2.5655723e-03 1.9674367e-04 
3.2822457e-03 2.7111301e-03 -7.2430936e-04 
3.2943448e-03 2.7924387e-03 1.1228438e-03 
3.2827575e-03 2.6154476e-03 8.7437802e-04 
3.2095094e-03 2.5430471e-03 6.1867200e-04 
3.2531072e-03 2.6804134e-03 5.8257527e-04 
3.2927364e-03 2.6610417e-03 -8.2066911e-04 
3.0908985e-03 2.6630189e-03 -1.0936749e-03 
3.2693639e-03 2.6626838e-03 -1.1552025e-03 
3.2210459e-03 2.7146910e-03 -1.6808197e-03 
3.0194812e-03 2.5487246e-03 -5.0712482e-04 
3.0510211e-03 2.6127440e-03 -8.3592703e-04 
3.1999894e-03 2.6671223e-03 3.5138777e-04 
3.1250732e-03 2.6469524e-03 -9.7774609e-04 
3.2016190e-03 2.5073169e-03 1.1702229e-03 
3.1107655e-03 2.6717999e-03 -1.5073998e-03 
3.2288902e-03 2.6955584e-03 -1.9579495e-03 
3.1704097e-03 2.6714967e-03 6.5912021e-04 
3.0779685e-03 2.4974965e-03 2.0162042e-04 
3.1990223e-03 2.5956207e-03 -3.1525712e-04 
3.1080046e-03 2.4882280e-03 6.2199536e-04 
3.0417962e-03 2.5248197e-03 -2.4214259e-04 
3.1249144e-03 2.6227310e-03 4.2751190e-04 
3.0987791e-03 2.6734236e-03 1.1656353e-03 
3.1313612e-03 2.5965145e-03 -1.3932039e-03 
2.9392047e-03 2.4876357e-03 -5.4329896e-04 
2.9824646e-03 2.5226013e-03 -6.6147681e-04 
2.9981465e-03 2.6330769e-03 -1.7659938e-03 
3.0561471e-03 2.4942253e-03 2.8359029e-04 
3.0369307e-03 2.6341055e-03 -1.9032733e-03 
3.1262208e-03 2.5256246e-03 1.2560238e-03 
2.9374135e-03 2.5964556e-03 -1.5682433e-03 
3.0864005e-03 2.5360119e-03 -1.3754069e-04 
3.0720979e-03 2.5335161e-03 -2.7436283e-04 
2.8851966e-03 2.5451917e-03 -1.3233768e-03 
3.0565690e-03 2.5776809e-03 1.2046786e-03 
2.8437807e-03 2.4867936e-03 -1.0298864e-03 
2.8657143e-03 2.3542268e-03 -8.7516919e-06 
2.9134639e-03 2.3392341e-03 3.4700404e-04 
2.8060705e-03 2.4210813e-03 -7.6246419e-04 
2.9725423e-03 2.3422479e-03 8.5293880e-04 
3.0025200e-03 2.5652347e-03 -1.9325399e-03 
3.0729659e-03 2.5092452e-03 -1.7494523e-03 
2.9774711e-03 2.4704190e-03 1.1586153e-04 
3.0493364e-03 2.5145307e-03 1.7511767e-03 
2.8731129e-03 2.4974702e-03 -1.3606896e-03 
2.9819666e-03 2.5754918e-03 1.5228143e-03 
2.9435027e-03 2.4746370e-03 -1.1861107e-03 
2.9450578e-03 2.5238264e-03 8.2409539e-04 
2.8030220e-03 2.3591742e-03 -3.7912934e-04 
2.9085542e-03 2.4156722e-03 -3.0928213e-04 
3.0136944e-03 2.3669079e-03 1.3726718e-03 
2.9538604e-03 2.4853041e-03 4.7751487e-04 
2.9185934e-03 2.4989874e-03 -1.6082852e-03 
3.0228121e-03 2.4297591e-03 -1.4273402e-03 
2.7636676e-03 2.3727119e-03 -7.2269305e-04 
2.7884911e-03 2.2912170e-03 3.7772097e-05 
2.7835821e-03 2.3779436e-03 -8.5930509e-04 
2.8046824e-03 2.2931600e-03 2.5318455e-04 
2.7329663e-03 2.3790887e-03 -1.0550127e-03 
2.8440615e-03 2.3509366e-03 2.1022240e-04 
2.8675436e-03 2.4189637e-03 -1.6192215e-03 
2.8744547e-03 2.3791329e-03 9.6854713e-04 
2.8150508e-03 2.4385822e-03 -1.8575795e-03 
2.7578075e-03 2.4211870e-03 -1.7697420e-03 
2.8342954e-03 2.2204174e-03 1.1010179e-03 
2.8356672e-03 2.3476498e-03 -1.0881459e-04 
2.8653694e-03 2.3981857e-03 -1.8446952e-03 
2.7007193e-03 2.3943223e-03 -1.6090702e-03 
2.8814133e-03 2.3153024e-03 1.6057497e-03 
2.7771285e-03 2.3528805e-03 4.2941386e-04 
2.7821772e-03 2.4267770e-03 1.1881590e-03 
2.6472188e-03 2.3574634e-03 -1.4049102e-03 
2.8047443e-03 2.2986180e-03 -2.2468260e-04 
2.5988615e-03 2.3043922e-03 -1.1467632e-03 
2.7849339e-03 2.2275946e-03 9.7460096e-04 
2.8059834e-03 2.2874807e-03 -5.4769963e-04 
2.5652763e-03 2.2467924e-03 -8.5832464e-04 
2.5979469e-03 2.1766084e-03 -2.0715433e-04 
2.7827476e-03 2.2622908e-03 -4.4829599e-04 
2.6406625e-03 2.3043591e-03 -1.2178785e-03 
2.6141733e-03 2.1344302e-03 1.4906269e-04 
2.6539471e-03 2.1264106e-03 4.7571570e-04 
2.5404869e-03 2.1756743e-03 -4.7715451e-04 
2.6776234e-03 2.3122383e-03 -1.4901854e-03 
2.7240615e-03 2.2830316e-03 4.2880641e-04 
2.5983131e-03 2.1856092e-03 -3.2446033e-04 
2.6868165e-03 2.2777612e-03 4.1598835e-04 
2.6909211e-03 2.2376110e-03 1.8351549e-05 
2.7369352e-03 2.1891287e-03 -7.7278423e-04 
2.6249229e-03 2.0679999e-03 7.9870853e-04 
2.6545085e-03 2.2821112e-03 -1.8191923e-03 
2.6414136e-03 2.2052345e-03 1.2350881e-04 
2.7010846e-03 2.1232737e-03 1.3290433e-03 
2.7193963e-03 2.2246442e-03 -1.6565807e-03 
2.6503622e-03 2.2135649e-03 -1.1305790e-03 
2.6965176e-03 2.2879839e-03 1.6519947e-03 
2.6068459e-03 2.2617246e-03 8.0649188e-04 
2.6092038e-03 2.1744566e-03 1.2100639e-04 
2.6096813e-03 2.2524267e-03 1.0721632e-03 
2.6002743e-03 2.1590120e-03 -4.6926652e-04 
2.5302595e-03 2.0453848e-03 4.4121558e-04 
2.4392649e-03 2.1133851e-03 -6.8375008e-04 
2.5367758e-03 2.2233224e-03 -1.7453739e-03 
2.4503968e-03 2.0266399e-03 3.1915362e-05 
2.4805591e-03 2.2060883e-03 -1.6277974e-03 
2.4227200e-03 2.1745299e-03 -1.4596707e-03 
2.5635422e-03 2.0953913e-03 9.7089849e-04 
2.3733370e-03 2.1303897e-03 -1.2417645e-03 
2.5009953e-03 2.1454620e-03 6.5896357e-04 
2.4282921e-03 2.0902655e-03 -8.6106331e-04 
2.3357794e-03 2.0800710e-03 -9.8303391e-04 
2.4834634e-03 1.9948750e-03 6.8421598e-04 
2.5213948e-03 2.0590238e-03 -2.7773631e-04 
2.5265540e-03 2.0801090e-03 -1.0444234e-03 
2.3085589e-03 2.0208361e-03 -6.9486804e-04 
2.4972584e-03 1.9565697e-03 1.0246246e-03 
2.4569544e-03 2.0980844e-03 4.3247457e-04 
2.3424993e-03 1.9496991e-03 -3.9358951e-05 
2.5315243e-03 2.1277864e-03 -1.7432284e-03 
2.3805983e-03 1.9290457e-03 2.8612488e-04 
2.4167849e-03 1.9224017e-03 5.8699079e-04 
2.4718104e-03 2.1027273e-03 -1.4034124e-03 
2.4130456e-03 2.1067497e-03 -1.3926004e-03 
2.4365042e-03 1.9916494e-03 5.0327071e-04 
2.4617389e-03 2.0459441e-03 -2.3668326e-04 
2.3660574e-03 2.0840785e-03 -1.2689241e-03 
2.4369436e-03 2.1453123e-03 1.0936791e-03 
2.3239090e-03 2.0519975e-03 -1.1057380e-03 
2.4498410e-03 2.0196831e-03 -2.1203066e-04 
2.2924680e-03 2.0134656e-03 -9.0444431e-04 
2.3828996e-03 1.9899337e-03 -9.1334194e-05 
2.4122947e-03 2.0211379e-03 1.2941082e-04 
2.3797431e-03 2.0219483e-03 3.8495418e-04 
2.2272293e-03 1.9232162e-03 -5.3094904e-04 
2.3617258e-03 2.0100013e-03 9.9616032e-04 
2.3304995e-03 1.9530926e-03 1.2537131e-04 
2.2866165e-03 1.9708015e-03 -9.7075157e-04 
2.3076995e-03 1.8175167e-03 7.3891209e-04 
2.4231337e-03 1.9975167e-03 1.6107797e-03 
2.3043558e-03 2.0121781e-03 7.8050926e-04 
2.3445808e-03 2.0583274e-03 1.3963274e-03 
2.3424332e-03 2.0256229e-03 -1.7179048e-03 
2.2727032e-03 1.8300936e-03 4.6365484e-04 
2.3924606e-03 1.9673940e-03 -1.5678159e-03 
2.2645306e-03 1.9193836e-03 -4.0451658e-04 
2.2731221e-03 2.0208098e-03 -1.6316690e-03 
2.2153992e-03 1.9956313e-03 -1.4880096e-03 
2.1343343e-03 1.8416774e-03 -4.4713082e-04 
2.3509366e-03 1.8352583e-03 1.2057222e-03 
2.2909138e-03 1.8323710e-03 8.1354775e-04 
2.1632607e-03 1.9596000e-03 -1.3052366e-03 
2.1196778e-03 1.9138117e-03 -1.0816853e-03 
2.2683453e-03 1.9000245e-03 8.1107364e-04 
2.0883293e-03 1.8599156e-03 -8.2268624e-04 
2.2351714e-03 1.8847599e-03 -8.7703031e-04 
2.1299215e-03 1.7504018e-03 1.0853826e-04 
2.3165785e-03 1.8638920e-03 -1.3274790e-03 
2.1543484e-03 1.7181981e-03 4.8774647e-04 
2.2563923e-03 1.8075242e-03 1.1019601e-03 
2.1163453e-03 1.8799987e-03 -1.1517017e-03 
2.1371939e-03 1.7609732e-03 1.9327601e-04 
2.1604321e-03 1.8565791e-03 4.2294830e-04 
2.1692901e-03 1.9267468e-03 1.1038091e-03 
2.1940626e-03 1.7121618e-03 9.5332001e-04 
2.0848650e-03 1.7844045e-03 -4.0413544e-04 
2.1605699e-03 1.8111849e-03 -8.2795144e-05 
2.0347424e-03 1.7598027e-03 -4.6000021e-04 
2.2264740e-03 1.8805066e-03 -1.6384561e-03 
2.1808043e-03 1.7977646e-03 -1.9655570e-04 
2.2472965e-03 1.7907028e-03 1.4353473e-03 
2.1133348e-03 1.8603199e-03 -1.3197892e-03 
2.1790559e-03 1.7906842e-03 -5.4069533e-04 
2.1334600e-03 1.7108464e-03 5.9811363e-04 
2.1587249e-03 1.7660515e-03 -4.2594239e-04 
2.1374130e-03 1.7675135e-03 5.8791827e-04 
2.1271517e-03 1.8405755e-03 -1.3367464e-03 
2.1192795e-03 1.7793990e-03 -1.3519556e-04 
2.0474961e-03 1.7817185e-03 -7.3354720e-04 
1.9995091e-03 1.7782076e-03 -8.7436958e-04 
1.9746609e-03 1.6655194e-03 -1.4768181e-04 
2.1047341e-03 1.8366943e-03 8.9568808e-04 
2.0888778e-03 1.7863966e-03 3.5692332e-04 
2.0760978e-03 1.7000452e-03 4.4780300e-04 
2.0767599e-03 1.8429472e-03 -1.5944712e-03 
2.0884841e-03 1.7456074e-03 -1.3215074e-05 
2.0214575e-03 1.8259463e-03 -1.4959660e-03 
2.0731057e-03 1.7606997e-03 3.3188812e-04 
2.1137835e-03 1.6995523e-03 -6.9375010e-04 
1.9697573e-03 1.7959041e-03 -1.3454745e-03 
2.0363026e-03 1.7208697e-03 1.2512850e-04 
1.9245058e-03 1.7593156e-03 -1.1542198e-03 
2.1330558e-03 1.7565195e-03 -1.5057774e-03 
2.0038462e-03 1.6199510e-03 3.9811790e-04 
2.0972856e-03 1.7193072e-03 -1.1133151e-03 
2.0194245e-03 1.7765956e-03 7.5006415e-04 
2.0959876e-03 1.7980582e-03 1.4995392e-03 
1.8859445e-03 1.7132375e-03 -9.2483585e-04 
2.0274858e-03 1.7135236e-03 -4.3386681e-04 
2.0153909e-03 1.5810763e-03 6.8194099e-04 
2.0517076e-03 1.7821961e-03 -1.6120300e-03 
2.0843812e-03 1.6238298e-03 1.1731924e-03 
2.0545945e-03 1.7304850e-03 -1.2485501e-03 
1.8602202e-03 1.6600337e-03 -6.7180692e-04 
1.9267697e-03 1.7186610e-03 -1.0221275e-03 
2.0366404e-03 1.6782979e-03 9.9953276e-04 
1.8638036e-03 1.5818747e-03 -1.9585023e-04 
1.9344698e-03 1.6720844e-03 -9.1467681e-04 
1.8320463e-03 1.6231781e-03 -6.5957161e-04 
1.9669868e-03 1.5666889e-03 7.9601683e-04 
1.8904314e-03 1.5093967e-03 4.2223430e-04 
1.7788283e-03 1.5532431e-03 -4.1309217e-04 
1.9234050e-03 1.6252332e-03 1.8137184e-04 
1.9375004e-03 1.5910219e-03 -2.4387539e-04 
1.9186769e-03 1.6010307e-03 3.3469920e-04 
1.8870975e-03 1.6305094e-03 4.0925539e-04 
1.9103772e-03 1.4816917e-03 8.9286105e-04 
1.8744261e-03 1.6739769e-03 9.9710212e-04 
1.9422615e-03 1.6475652e-03 -1.5380748e-03 
1.8291932e-03 1.5305118e-03 5.0473096e-05 
1.8158912e-03 1.6342592e-03 -1.1980989e-03 
1.8042416e-03 1.4821023e-03 1.9314395e-04 
1.8817831e-03 1.6240863e-03 7.1786821e-04 
1.8760457e-03 1.5546341e-03 -2.3522470e-04 
1.7929395e-03 1.6427505e-03 -1.3639588e-03 
1.7444006e-03 1.4568729e-03 -1.5495023e-05 
1.8264486e-03 1.6451305e-03 -1.4850985e-03 
1.8552074e-03 1.6374748e-03 1.0515107e-03 
1.7430085e-03 1.6102769e-03 -1.2060626e-03 
1.8417505e-03 1.6192072e-03 -1.3174199e-03 
1.8549457e-03 1.5464294e-03 -2.5106122e-04 
1.6918266e-03 1.5354342e-03 -7.6598325e-04 
1.8271010e-03 1.5627150e-03 3.2307085e-04 
1.6999807e-03 1.5642748e-03 -1.0054915e-03 
1.8738317e-03 1.5245954e-03 -7.5738464e-04 
1.7590118e-03 1.5348986e-03 -7.3229853e-04 
1.8019185e-03 1.5769014e-03 7.2379399e-04 
1.7244096e-03 1.4888708e-03 -3.6329738e-04 
1.7815636e-03 1.5016639e-03 1.1994242e-04 
1.7558689e-03 1.5549875e-03 7.1979180e-04 
1.7984406e-03 1.5991232e-03 1.2797515e-03 
1.8633354e-03 1.5343911e-03 1.4340080e-03 
1.7797028e-03 1.5003759e-03 -5.8895588e-04 
1.7031755e-03 1.5356421e-03 -1.0621214e-03 
1.7428530e-03 1.3626679e-03 6.3269085e-04 
1.6666694e-03 1.5029672e-03 -9.1113587e-04 
1.7832767e-03 1.5125242e-03 -1.1084365e-03 
1.7854916e-03 1.5589088e-03 -1.5121286e-03 
1.8296588e-03 1.5012093e-03 -1.3785111e-03 
1.7027917e-03 1.4945817e-03 -8.8374707e-04 
1.7852685e-03 1.3756474e-03 1.0553787e-03 
1.7383436e-03 1.3773212e-03 7.2863360e-04 
1.6082440e-03 1.4094071e-03 -4.0608927e-04 
1.7579752e-03 1.4104696e-03 8.9018448e-04 
1.6996403e-03 1.5144575e-03 -1.2210924e-03 
1.6384131e-03 1.3334617e-03 2.0725947e-04 
1.6778498e-03 1.4329047e-03 -4.9482129e-04 
1.6624173e-03 1.3473290e-03 3.2825844e-04 
1.6712658e-03 1.3976746e-03 6.4158870e-05 
1.6692486e-03 1.5000027e-03 9.6298434e-04 
1.6767239e-03 1.4078205e-03 -1.7902988e-04 
1.6739930e-03 1.5002466e-03 -1.4499442e-03 
1.6844412e-03 1.3862089e-03 -2.2943791e-04 
1.6233117e-03 1.4902728e-03 -1.3673633e-03 
1.6360900e-03 1.4223941e-03 3.9477900e-04 
1.6954831e-03 1.3650348e-03 -5.5622874e-04 
1.5728347e-03 1.4642045e-03 -1.2357015e-03 
1.6568234e-03 1.3622639e-03 6.1849970e-04 
1.5301051e-03 1.4279422e-03 -1.0637306e-03 
1.6769918e-03 1.4016950e-03 -1.0318236e-03 
1.6514292e-03 1.2686463e-03 8.2995422e-04 
1.6376487e-03 1.4333377e-03 -1.2066551e-03 
1.4981102e-03 1.3883522e-03 -8.6819171e-04 
1.6880650e-03 1.4298256e-03 -1.4409395e-03 
1.7085656e-03 1.3454050e-03 1.2652342e-03 
1.5111582e-03 1.2744460e-03 -4.2191416e-05 
1.7084216e-03 1.3537862e-03 -1.0881106e-03 
1.5617844e-03 1.2392791e-03 3.9108752e-04 
1.4792181e-03 1.3078714e-03 -3.8855700e-04 
1.6038624e-03 1.2761547e-03 5.2986573e-04 
1.4696703e-03 1.3380749e-03 -6.3893851e-04 
1.6299658e-03 1.3636582e-03 8.1589341e-04 
1.5236094e-03 1.2656054e-03 6.7677654e-05 
1.6061551e-03 1.4123876e-03 8.0016005e-04 
1.5811534e-03 1.3593712e-03 2.9472134e-04 
1.5883188e-03 1.3253381e-03 -5.2996515e-05 
1.5308997e-03 1.3889635e-03 -1.0784947e-03 
1.5717674e-03 1.3375127e-03 2.5979074e-04 
1.4980386e-03 1.3667847e-03 -9.5189677e-04 
1.5483724e-03 1.2640789e-03 3.4927911e-04 
1.4443076e-03 1.2998469e-03 -6.2019279e-04 
1.5312000e-03 1.3013752e-03 1.1561504e-04 
1.5166722e-03 1.3555281e-03 6.8687828e-04 
1.4746112e-03 1.2245643e-03 7.1688795e-05 
1.4944550e-03 1.1581756e-03 5.8888725e-04 
1.5782064e-03 1.2779210e-03 -1.0047460e-03 
1.5643623e-03 1.1956368e-03 1.0212071e-03 
1.5372972e-03 1.3497075e-03 -1.4094339e-03 
1.5821259e-03 1.2968081e-03 -1.2915827e-03 
1.4171980e-03 1.1558293e-03 1.6658592e-04 
1.5246435e-03 1.2439776e-03 -4.1397300e-04 
1.4524453e-03 1.2850642e-03 -7.2358875e-04 
1.5308652e-03 1.2447117e-03 -6.1039976e-04 
1.5227349e-03 1.3030211e-03 -1.1335821e-03 
1.4375327e-03 1.1657986e-03 2.3888452e-04 
1.4651271e-03 1.3368031e-03 -1.3471153e-03 
1.4193215e-03 1.3230490e-03 -1.2428539e-03 
1.4658837e-03 1.2671500e-03 -7.9045468e-04 
1.3739159e-03 1.2966762e-03 -1.1072904e-03 
1.4739186e-03 1.2248092e-03 -6.2738790e-04 
1.4430960e-03 1.2653482e-03 5.8004132e-04 
1.3376024e-03 1.2625090e-03 -9.3245308e-04 
1.4536931e-03 1.2433365e-03 5.3778727e-04 
1.4481635e-03 1.1866783e-03 -2.2099708e-04 
1.4003254e-03 1.1934185e-03 -2.3169279e-04 
1.3046202e-03 1.2154037e-03 -7.2705088e-04 
1.4318364e-03 1.2045015e-03 2.7616011e-04 
1.4035398e-03 1.2280734e-03 3.7647958e-04 
1.3145512e-03 1.1734745e-03 -4.4906678e-04 
1.4153407e-03 1.2895602e-03 9.4494608e-04 
1.4266472e-03 1.1912544e-03 -1.3913181e-04 
1.3462965e-03 1.1770461e-03 -3.6736732e-04 
1.4543501e-03 1.1591590e-03 8.0476812e-04 
1.3073761e-03 1.1029142e-03 -5.1877123e-05 
1.4675851e-03 1.1885728e-03 1.0021494e-03 
1.4007846e-03 1.1837508e-03 -2.8369689e-04 
1.4239023e-03 1.1344878e-03 6.1448454e-04 
1.4304231e-03 1.2391068e-03 9.2676963e-04 
1.3510445e-03 1.0653536e-03 3.7149628e-04 
1.4180498e-03 1.0738826e-03 7.7051669e-04 
1.3378508e-03 1.2268026e-03 -9.7657763e-04 
1.4519915e-03 1.2309118e-03 -1.3382138e-03 
1.3689847e-03 1.0766366e-03 5.0132221e-04 
1.2794909e-03 1.1721613e-03 -6.8119261e-04 
1.3554082e-03 1.1671386e-03 2.6313495e-04 
1.3583663e-03 1.1376718e-03 -6.6266126e-05 
1.3426661e-03 1.2080675e-03 -1.0958607e-03 
1.3645607e-03 1.1984948e-03 -1.1190232e-03 
1.3967762e-03 1.1536821e-03 -9.7925344e-04 
1.2140061e-03 1.0813016e-03 -3.5713200e-04 
1.3272020e-03 1.0984065e-03 2.6712660e-04 
1.3351755e-03 1.1897065e-03 8.1366202e-04 
1.3125760e-03 1.1117570e-03 1.0759875e-04 
1.3724569e-03 1.0784091e-03 -6.3670141e-04 
1.3703982e-03 1.1510607e-03 1.0592393e-03 
1.3201709e-03 1.1923816e-03 -1.3030893e-03 
1.2269702e-03 1.0314538e-03 -1.1840216e-05 
1.2287458e-03 9.9757046e-04 1.5263446e-04 
1.2744097e-03 1.1872679e-03 -1.2313264e-03 
1.3699781e-03 1.0771240e-03 -9.3633402e-04 
1.2272145e-03 1.1630771e-03 -1.1242399e-03 
1.3451324e-03 1.1637395e-03 1.2387572e-03 
1.2648710e-03 1.1425602e-03 6.7508523e-04 
1.3730651e-03 1.0925969e-03 -1.1007384e-03 
1.2771195e-03 9.7313250e-04 5.4539519e-04 
1.3804674e-03 1.1165850e-03 1.2573763e-03 
1.2496368e-03 9.9413504e-04 3.3268632e-04 
1.2252964e-03 1.0841104e-03 -5.1707873e-04 
1.3628618e-03 1.1141207e-03 -1.2181631e-03 
1.1867490e-03 1.1324004e-03 -9.8032423e-04 
1.3147388e-03 1.1548669e-03 -1.3080828e-03 
1.3488388e-03 1.0219094e-03 1.0585849e-03 
1.1560281e-03 1.0970184e-03 -7.9479092e-04 
1.2397300e-03 1.0636471e-03 -3.6806808e-04 
1.3473476e-03 1.0475774e-03 1.1711753e-03 
1.2790075e-03 1.1498991e-03 1.1053411e-03 
1.1190776e-03 1.0405383e-03 -5.7673751e-04 
1.2186151e-03 9.9027099e-04 2.6535444e-04 
1.1999902e-03 1.0726298e-03 -8.0173020e-04 
1.2357717e-03 1.0092381e-03 -2.0538965e-04 
1.2470551e-03 1.0539854e-03 6.5359095e-04 
1.2307282e-03 1.0565793e-03 -7.5189397e-04 
1.1940991e-03 1.0480394e-03 3.5477398e-04 
1.1555847e-03 1.0710441e-03 -8.7393005e-04 
1.1125711e-03 9.4427064e-04 -6.2256840e-05 
1.1156015e-03 9.7952934e-04 -2.6521506e-04 
1.1530395e-03 9.0330665e-04 3.3697288e-04 
1.2482720e-03 1.0115582e-03 -7.7633589e-04 
1.1438380e-03 9.3034469e-04 1.5734551e-04 
1.1501886e-03 9.6419925e-04 8.1214972e-07 
1.2175477e-03 9.8795851e-04 -3.8156923e-04 
1.1003702e-03 1.0038435e-03 -5.5197015e-04 
1.2054805e-03 9.4778935e-04 6.3146045e-04 
1.2033228e-03 1.0267186e-03 -1.0687225e-03 
1.2083753e-03 8.9097139e-04 8.0361671e-04 
1.2395644e-03 9.9985173e-04 1.0565299e-03 
1.1021058e-03 9.5538242e-04 -2.6369130e-04 
1.1328569e-03 9.8024390e-04 3.2319734e-04 
1.1552690e-03 1.0198761e-03 8.0036186e-04 
1.1330226e-03 8.7721465e-04 4.9935613e-04 
1.1254364e-03 1.0379915e-03 -1.2020895e-03 
1.0505903e-03 1.0166956e-03 -1.0001924e-03 
1.0827966e-03 1.0283288e-03 -1.1225557e-03 
1.1309704e-03 9.9558267e-04 -9.9445565e-04 
1.0443949e-03 8.7710452e-04 -1.2028773e-05 
1.0400515e-03 8.4433181e-04 1.3226841e-04 
1.1782696e-03 9.8332728e-04 -1.2022760e-03 
9.8890229e-04 8.9091616e-04 -3.2191712e-04 
1.0965145e-03 1.0045997e-03 8.8028226e-04 
1.1568040e-03 9.0398738e-04 9.0417260e-04 
9.8866399e-04 9.6119219e-04 -8.5055787e-04 
9.7038987e-04 9.2413661e-04 -6.4295466e-04 
1.0674053e-03 8.0313021e-04 5.0272897e-04 
1.1176466e-03 9.1117626e-04 7.3602033e-04 
1.0575425e-03 8.8699249e-04 2.5574715e-05 
1.1133783e-03 9.7792293e-04 -1.2070166e-03 
1.0479158e-03 9.6167740e-04 -9.7830535e-04 
1.1364613e-03 8.3393476e-04 9.4736490e-04 
1.0639358e-03 8.9502236e-04 -1.0689015e-04 
1.1501160e-03 8.6426968e-04 1.0574565e-03 
1.0312960e-03 9.3642506e-04 6.0768728e-04 
1.1524628e-03 8.9642755e-04 1.1339412e-03 
1.1124373e-03 8.5496792e-04 -7.6350482e-04 
1.1285532e-03 8.7809027e-04 -9.3931129e-04 
1.1288468e-03 8.9859049e-04 -1.0722940e-03 
1.0973354e-03 9.6806523e-04 1.1130481e-03 
1.1210392e-03 9.5406367e-04 1.1590789e-03 
1.0220680e-03 8.5501664e-04 -7.1757665e-07 
1.0677497e-03 9.6715376e-04 1.0162084e-03 
1.0785226e-03 8.4127788e-04 -5.4176082e-04 
1.0450227e-03 8.3728577e-04 -2.9648677e-04 
9.9420128e-04 7.8502251e-04 2.6847495e-04 
9.3708409e-04 7.9635764e-04 -6.7279914e-05 
1.0808206e-03 8.9282694e-04 -8.9729606e-04 
1.0330364e-03 8.8488526e-04 4.4220270e-04 
1.0018389e-03 8.8294147e-04 3.2941290e-04 
1.0874021e-03 9.0636627e-04 9.6079824e-04 
1.1147289e-03 9.0146548e-04 1.1539807e-03 
1.0251850e-03 8.6992577e-04 -5.3610379e-04 
1.0635448e-03 8.4748951e-04 -6.8332866e-04 
1.0108842e-03 8.4044843e-04 -3.4839515e-05 
1.0478108e-03 7.8929373e-04 6.6157762e-04 
9.9144818e-04 8.8110520e-04 5.8056694e-04 
1.0138727e-03 9.2231855e-04 -1.1546207e-03 
9.7533321e-04 9.2333154e-04 -1.1021456e-03 
9.4090425e-04 7.7482755e-04 9.6303527e-05 
9.4089145e-04 8.9844194e-04 -9.2778134e-04 
1.0308354e-03 7.8317785e-04 7.9862296e-04 
9.6890447e-04 8.1301044e-04 3.3422382e-06 
8.8033261e-04 8.2496670e-04 -5.6321512e-04 
1.0376393e-03 8.2615088e-04 9.3858619e-04 
8.9527410e-04 7.3027948e-04 9.3458024e-05 
9.3538646e-04 8.4984675e-04 -7.3469547e-04 
9.3529822e-04 8.0828968e-04 2.0007127e-04 
9.4979536e-04 8.6628867e-04 -9.7285234e-04 
9.3274395e-04 7.1270892e-04 4.2931634e-04 
9.6110959e-04 7.6570653e-04 -4.1430199e-04 
9.6308475e-04 7.6509605e-04 5.7788083e-04 
8.5363822e-04 7.4168114e-04 -1.5419064e-04 
9.5414469e-04 8.3842088e-04 7.8275462e-04 
9.2164485e-04 7.7128742e-04 3.1352590e-04 
8.8597182e-04 7.4990862e-04 -1.1659009e-04 
9.1654592e-04 7.4862159e-04 -3.6024619e-04 
7.9044071e-04 7.2211825e-04 -2.8718906e-04 
7.8373897e-04 7.5668370e-04 -5.2026933e-04 
8.0994057e-04 6.8062427e-04 -3.1652475e-05 
7.9691608e-04 7.9654623e-04 -7.2299992e-04 
8.4014528e-04 6.5492786e-04 2.2962404e-04 
8.2616939e-04 8.2498457e-04 -8.8871788e-04 
8.8243117e-04 6.4985553e-04 4.6744038e-04 
8.6525606e-04 8.4140286e-04 -1.0143101e-03 
9.1607030e-04 6.5232615e-04 6.5280235e-04 
9.0088748e-04 8.3550042e-04 -1.0920701e-03 
9.4709644e-04 6.7011087e-04 8.1627414e-04 
9.3120808e-04 8.2077819e-04 -1.1196311e-03 
8.7057002e-04 7.5846707e-04 -4.9532566e-04 
9.6754625e-04 6.9570792e-04 9.3987392e-04 
9.4824249e-04 7.9761975e-04 -1.1074620e-03 
9.7686611e-04 7.2945881e-04 1.0336146e-03 
9.5735118e-04 7.6630979e-04 -1.0464669e-03 
9.7399770e-04 7.5990200e-04 1.0843151e-03 
9.5627934e-04 7.3602342e-04 -9.4607938e-04 
9.5763773e-04 7.8697532e-04 1.0942919e-03 
9.4234402e-04 7.0904102e-04 -7.9557265e-04 
9.3227468e-04 8.0682227e-04 1.0670880e-03 
9.1499719e-04 6.8808009e-04 -6.0761493e-04 
9.0064504e-04 8.1086409e-04 9.8873884e-04 
8.8311243e-04 6.8269455e-04 -3.8732353e-04 
8.6876465e-04 8.0238754e-04 8.7721035e-04 
8.1114686e-04 7.2561728e-04 -4.0992879e-04 
8.5331593e-04 6.9008244e-04 -1.6209995e-04 
8.4492931e-04 7.8461663e-04 7.1278785e-04 
8.3181052e-04 7.0948096e-04 7.6504708e-05 
8.3053007e-04 7.5972138e-04 5.1943795e-04 
8.2811713e-04 7.3808321e-04 2.9854267e-04 
8.5944944e-04 7.5801247e-04 -7.8185758e-04 
8.3450053e-04 7.0134131e-04 -9.3953412e-07 
8.0474612e-04 6.3225994e-04 2.3208944e-04 
7.6636631e-04 7.3080452e-04 -6.2684529e-04 
8.8762399e-04 6.6886179e-04 7.8619568e-04 
8.1388012e-04 6.5306830e-04 2.5882100e-04 
8.7199284e-04 6.9990399e-04 -7.9350121e-04 
8.8562910e-04 7.1024982e-04 8.7423064e-04 
8.6041342e-04 7.1546296e-04 -8.4559491e-04 
8.6432218e-04 6.7690504e-04 -6.8347022e-04 
8.4865332e-04 6.6138821e-04 -5.4401916e-04 
8.1404386e-04 6.5395870e-04 -2.1594037e-04 
7.9728913e-04 7.1086310e-04 4.9123174e-04 
7.9186808e-04 6.6210865e-04 -1.0624702e-05 
7.8686001e-04 7.3669385e-04 -8.8780053e-04 
8.2427578e-04 6.0369913e-04 6.3226628e-04 
7.6003163e-04 6.6418806e-04 2.8209976e-04 
7.6741853e-04 6.4442807e-04 -2.2307252e-04 
8.1234751e-04 6.9465931e-04 8.1825297e-04 
7.9413276e-04 6.9884764e-04 7.6209771e-04 
7.8413024e-04 6.3756132e-04 -4.9232400e-04 
7.7241258e-04 6.9339073e-04 6.7274616e-04 
7.5294479e-04 6.2216015e-04 -1.1326034e-04 
7.7389088e-04 6.3721114e-04 5.7399314e-04 
7.2199904e-04 6.5327913e-04 -6.0110865e-04 
7.7172794e-04 5.2529876e-04 6.7391206e-04 
6.4056151e-04 6.5962033e-04 -7.2662183e-04 
7.9835783e-04 5.5041903e-04 8.0789771e-04 
6.7597441e-04 6.8410579e-04 -8.6525595e-04 
6.7656708e-04 5.7291525e-04 -4.7996753e-05 
7.3547661e-04 6.2891003e-04 4.8946048e-04 
8.1051397e-04 5.7843165e-04 9.0263790e-04 
8.1374677e-04 6.0905534e-04 9.7134546e-04 
8.0570858e-04 6.3943205e-04 9.9729071e-04 
6.9906912e-04 4.9762422e-04 4.2274233e-04 
6.0146791e-04 5.6241179e-04 -2.5546062e-04 
7.9024414e-04 6.0838903e-04 -9.0633519e-04 
7.8545394e-04 6.6426542e-04 9.8338583e-04 
7.5299613e-04 6.7645294e-04 9.3273277e-04 
7.7608641e-04 5.7451276e-04 -7.9019071e-04 
7.4933103e-04 6.6153321e-04 -1.0052923e-03 
7.2369014e-04 6.7717710e-04 8.4616226e-04 
7.0313091e-04 6.7245349e-04 -9.6234970e-04 
6.9068559e-04 6.6181523e-04 7.1824336e-04 
7.6793769e-04 6.2863593e-04 -9.8079862e-04 
7.0241501e-04 5.4826238e-04 -2.4731184e-04 
6.7155866e-04 6.3558255e-04 5.5107870e-04 
5.8761338e-04 6.0201169e-04 -4.9678393e-04 
7.4899837e-04 5.4883328e-04 -6.3064852e-04 
7.2337646e-04 5.3974724e-04 -4.4503191e-04 
6.5689778e-04 5.5198336e-04 2.0945778e-05 
6.8437395e-04 5.8500830e-04 -5.3559954e-04 
6.4516417e-04 5.7998247e-04 2.6232898e-04 
6.1215245e-04 5.9300056e-04 -6.1016536e-04 
7.2047679e-04 5.9337576e-04 7.7657471e-04 
6.4128806e-04 5.5663526e-04 -2.7766166e-04 
5.8289629e-04 4.6747318e-04 8.9457855e-05 
7.0638722e-04 5.5161054e-04 -6.6987507e-04 
6.3719397e-04 5.4425048e-04 1.6073723e-04 
5.6351523e-04 5.1388133e-04 -2.3188566e-04 
6.6880207e-04 5.2207743e-04 -5.2921800e-04 
6.5715250e-04 5.0636107e-04 -4.0160504e-04 
6.4592919e-04 4.9050961e-04 3.8566790e-04 
6.1861292e-04 5.0803978e-04 1.6115153e-04 
6.2393158e-04 5.7094026e-04 -7.3813548e-04 
6.1185879e-04 4.3851449e-04 4.0150844e-04 
6.0949859e-04 5.0773495e-04 1.8987575e-04 
6.5260381e-04 4.5499991e-04 5.8419246e-04 
6.0523982e-04 4.8560099e-04 -1.7158614e-04 
5.9151492e-04 5.4309692e-04 4.6056055e-04 
6.6489819e-04 5.0769345e-04 7.0758624e-04 
6.3207914e-04 5.3248118e-04 -7.1958906e-04 
6.0632447e-04 5.5100757e-04 6.1529997e-04 
6.4598297e-04 4.3210009e-04 7.5183506e-04 
5.3902401e-04 4.3768092e-04 1.0802616e-04 
6.3707080e-04 5.2816415e-04 8.8912941e-04 
6.3552911e-04 4.6693141e-04 -7.7094015e-04 
4.9454306e-04 5.3079135e-04 -7.1062561e-04 
5.5987976e-04 4.1685728e-04 -2.8792440e-04 
6.1952899e-04 4.7800710e-04 -8.3429436e-04 
5.3063338e-04 4.2372083e-04 -8.2106177e-05 
6.3419179e-04 4.4555851e-04 8.2405703e-04 
6.2810810e-04 4.7785800e-04 8.6826074e-04 
5.3341541e-04 5.3146854e-04 6.6357106e-04 
5.8677932e-04 5.2031729e-04 8.4201898e-04 
5.6724658e-04 3.5955489e-04 5.8383611e-04 
5.0237600e-04 4.5900594e-04 -4.1802318e-04 
5.1211566e-04 5.1803823e-04 -8.1009092e-04 
5.8029790e-04 4.0488574e-04 -6.2303618e-04 
5.0789653e-04 3.3612712e-04 3.5821978e-04 
5.3711340e-04 4.4044486e-04 -4.7017593e-04 
4.0797101e-04 4.0164767e-04 -2.1909324e-04 
5.5816089e-04 4.9588102e-04 -8.5854687e-04 
5.5019162e-04 3.8732254e-04 -4.6331575e-04 
4.5630964e-04 4.3293758e-04 -2.9972201e-04 
4.9206050e-04 4.2027506e-04 5.4559052e-05 
4.6695981e-04 4.6963323e-04 4.7495862e-04 
4.8713619e-04 4.0001509e-04 -1.0273963e-04 
4.4961157e-04 4.1942866e-04 2.1101646e-04 
3.8605364e-04 4.3321543e-04 -4.9075251e-04 
4.7513994e-04 4.0116659e-04 -2.6325081e-04 
4.8256898e-04 4.2291952e-04 3.3382667e-04 
5.0177175e-04 3.9581268e-04 4.3210879e-04 
4.0517436e-04 3.6022364e-04 -6.8934722e-05 
4.9214339e-04 4.7476401e-04 7.2429259e-04 
5.1552535e-04 4.2732374e-04 6.5053214e-04 
5.1414053e-04 3.9002611e-04 -5.7264627e-04 
4.3022545e-04 3.6922281e-04 -1.3353887e-04 
4.9246644e-04 3.3208932e-04 5.1038933e-04 
4.1003642e-04 4.1625879e-04 -5.1075051e-04 
4.5371294e-04 3.7366943e-04 1.3508329e-04 
4.3624482e-04 3.3532109e-04 -1.4349166e-04 
4.9572188e-04 3.6417870e-04 6.3498807e-04 
4.4005323e-04 3.4282080e-04 -2.9543953e-04 
3.5450704e-04 2.6959548e-04 9.4787989e-05 
4.2408306e-04 3.3139740e-04 2.3539996e-04 
3.9552580e-04 2.9118609e-04 1.7953497e-04 
4.5650828e-04 3.7772776e-04 -6.3302973e-04 
4.0517398e-04 3.7500227e-04 -5.4784236e-04 
3.6518602e-04 3.4454549e-04 2.4084469e-04 
3.3913195e-04 2.8579804e-04 -1.0494624e-05 
4.3426570e-04 2.5111143e-04 5.7222415e-04 
4.4077996e-04 3.0794236e-04 -6.4755121e-04 
4.5040980e-04 3.1096692e-04 6.8554882e-04 
3.7591506e-04 3.4252816e-04 4.8168865e-04 
3.6397911e-04 2.2591658e-04 3.5731317e-04 
4.1314156e-04 3.6238652e-04 6.9559639e-04 
3.1920543e-04 3.7840247e-04 -5.8832270e-04 
3.3264924e-04 3.6197130e-04 5.0996867e-04 
3.3910634e-04 2.4365740e-04 -1.5331409e-04 
3.8459766e-04 2.3327117e-04 -4.4661324e-04 
3.0859088e-04 2.6274944e-04 2.1201455e-05 
3.0912721e-04 1.7490375e-04 2.7794327e-04 
3.7560015e-04 3.3778470e-04 -6.6746940e-04 
2.5880404e-04 2.6560202e-04 -2.0969250e-04 
2.2365000e-04 2.4679684e-04 -1.7725470e-04 
2.9928406e-04 2.8369919e-04 -2.9832244e-04 
3.0900780e-04 2.6160126e-04 9.9574063e-05 
3.2118766e-04 2.7116254e-04 -1.7165860e-04 
3.3577156e-04 2.6367017e-04 -3.6052405e-04 
3.3285012e-04 2.3701845e-04 -2.3240600e-04 
3.1527248e-04 2.6385483e-04 2.7249558e-04 
2.5224537e-04 2.6147254e-04 1.6358314e-04 
3.3026229e-04 2.6447873e-04 4.3257055e-04 
2.9793679e-04 2.3256302e-04 2.0378904e-04 
2.8299203e-04 2.3478204e-04 3.9273240e-05 
1.9691685e-04 2.7188068e-04 -3.4359790e-04 
2.6498505e-04 2.2058669e-04 2.6194051e-05 
2.7232326e-04 2.6742450e-04 3.1180121e-04 
3.1135645e-04 2.0270246e-04 3.6415507e-04 
2.7355267e-04 2.2066339e-04 -4.4324297e-05 
2.2650749e-04 1.8784494e-04 1.0658750e-05 
2.3774810e-04 2.8194438e-04 -3.9382253e-04 
2.7819007e-04 2.4068065e-04 -4.0138303e-04 
1.6551952e-04 1.2838266e-04 2.4024674e-05 
2.3938315e-04 2.7530413e-04 4.8822750e-04 
2.7273083e-04 1.1958981e-04 3.8231967e-04 
1.9966401e-04 1.9742713e-04 1.6767942e-04 
2.1512063e-04 1.4569014e-04 1.6533234e-04 
1.7335969e-04 2.1937667e-04 3.0988615e-04 
2.9390340e-04 1.6158992e-04 4.9201830e-04 
1.8635286e-04 1.6220848e-04 -9.7180178e-05 
1.6887400e-04 1.5452395e-04 -6.0270031e-05 
2.4044511e-04 1.2001216e-04 3.4153374e-04 
2.0357560e-04 1.3901772e-04 -1.8966322e-04 
1.7491406e-04 1.3857805e-04 5.3529220e-05 
1.6923720e-04 1.4562151e-04 1.4827198e-04 
1.6419496e-04 2.2048556e-04 -4.4487556e-04 
1.6791611e-04 1.2983129e-04 -1.2533418e-04 
1.8757609e-04 1.7071872e-04 3.1739261e-04 
2.3212875e-04 1.1685711e-04 -3.9898450e-04 
1.4419718e-04 1.5244237e-04 2.3456241e-04 
6.9668124e-05 1.1058737e-04 -1.1793731e-04 
1.7015732e-04 1.0917875e-04 2.1550598e-04 
1.5068470e-04 4.8640264e-05 1.9086411e-04 
1.9976462e-04 1.8381746e-04 -4.4128270e-04 
1.1880790e-04 1.3620600e-04 -1.7208311e-04 
1.2566478e-04 5.7533427e-05 -1.2470331e-04 
8.1845472e-05 1.8039257e-04 -3.1804614e-04 
9.2425376e-05 1.1288652e-04 1.1833387e-04 
1.2442438e-04 9.9144294e-05 -2.4672148e-05 
8.0693499e-05 4.6126177e-05 5.6041164e-05 
1.9347084e-04 5.8249741e-05 3.2157727e-04 
1.8639941e-04 1.3868675e-04 4.0061050e-04 
1.3678818e-04 1.7094512e-04 3.6884373e-04 
8.7394801e-05 1.6174982e-04 2.8146899e-04 
1.4394966e-04 6.8267938e-05 -2.3047758e-04 
6.0286344e-05 8.3260536e-05 -9.6588432e-05 
9.1559079e-05 8.3837534e-05 6.3776199e-05 
1.0551036e-04 3.8757491e-05 1.4408308e-04 
9.0501955e-05 7.6812044e-05 -8.4044987e-06 
1.3472645e-04 9.5706993e-05 -2.5311249e-04 
8.0488913e-05 5.4845736e-05 3.7684356e-05 
1.0836966e-04 1.2616246e-04 -2.6330174e-04 
4.0339568e-05 3.5672772e-05 6.9152252e-06 
1.1136400e-04 7.7500197e-05 1.6172300e-04 
8.1589438e-05 7.2369912e-05 -1.1145384e-04 
7.0220703e-05 6.5358792e-05 -3.6904279e-05 
9.6016753e-05 6.7549692e-05 -1.0742396e-04 
1.2377110e-04 5.5024801e-05 2.0329846e-04 
8.9847592e-05 3.7074205e-05 -1.0724596e-04 
9.4650532e-05 1.1694679e-04 2.5181033e-04 
5.5425891e-05 1.0460267e-04 -1.8882488e-04 
5.1245537e-05 5.9169768e-05 4.9715025e-05 
7.5266653e-05 4.6177815e-05 7.7993158e-05 
1.0450285e-04 8.7448687e-05 2.3493414e-04 
6.0852508e-05 9.5252661e-05 1.8249133e-04 
6.0735860e-05 6.1414939e-05 1.2658366e-04 
1.4022549e-04 5.6864952e-05 2.7278144e-04 
3.6561629e-05 5.8790334e-05 9.5482465e-05 
-3.3885276e-06 3.4441568e-05 -6.4744956e-05 
1.3211825e-04 6.0205362e-05 -2.6011391e-04 
-3.2347400e-06 7.6386867e-05 -1.5382520e-04 
6.0248498e-05 -1.7198185e-05 1.0790527e-04 
1.0754250e-04 9.9505552e-05 -2.6231410e-04 
9.2107039e-05 -5.2320015e-06 -1.5115661e-04 
9.6032069e-05 -6.9322100e-06 1.7589996e-04 
4.9611092e-05 1.1206663e-04 -2.1836117e-04 
2.2896073e-05 3.5654095e-06 -2.7510639e-05 
4.0382461e-06 4.3973232e-05 6.8452297e-05 
1.0670726e-04 1.7412494e-05 -1.9608041e-04 
3.8591988e-05 2.8354361e-05 4.6640595e-05 
1.5161820e-05 9.2402159e-05 -1.7580713e-04 
3.8066846e-06 7.2025061e-05 1.3552951e-04 
3.7827951e-05 3.6961831e-06 5.2748856e-05 
3.3354274e-05 4.7198799e-05 -8.3798848e-05 
4.9456357e-05 -1.2864254e-05 -8.5021260e-05 
1.1247370e-04 6.9264155e-05 2.3211887e-04 
1.0564296e-04 1.2087222e-05 1.8832492e-04 
7.3339768e-05 1.0250657e-04 2.2122644e-04 
3.3917291e-05 2.1518139e-05 -2.8112629e-05 
4.8410158e-05 1.0382995e-04 2.0411071e-04 
5.5995806e-05 -1.0863328e-05 9.9929675e-05 
8.8409477e-05 8.1058526e-05 2.1315218e-04 
5.8235699e-05 8.8259831e-06 -1.0563467e-04 
1.4310159e-05 8.1007902e-06 9.9590616e-06 
1.6337695e-05 8.5660220e-05 1.5983687e-04 
4.5522702e-05 3.9286650e-05 9.3274706e-05 
3.2928740e-05 1.9864596e-05 -6.8387475e-05 
6.7708737e-05 2.6762418e-05 -1.3571240e-04 
7.2305054e-05 2.6565887e-05 1.4060437e-04 
2.0894688e-05 -3.0971835e-06 3.6276455e-05 
3.7079339e-05 5.9335205e-05 1.3023184e-04 
-9.3137733e-06 1.3930532e-05 -4.3717242e-05 
2.2445038e-05 -1.8968167e-06 3.8992472e-05 
3.5301597e-05 4.1082898e-05 -1.0872666e-04 
-5.4485517e-06 -1.7117976e-05 1.4971706e-05 
8.1079925e-06 4.4092067e-05 -9.0190260e-05 
-3.7377546e-08 1.6578597e-05 2.5528614e-05 
2.3026618e-05 -5.1458946e-06 -4.5286408e-05 
1.7627101e-05 1.0444178e-05 8.4002550e-06 
7.4346240e-06 1.0562509e-05 2.4514107e-05 
1.6360418e-05 9.5953219e-06 2.5662299e-05 
4.1609917e-05 3.6873476e-05 1.0441273e-04 
-2.5063418e-05 3.4080054e-05 -6.6686400e-05 
5.4042534e-06 3.7710368e-05 7.8600802e-05 
2.1968101e-05 2.8147331e-06 -3.7437709e-05 
2.9806153e-05 -8.8340557e-06 5.7433663e-05 
-2.5552228e-05 7.8201201e-06 -2.8611383e-05 
3.0027399e-05 5.8630761e-05 -1.0914398e-04 
6.7484390e-05 3.2142820e-05 -1.1935241e-04 
2.2458207e-05 -2.6666721e-05 4.7861697e-05 
4.8152164e-05 4.6699872e-05 -1.1212209e-04 
-7.1703143e-06 4.8250742e-05 -7.1807335e-05 
9.6709637e-06 5.8707064e-05 -9.2340699e-05 
6.8057489e-05 5.9519489e-06 -9.8026183e-05 
5.6084689e-05 -1.7209833e-05 -7.7662386e-05 
-1.2320693e-05 -6.1926048e-06 4.4566119e-07 
3.2885197e-05 -2.5218156e-05 -6.0183887e-05 
4.5840330e-05 -2.1950775e-05 7.2763462e-05 
-2.7439796e-06 1.3461619e-05 3.1644566e-05 
5.6688015e-05 -1.0794719e-05 8.4648949e-05 
9.7784450e-06 -2.0749547e-05 -3.0804917e-05 
6.2534207e-05 6.5585914e-06 9.2618116e-05 
-1.4961094e-05 1.2174371e-05 2.7508593e-05 
6.2615742e-05 2.5236606e-05 1.0603457e-04 
1.5697062e-05 2.4984436e-06 4.0143983e-05 
4.9288359e-05 3.8900471e-05 9.2624083e-05 
3.9054623e-05 5.1920993e-05 1.0003986e-04 
2.3687553e-05 5.4231725e-05 9.2958609e-05 
-2.6909283e-06 5.0347417e-06 -1.8673976e-05 
6.6837174e-06 5.3048880e-05 8.3630774e-05 
-7.2189569e-06 4.1723168e-05 6.4001360e-05 
-1.5767686e-05 3.1665517e-05 5.5609209e-05 
1.3441449e-05 -1.4382837e-05 2.7354141e-05 
6.0638940e-06 2.8065617e-06 5.3882968e-07 
2.9175344e-05 -2.3293362e-06 -4.0714367e-05 
2.1120575e-05 -3.3477088e-06 3.6918016e-05 
-8.1115710e-09 1.6008552e-07 3.9637494e-06 
0.0000000e+00 0.0000000e+00 0.0000000e+00 
0.0000000e+00 0.0000000e+00 0.0000000e+00 
0.0000000e+00 0.0000000e+00 0.0000000e+00 
0.0000000e+00 0.0000000e+00 0.0000000e+00 
0.0000000e+00 0.0000000e+00 0.0000000e+00 
0.0000000e+00 0.0000000e+00 0.0000000e+00 
0.0000000e+00 0.0000000e+00 0.0000000e+00 
0.0000000e+00 0.0000000e+00 0.0000000e+00 
0.0000000e+00 0.0000000e+00 0.0000000e+00 
0.0000000e+00 0.0000000e+00 0.0000000e+00 
0.0000000e+00 0.0000000e+00 0.0000000e+00 
0.0000000e+00 0.0000000e+00 0.0000000e+00 
0.0000000e+00 0.0000000e+00 0.0000000e+00 
0.0000000e+00 0.0000000e+00 0.0000000e+00 
0.0000000e+00 0.0000000e+00 0.0000000e+00 
0.0000000e+00 0.0000000e+00 0.0000000e+00 
0.0000000e+00 0.0000000e+00 0.0000000e+00 
0.0000000e+00 0.0000000e+00 0.0000000e+00 
0.0000000e+00 0.0000000e+00 0.0000000e+00 
0.0000000e+00 0.0000000e+00 0.0000000e+00 
0.0000000e+00 0.0000000e+00 0.0000000e+00 
0.0000000e+00 0.0000000e+00 0.0000000e+00 
0.0000000e+00 0.0000000e+00 0.0000000e+00 
0.0000000e+00 0.0000000e+00 0.0000000e+00 
0.0000000e+00 0.0000000e+00 0.0000000e+00 
0.0000000e+00 0.0000000e+00 0.0000000e+00 
0.0000000e+00 0.0000000e+00 0.0000000e+00 
0.0000000e+00 0.0000000e+00 0.0000000e+00 
0.0000000e+00 0.0000000e+00 0.0000000e+00 
0.0000000e+00 0.0000000e+00 0.0000000e+00 
0.0000000e+00 0.0000000e+00 0.0000000e+00 
0.0000000e+00 0.0000000e+00 0.0000000e+00 
0.0000000e+00 0.0000000e+00 0.0000000e+00 
0.0000000e+00 0.0000000e+00 0.0000000e+00 
0.0000000e+00 0.0000000e+00 0.0000000e+00 
0.0000000e+00 0.0000000e+00 0.0000000e+00 
0.0000000e+00 0.0000000e+00 0.0000000e+00 
0.0000000e+00 0.0000000e+00 0.0000000e+00 
0.0000000e+00 0.0000000e+00 0.0000000e+00 
0.0000000e+00 0.0000000e+00 0.0000000e+00 
0.0000000e+00 0.0000000e+00 0.0000000e+00 
0.0000000e+00 0.0000000e+00 0.0000000e+00 
0.0000000e+00 0.0000000e+00 0.0000000e+00 
0.0000000e+00 0.0000000e+00 0.0000000e+00 
0.0000000e+00 0.0000000e+00 0.0000000e+00 
0.0000000e+00 0.0000000e+00 0.0000000e+00 
0.0000000e+00 0.0000000e+00 0.0000000e+00 
0.0000000e+00 0.0000000e+00 0.0000000e+00 
0.0000000e+00 0.0000000e+00 0.0000000e+00 
0.0000000e+00 0.0000000e+00 0.0000000e+00 
0.0000000e+00 0.0000000e+00 0.0000000e+00 
0.0000000e+00 0.0000000e+00 0.0000000e+00 
0.0000000e+00 0.0000000e+00 0.0000000e+00 
0.0000000e+00 0.0000000e+00 0.0000000e+00 
REACTION 3 6166  float
-1.0494367e+00 -1.3503118e-01 -1.7939360e+00 
-4.2511196e+00 1.0358497e+00 -1.0160347e+00 
-3.2435203e-01 -5.2304010e+00 -4.8491478e+00 
-2.9442763e+00 4.0746207e+00 -4.9572668e+00 
-1.3462869e+00 -5.3863168e+00 8.2802987e-01 
-4.8542643e+00 7.2223492e+00 -2.4036341e+00 
-3.8162031e+00 1.1040455e+00 -9.5905536e-01 
4.7695228e-01 -2.7314024e+00 -3.9991224e+00 
3.9583433e-01 -2.3535040e-01 -8.7855663e+00 
-7.0246354e-02 -5.8476009e+00 1.1311947e+00 
-1.7962945e+00 6.6658182e+00 -1.7523981e+00 
-1.2470613e+00 -4.7437701e+00 6.8709791e-01 
-4.3029313e+00 6.4906120e+00 -2.1226315e+00 
-1.2587427e-01 -5.2592096e+00 9.6121091e-01 
-3.7459145e+00 9.4445801e-01 -9.0606803e-01 
1.3994167e+00 -5.1993651e+00 -5.8602729e+00 
-1.6525924e+00 6.0913343e+00 -1.5639485e+00 
5.7433140e-01 1.8707534e+00 -7.3244076e+00 
2.1604986e+00 -8.5264196e+00 2.0087731e+00 
2.0301725e-01 8.4423189e+00 -1.8481462e+00 
-1.3151047e+00 -4.8489652e+00 6.6136533e-01 
-4.1331234e+00 6.2817125e+00 -2.0218444e+00 
-1.5467770e-01 -5.4493070e+00 9.5656961e-01 
-1.6857235e+00 6.2911682e+00 -1.5712936e+00 
-3.5764229e+00 6.0902601e-01 -8.7789941e-01 
1.1299572e+00 -5.4500060e+00 1.1532321e+00 
2.2307966e+00 -6.2936759e+00 -5.1253409e+00 
-2.8524572e-02 5.5513520e+00 -1.1874237e+00 
1.1729602e+00 2.8698432e+00 -6.3175631e+00 
-1.3859777e+00 -4.9513583e+00 6.5609366e-01 
-4.1838365e+00 6.3872471e+00 -2.0262828e+00 
-1.7716314e-01 -5.6410112e+00 9.5358932e-01 
1.7964638e+00 -5.8097706e+00 1.2232958e+00 
1.2391191e+00 -5.8833127e+00 1.2769734e+00 
-1.8506423e+00 6.7099733e+00 -1.5807357e+00 
8.9116627e-01 5.4615340e+00 -1.1006267e+00 
2.5313165e+00 -8.9104147e+00 2.1905622e+00 
2.4172269e-02 5.9938636e+00 -1.2239664e+00 
-3.5788927e+00 4.7353780e-01 -7.7045077e-01 
1.6655130e+00 8.1607027e+00 -1.6276251e+00 
1.7783645e+00 -5.9928818e+00 1.4012079e+00 
9.5451230e-01 5.6973557e+00 -1.0666295e+00 
1.4669093e+00 -5.3615780e+00 -3.9866691e+00 
1.3644599e+00 2.6425633e+00 -4.4042950e+00 
-1.4537646e+00 -5.0567985e+00 5.5698979e-01 
-4.3353915e+00 6.6452165e+00 -1.9889836e+00 
-1.7063099e-01 -5.8206668e+00 9.6823734e-01 
1.1937300e+00 -5.8691769e+00 1.1852220e+00 
-2.0868800e+00 7.2091050e+00 -1.7365471e+00 
5.2817602e-02 5.9823742e+00 -1.1671410e+00 
-3.5493422e+00 3.1719616e-01 -7.9165190e-01 
2.6264589e+00 -9.1474495e+00 2.1291690e+00 
1.7295023e+00 8.6244869e+00 -1.5879257e+00 
1.7866083e+00 -1.9959543e+01 3.9072158e+00 
6.4165580e-01 -9.3671303e+00 1.4769030e+00 
3.3315334e+00 8.2807112e+00 -1.0516789e+00 
6.9533577e+00 1.7858675e+01 -2.8033280e+00 
-3.7788601e+00 5.2224560e+00 -1.6373395e+00 
-1.4873325e+00 -5.1484561e+00 6.0809940e-01 
1.3359429e+00 -6.3358846e+00 1.3010131e+00 
1.8546326e+00 -6.4430757e+00 1.4414204e+00 
-2.2031210e-01 -6.0380478e+00 9.2683291e-01 
8.2310230e-02 -6.3784704e+00 -2.1214495e+00 
2.6376121e+00 4.4357486e+00 -2.1948133e+00 
1.0051436e-01 6.4555645e+00 -1.1889858e+00 
1.1070971e+00 6.1348891e+00 -1.0323646e+00 
-2.7897668e+00 9.0010595e+00 -2.0996683e+00 
-3.6505837e+00 3.5964686e-01 -7.1726292e-01 
1.8563594e+00 -2.2726351e+01 5.3626027e+00 
-1.4802823e+00 -5.2102385e+00 5.2344942e-01 
-4.5561266e+00 6.8312645e+00 -1.9638147e+00 
1.4738923e+00 -6.7161293e+00 1.3515053e+00 
7.7624979e+00 1.9611124e+01 -3.5299206e+00 
-1.9222717e-01 -6.2115932e+00 9.3951821e-01 
2.7762344e+00 -9.6388264e+00 2.2408674e+00 
7.7652082e-02 6.4263258e+00 -1.1472636e+00 
-2.2592435e+00 7.7359123e+00 -1.6573331e+00 
1.9964159e+00 9.2956839e+00 -1.5462898e+00 
-3.7892926e+00 4.5891723e-01 -8.2421684e-01 
8.2669097e-01 -4.8220205e-01 -6.8743545e-01 
4.0845518e+00 -1.4606754e+00 4.9861744e-01 
-1.4180264e+00 -4.1135674e+00 3.9620915e-01 
-4.5730586e+00 6.8063254e+00 -1.9105896e+00 
1.5775069e+00 -6.9679823e+00 1.3454747e+00 
1.8610812e+00 -6.2426600e+00 1.3594673e+00 
1.2672956e+00 6.5988483e+00 -1.0068167e+00 
-2.8061262e-01 -7.4625487e+00 1.0380808e+00 
9.5488295e-02 6.9113231e+00 -1.1651505e+00 
-3.9904470e+00 7.2853231e-01 -7.6942670e-01 
4.7049236e+00 -1.7298207e+00 8.1031400e-01 
2.8647826e+00 -1.5707535e+01 3.2579024e+00 
-2.1182737e+00 7.5342517e+00 -1.6347723e+00 
-7.6859826e-01 -1.2430598e+01 2.8487329e+00 
4.0727005e+00 8.1009254e+00 -1.1198124e+00 
8.2965040e+00 2.1374454e+01 -2.5527515e+00 
-4.7163348e+00 7.0020585e+00 -1.8426259e+00 
-1.6419874e+00 -5.3266754e+00 4.3622240e-01 
2.6690972e+00 -9.2182808e+00 1.8528957e+00 
1.4769225e+00 -6.7494936e+00 1.2156453e+00 
3.0355480e+00 -1.3455975e+00 7.5316942e-01 
-7.6635845e-02 -6.6135449e+00 9.2133516e-01 
2.2407916e+00 9.9429607e+00 -1.4924332e+00 
1.1320046e-01 6.8758044e+00 -1.0538435e+00 
-4.4270787e+00 1.2005922e+00 -9.9645048e-01 
-2.1157207e+00 7.5113955e+00 -1.4919637e+00 
-7.9149318e-01 -1.2439566e+01 1.6219358e+00 
2.1633365e+00 -7.3602676e+00 1.5149028e+00 
-1.6167606e+00 -5.4088221e+00 3.2816225e-01 
-5.0253520e+00 7.3277316e+00 -1.8496779e+00 
1.7593343e+00 -7.2226839e+00 1.3555893e+00 
1.3415197e+00 7.0445838e+00 -9.4259411e-01 
2.5288093e+00 7.2964460e-01 6.1661297e-01 
1.6744983e+00 -2.5191530e+01 4.1061039e+00 
-8.0498144e-02 -6.7586403e+00 8.5380471e-01 
-4.5082231e+00 1.1535026e+00 -1.0616908e+00 
6.7312650e-02 7.3336525e+00 -1.1120125e+00 
9.3737259e+00 2.3025108e+01 -2.9327714e+00 
-2.1820335e+00 7.7412591e+00 -1.3979959e+00 
-1.5864726e+00 -5.5583591e+00 3.2123661e-01 
-5.1507888e+00 7.3946314e+00 -1.8716627e+00 
3.3068867e+00 -1.1320308e+01 2.2924170e+00 
1.7030164e+00 -7.1337514e+00 1.2087628e+00 
4.8024530e+00 2.4939671e+00 -5.3393126e-01 
-4.2206931e+00 6.5623564e-01 -9.8847860e-01 
2.4425800e+00 1.0602791e+01 -1.4424194e+00 
7.8039151e-03 -6.9065194e+00 8.4543455e-01 
1.1235245e-01 7.2246032e+00 -9.7597158e-01 
-2.5986824e+00 8.2825480e+00 -1.4375662e+00 
-1.5760502e+00 -5.4846225e+00 4.2727864e-01 
-5.2577353e+00 7.2055974e+00 -1.8876438e+00 
2.3825994e+00 -7.7868695e+00 1.5625577e+00 
1.4385103e+00 -2.3826010e+01 4.6014886e+00 
2.0216429e+00 -7.6066628e+00 1.3499104e+00 
1.4441483e+00 7.4027596e+00 -8.2428175e-01 
-4.1030130e+00 3.5923588e-01 -8.3702189e-01 
4.8576660e+00 -1.9149364e+00 9.5074254e-01 
1.1442638e+01 2.7687592e+01 -3.0706396e+00 
1.3354117e-01 -7.1533308e+00 8.0817270e-01 
6.4334787e-02 7.7834859e+00 -9.1656846e-01 
-4.5872350e+00 5.5074363e+00 -1.3337862e+00 
-1.4811251e+00 -5.6227703e+00 1.7518687e-01 
-3.8898463e+00 1.0542423e+01 -1.8308861e+00 
3.9073789e+00 -1.4376570e+01 2.8191681e+00 
-4.2442660e+00 4.0004870e-01 -8.4729689e-01 
2.0494833e+00 -7.5156593e+00 1.1953754e+00 
2.4915361e+00 1.1100104e+01 -1.2222060e+00 
1.9928847e-01 -7.3839693e+00 7.4682945e-01 
-1.9042012e-01 7.7235489e+00 -9.1153342e-01 
6.5226987e-02 -1.3829880e+01 2.3404849e+00 
2.3404908e+00 -1.9469303e+00 1.2860563e+00 
-1.4675907e+00 -5.5688481e+00 2.9365486e-01 
-5.6603684e+00 7.3390117e+00 -1.6813871e+00 
-2.9815094e+00 8.6940012e+00 -1.2900383e+00 
2.8766131e+00 -8.1830540e+00 1.5309311e+00 
1.9019492e+00 -2.3003036e+01 3.7801230e+00 
-4.4238405e+00 8.8760233e-01 -8.1760955e-01 
2.4795368e+00 -8.0182905e+00 1.3376603e+00 
1.4665550e+00 7.7387061e+00 -9.1269290e-01 
9.8235331e+00 2.4513910e+01 -2.4667585e+00 
-5.9296718e+00 7.4713035e+00 -1.4742202e+00 
-3.5332944e-02 4.1340705e-02 1.2712510e-01 
-1.4336983e+00 -4.2357168e+00 3.1609677e-02 
3.4329623e-01 -8.7025328e+00 8.3745497e-01 
-1.2915964e-01 8.0466003e+00 -8.3848959e-01 
5.0455432e+00 3.2498088e+00 -5.3992152e-01 
-3.0396042e+00 8.3985157e+00 -1.1827902e+00 
-5.0071473e+00 1.4499578e+00 -9.7942573e-01 
4.5253038e+00 -1.3584799e+01 2.6743329e+00 
2.6926088e+00 -8.2850876e+00 1.2761176e+00 
-6.3076539e+00 7.6780829e+00 -1.5213155e+00 
-1.6417660e+00 -5.4667034e+00 4.9223360e-02 
2.4300978e+00 1.1492553e+01 -9.7025341e-01 
6.9201571e-01 -7.4036369e+00 6.9508117e-01 
-1.6953610e-01 7.8197250e+00 -5.7339340e-01 
-5.2744226e+00 1.4570183e+00 -1.0404751e+00 
4.8673482e+00 -1.1714116e+00 1.0481652e+00 
-3.3922861e+00 8.4544039e+00 -1.0082473e+00 
2.0931616e+00 -2.3509350e+01 4.3634353e+00 
3.2295868e+00 -8.9232216e+00 1.8337301e+00 
-1.4693576e+00 -5.3966570e+00 -1.7145717e-01 
3.5325825e+00 -9.0274744e+00 1.5568818e+00 
1.3509731e+00 7.7224927e+00 -6.4129257e-01 
-6.3491340e+00 7.4800496e+00 -1.2664828e+00 
1.0918313e+01 2.7365395e+01 -2.2877963e+00 
7.2553563e-01 -7.2191734e+00 6.0353768e-01 
-4.9181809e+00 9.4723630e-01 -1.0531557e+00 
-4.3133551e-01 7.9235048e+00 -4.4021788e-01 
5.7159472e+00 -1.6880331e+01 2.9404881e+00 
-3.9738882e+00 8.6830740e+00 -1.0081582e+00 
-1.1697446e+00 -5.1808233e+00 -8.6988427e-02 
-6.9415240e+00 7.2846298e+00 -1.4078386e+00 
2.2733781e+00 -1.4817644e+00 9.6555012e-01 
7.9879187e-02 -1.2575501e+01 2.0149136e+00 
4.1237292e+00 -9.3824215e+00 1.5793186e+00 
9.7406387e-02 4.0206876e-01 5.6986344e-01 
2.5524614e+00 1.2169879e+01 -6.1565048e-01 
-4.6495876e+00 5.6405497e-01 -8.6180431e-01 
1.1408734e+00 -7.3597846e+00 1.9106360e-01 
-8.1029195e-01 8.0749788e+00 -4.3146887e-01 
-1.0590820e+00 -4.9021878e+00 -1.2953211e-01 
-5.6770597e+00 5.2300735e+00 -8.8244337e-01 
5.9242983e+00 -1.3417141e+01 2.4546509e+00 
-5.4558134e+00 9.9750061e+00 -9.7020662e-01 
1.6958333e+00 -1.7183851e+01 2.0332611e+00 
7.1775475e+00 1.7278391e+01 -9.3448782e-01 
4.2210546e+00 2.7908392e+00 -2.1453814e-01 
3.7023544e+00 -7.7960196e+00 1.1627448e+00 
-4.8968077e+00 8.7728059e-01 -7.3242939e-01 
1.9015213e+00 1.0229100e+01 -4.6740896e-01 
1.4016988e+00 -6.6667051e+00 5.1805252e-01 
-7.1814942e+00 7.0794425e+00 -8.4574652e-01 
-1.0270030e+00 -4.8865442e+00 -2.9243100e-01 
-6.9806468e-01 7.5745831e+00 1.4390623e-02 
4.1915526e+00 -7.9821186e+00 1.5626929e+00 
-5.3350463e+00 8.6549807e+00 -3.4606072e-01 
-5.3851018e+00 1.3080037e+00 -1.1255444e+00 
4.7081656e+00 -7.8738279e+00 1.1634521e+00 
5.6700139e+00 1.3611363e+01 -8.7643230e-01 
3.3189371e+00 -1.9096722e+01 3.2897966e+00 
3.4759271e+00 -1.5597131e+00 5.6614494e-01 
1.7418616e+00 9.2687092e+00 -1.3086312e-01 
-8.4283447e+00 7.2139888e+00 -8.1748939e-01 
-1.1553614e+00 -3.0208569e+00 -4.1771933e-01 
2.4649911e+00 -7.7044234e+00 3.9350632e-01 
-1.1446217e+00 7.2148490e+00 1.7999285e-01 
-5.0674295e+00 1.1235248e+00 -7.7137905e-01 
6.2216039e+00 -1.0935301e+01 2.0836322e+00 
-6.1721325e+00 8.4903593e+00 -3.6445135e-01 
5.9677534e+00 -8.3544664e+00 1.2589425e+00 
-8.8475472e-01 -4.1168666e+00 -7.2084349e-01 
-8.3275824e+00 6.7719207e+00 -5.8309299e-01 
1.2256197e+00 8.3716564e+00 1.8934217e-01 
4.8622866e+00 1.2141930e+01 -3.7504163e-01 
3.4264429e+00 -1.6615193e+00 8.0236661e-01 
2.4666340e+00 -5.9894419e+00 1.9041900e-01 
2.7933357e+00 -1.4101246e+01 2.2520792e+00 
-5.1956143e+00 1.1405605e+00 -7.9125690e-01 
-1.6644143e+00 6.6598787e+00 4.5164987e-01 
7.5287890e+00 -1.1163539e+01 1.8678787e+00 
-7.3970968e-01 -3.6398532e+00 -7.2102803e-01 
-6.5896325e+00 4.6337457e+00 -3.9652598e-01 
-8.3591938e+00 9.5307016e+00 -2.0832881e-01 
6.9209414e+00 -8.0497389e+00 1.0472119e+00 
7.0131326e-01 7.5300980e+00 1.3753441e-01 
-5.2214994e+00 1.1713051e+00 -8.5864490e-01 
4.6620345e+00 1.1155454e+01 2.6170772e-01 
3.3156755e+00 -6.9554460e-01 6.2049085e-01 
2.7327354e+00 -5.3312016e+00 1.8819773e-01 
-2.1158071e+00 5.9765973e+00 6.2569785e-01 
3.0434852e+00 -1.1974664e+01 1.2851613e+00 
-6.2922865e-01 -3.0764275e+00 -6.2679797e-01 
-8.7782621e+00 6.0894485e+00 -2.2855693e-01 
8.5476475e+00 -1.0726315e+01 1.9523056e+00 
-7.6298680e+00 7.5962567e+00 4.0142226e-01 
-5.3799934e+00 1.2910271e+00 -8.4532648e-01 
7.7504878e+00 -7.4559031e+00 8.2900459e-01 
-1.5471770e-01 4.8052573e+00 5.5181390e-01 
-6.3724124e-01 -1.9098198e+00 -7.4766028e-01 
-9.9846640e+00 6.4101868e+00 3.0598116e-01 
3.9541457e+00 -5.4051647e+00 -1.8172504e-01 
3.4841156e+00 1.6336732e-01 5.1014984e-01 
-2.5814617e+00 5.2770538e+00 9.2857468e-01 
4.7495532e+00 1.0890925e+01 2.2719759e-01 
3.3051860e+00 -1.1097261e+01 1.1672939e+00 
-5.5346460e+00 1.5137445e+00 -6.8535709e-01 
9.4262486e+00 -9.8967781e+00 1.3213820e+00 
-8.0207138e+00 6.6142983e+00 4.3046650e-01 
8.4544840e+00 -6.5558934e+00 5.5303025e-01 
-9.3688644e-02 5.3761215e+00 8.6366403e-01 
2.5870824e-01 -1.8496070e+00 -7.3101962e-01 
-1.0405415e+01 5.2583046e+00 -2.3300503e-01 
4.1555033e+00 -4.3875718e+00 -2.8791323e-01 
3.3059692e+00 -1.3544986e-01 4.0522426e-01 
-5.6132636e+00 1.7058994e+00 -7.2433424e-01 
-3.2708271e+00 4.8897829e+00 1.3841554e+00 
4.3954363e+00 -9.6231470e+00 1.2831399e+00 
3.3543191e+00 7.0894942e+00 4.3315428e-01 
1.0060289e+01 -7.9966512e+00 1.1549408e+00 
3.4180369e-02 -1.4446881e+00 -1.0685081e+00 
-8.0788603e+00 3.6198342e+00 -2.0384954e-02 
-1.0877183e+01 7.2298274e+00 7.1169096e-01 
9.4630976e+00 -5.4278398e+00 6.8902916e-01 
-7.1007401e-01 4.3972993e+00 1.4460210e+00 
-5.7382936e+00 1.7832832e+00 -7.2630227e-01 
3.8931832e+00 -3.1982491e+00 -1.2128122e+00 
6.0755247e-01 1.7069151e-01 1.1667353e+00 
3.3424473e+00 -1.2065138e+00 4.5782968e-01 
-4.4081693e+00 3.7136471e+00 1.9687759e+00 
5.5055027e+00 -7.1137238e+00 7.2108889e-01 
6.6498023e-01 -8.2696491e-01 -1.2491567e+00 
-1.1316800e+01 4.8382640e+00 7.4274528e-01 
1.0963567e+01 -5.8208466e+00 8.5110587e-01 
2.4123156e+00 3.5361292e+00 8.2630378e-01 
-1.0188523e+01 5.3108301e+00 1.3851498e+00 
-5.9648190e+00 2.0292335e+00 -7.1868002e-01 
1.0181850e+01 -3.9136338e+00 -1.6056438e-01 
-1.0542697e+00 1.8645424e+00 1.7603325e+00 
3.7053958e-01 3.3590382e-01 -5.2667552e-01 
-1.2665151e+01 4.4632473e+00 5.4787058e-01 
6.0767412e+00 -2.7027981e+00 -1.1448101e+00 
3.4645267e+00 -1.6085747e+00 4.3172410e-01 
-5.3020115e+00 2.3944509e+00 1.9122598e+00 
6.3043890e+00 -4.8528986e+00 3.0025235e-01 
-6.8163486e+00 2.4089530e+00 -4.1156378e-01 
1.2194270e+01 -4.2194929e+00 2.3332973e-01 
1.9621661e+00 1.2893029e+00 7.4650794e-01 
7.4464804e-01 -5.7163680e-01 -6.5221906e-02 
-1.0826784e+01 4.3200555e+00 1.7719262e+00 
1.0145806e+01 -2.9319253e+00 -4.9482471e-01 
9.6297359e-01 -2.6898280e-01 -1.7884021e+00 
-1.7532351e+00 -1.2420868e-01 1.9078591e+00 
-1.2611941e+01 4.6666193e+00 9.3346155e-01 
5.9806471e+00 -1.0725414e+00 -1.0140055e+00 
-6.4154873e+00 2.2783155e+00 -5.6354159e-01 
3.5907822e+00 -1.8076104e+00 2.9317445e-01 
-5.3038058e+00 1.2798856e+00 2.3984623e+00 
8.1071548e+00 -4.4574695e+00 2.6150459e-01 
1.3427307e+01 -3.1613181e+00 -1.9524957e-01 
1.5855694e+00 1.4957049e-01 8.7284738e-01 
1.6799029e+00 2.1802126e-01 -1.2936795e+00 
-9.6251688e+00 2.7519610e+00 6.0044020e-01 
-1.3428048e+01 4.2255030e+00 2.0006690e+00 
1.1285476e+01 -2.3000841e+00 -7.0345008e-01 
-6.1525555e+00 2.2741797e+00 -6.7749673e-01 
-2.5636210e+00 -1.7865697e+00 2.6799109e+00 
6.9613910e+00 -1.5385457e+00 -1.3320963e+00 
3.9295270e+00 -1.8701978e+00 3.0355206e-01 
1.5891351e+00 1.1241497e+00 -1.3672912e+00 
-1.3536060e+01 3.5834882e+00 1.0220937e+00 
-6.3396544e+00 4.1680124e-01 2.3386557e+00 
1.2342143e+00 -6.0643246e-03 8.8059115e-01 
1.0758894e+01 -4.0307779e+00 4.4491020e-01 
1.3906021e+01 -2.2010472e+00 -3.2746813e-01 
-6.8788757e+00 2.5539939e+00 -3.8084778e-01 
-1.1880589e+01 3.0487165e+00 2.5084550e+00 
1.1118445e+01 -1.2690438e+00 -7.8509778e-01 
-2.7633097e+00 -1.9485372e+00 1.6629388e+00 
6.6840428e-01 7.8191638e-01 -1.4076697e+00 
-1.3779636e+01 4.0595613e+00 1.5901320e+00 
7.8622675e+00 4.0436838e-02 -2.1725066e+00 
2.9304945e+00 -9.4703168e-01 6.1654729e-01 
-5.9118738e+00 -1.0962178e+00 2.5067449e+00 
-6.5967879e+00 2.4869363e+00 -4.5312586e-01 
9.3586349e+00 -7.3782718e-01 -2.2209388e-01 
-9.1063166e-01 -2.3931170e+00 2.1710911e+00 
4.5723782e+00 -2.4333754e+00 8.7192342e-02 
1.2125951e+01 -2.0067487e+00 -5.7891005e-01 
-1.3534279e+01 2.4868650e+00 2.2677789e+00 
2.3088553e+00 1.4860035e+00 -1.9762491e+00 
-1.0488679e+01 2.3383090e+00 9.5967537e-01 
1.0761744e+01 4.5370778e-01 -1.1807097e+00 
-3.0405555e+00 -4.1761198e+00 2.2157147e+00 
-6.6457791e+00 2.5914476e+00 -2.2676384e-01 
6.8946137e+00 1.2294061e+00 -1.4571228e+00 
2.3080649e+00 -7.4524343e-01 1.0315051e-02 
-5.8126140e+00 -2.3818066e+00 2.7218430e+00 
-1.4120019e+01 3.3427646e+00 1.9008839e+00 
1.8063490e+00 1.5544757e+00 -1.9184570e+00 
1.1676875e+01 4.5163700e-01 -7.1218401e-01 
5.8556294e+00 -2.7119849e+00 -4.2831147e-01 
7.1877301e-01 -2.2453783e-01 5.5350971e-01 
-1.2431643e+01 1.5655289e+00 2.7637236e+00 
-2.0947039e+00 -1.8761338e+00 1.2567841e+00 
1.1132030e+01 1.2781588e+00 -1.3087286e+00 
-8.6358376e+00 3.1752148e+00 -2.5625581e-01 
9.8220205e+00 -1.9273483e+00 -1.1909334e-01 
-3.0775001e+00 -5.0396628e+00 2.5964499e+00 
6.7759115e-01 2.3461778e+00 -1.3466623e+00 
8.5901203e+00 2.3291249e+00 -2.0200233e+00 
2.4686849e+00 -9.5062077e-01 2.5672826e-01 
-6.2351022e+00 -3.2009108e+00 2.5262380e+00 
-1.6241589e+01 3.0966980e+00 2.3716645e+00 
1.2351068e+01 1.1223080e+00 -1.2499024e+00 
-6.4353385e+00 2.5702288e+00 -2.2775772e-01 
5.2905860e+00 -1.5249844e+00 -3.0363613e-01 
2.2513473e-01 -1.0259891e+00 1.0357237e+00 
-1.0481226e+01 -4.8814255e-01 1.7986510e+00 
1.1595826e+01 1.6771586e+00 -1.5385224e+00 
2.3537529e+00 3.3335106e+00 -1.3892765e+00 
-9.5138435e+00 1.8124763e+00 9.1043264e-01 
-2.2616837e+00 -4.1550922e+00 2.1815925e+00 
1.0010546e+01 5.7911986e-01 -7.1952462e-01 
-2.9318802e+00 -6.1084251e+00 2.4349773e+00 
5.5259740e-01 1.2725017e+00 6.6318542e-01 
7.2423654e+00 2.4830911e+00 -2.2032254e+00 
-6.0434227e+00 2.8294611e+00 -1.0921951e-01 
2.3825433e+00 -1.0111207e+00 1.8682265e-01 
-9.0297556e+00 2.2813375e-01 1.5972103e+00 
-7.4071126e+00 -3.3711874e+00 2.0100877e+00 
1.2881557e+01 2.7822669e+00 -5.3320146e-01 
5.3232117e+00 6.4394444e-01 -4.2443424e-01 
1.7902140e-01 -3.5713422e+00 1.1180800e+00 
2.6165164e+00 3.5187051e+00 -2.2554452e+00 
-1.0523301e+01 1.7247689e+00 1.7785782e+00 
1.3214992e-01 1.2902633e+00 5.9560233e-01 
-8.4603910e+00 -2.0245850e+00 1.9587309e+00 
2.0426700e+00 5.3357399e-01 8.7796128e-01 
1.0085270e+01 1.8580530e+00 -1.8921437e+00 
-1.6542872e+00 -7.2830100e+00 2.1432595e+00 
1.0356989e+01 3.0426753e+00 -7.0648456e-01 
-4.6758571e+00 -6.5604544e+00 2.4326994e+00 
-5.3116107e+00 2.7732158e+00 -3.5083762e-01 
-1.0444880e+01 -6.5886599e-01 1.8425682e+00 
7.4058447e+00 3.2621579e+00 -2.4451845e+00 
-9.5772219e+00 1.2404795e+00 1.2459092e+00 
-7.2473989e+00 -4.4834208e+00 3.3460717e+00 
2.3310528e+00 -1.1165206e+00 1.3621268e-01 
-3.6246502e-01 2.1604578e+00 4.3732241e-02 
3.1123288e+00 5.2668099e+00 -1.6316233e+00 
1.3635241e+01 2.5734477e+00 -1.8490419e+00 
5.8048401e+00 2.5413532e+00 -7.6360142e-01 
8.8421345e-02 -6.0369453e+00 1.5567302e+00 
-5.6999745e+00 3.2196720e+00 -1.5439060e-01 
-1.3018208e+01 -3.0422845e+00 2.7070863e+00 
1.2486293e+01 2.4678388e+00 -1.9097397e+00 
-3.8644695e+00 -8.2778301e+00 2.9790809e+00 
-3.8049817e+00 -8.4434128e+00 2.4359925e+00 
1.2186481e+01 4.6530929e+00 -1.5018033e+00 
1.5416160e+00 4.6042819e+00 -1.7523298e+00 
1.5990678e+00 2.2786982e-02 5.9308809e-01 
-1.5106666e+01 1.4334342e-01 2.5448253e+00 
8.0676718e+00 5.6347556e+00 -2.9288054e+00 
-8.4645691e+00 -3.2857523e+00 2.4291995e+00 
2.3291321e+00 -1.1796275e+00 1.4987221e-01 
1.4181249e+01 4.6872764e+00 -8.3336645e-01 
-5.8137360e+00 3.3546290e+00 -7.9867870e-02 
-8.5742083e+00 -5.7550633e-01 1.4536610e+00 
1.4676169e+00 1.2446185e+00 9.0069717e-01 
1.0224261e+01 2.7843144e+00 -2.1595774e+00 
-9.1197882e+00 -2.8419280e+00 2.1298077e+00 
5.9231267e+00 3.5388067e+00 -1.0238457e+00 
-2.9945606e-01 -6.9215345e+00 1.3717171e+00 
2.8809163e-01 7.9111683e-01 2.5807539e-01 
4.6870866e-01 -6.1830020e-01 1.5416954e-01 
2.6951301e+00 6.0608606e+00 -2.3158090e+00 
-1.0556252e+01 5.3684449e-01 1.7477106e+00 
-5.2273841e+00 -1.0921725e+01 3.1490560e+00 
-3.0763266e+00 -9.7553825e+00 2.6666033e+00 
1.2466353e+01 4.9259315e+00 -1.8792948e+00 
7.2329535e+00 5.2369161e+00 -2.6764071e+00 
-5.5838079e+00 3.1854582e+00 -8.1042022e-02 
-8.6934414e+00 -1.3858956e+00 1.7571056e+00 
-7.5950303e+00 -6.0258484e+00 2.7789357e+00 
1.4770237e+01 7.2636528e+00 -1.8342175e+00 
2.2922037e+00 -1.2013296e+00 1.0035023e-01 
3.0848982e+00 6.3167067e+00 -2.4889047e+00 
-1.0599894e+01 3.9721590e-01 1.6932994e+00 
1.2066946e+00 1.1142858e+00 6.9434470e-01 
1.0409037e+01 4.6801753e+00 -2.0399802e+00 
-8.9051342e+00 -3.1189625e+00 2.0718737e+00 
5.8551283e+00 3.9593465e+00 -9.7381210e-01 
-5.5915183e-01 -7.3173575e+00 1.2533921e+00 
-5.4143124e+00 3.6095607e+00 -2.5730121e-01 
-5.3301125e+00 -8.8602276e+00 3.0275474e+00 
-9.0609484e+00 -1.3101964e+00 1.7592541e+00 
7.4150028e+00 5.5311308e+00 -2.6383631e+00 
-3.3903525e+00 -1.3581429e+01 2.5001028e+00 
1.2479779e+01 5.5232296e+00 -1.9303260e+00 
-1.0262290e+01 8.1384301e-02 1.8544176e+00 
-8.7123032e+00 -4.9823961e+00 3.5698538e+00 
1.4963373e+01 6.3915868e+00 -2.8142943e+00 
2.6566215e+00 7.0810432e+00 -2.1716361e+00 
1.2668320e+00 -1.1724376e-01 -3.7243474e-01 
2.2235067e+00 -1.1954018e+00 8.1581846e-02 
-5.3889437e+00 3.6362262e+00 -8.6810425e-02 
1.1063500e+01 5.1392541e+00 -2.1867719e+00 
-7.8100972e+00 -8.8341630e-01 1.7791984e+00 
-1.1296618e+01 -2.1482544e+00 3.7206106e+00 
5.9632578e+00 4.4700899e+00 -9.5999837e-01 
-6.4631504e-01 -7.6639690e+00 1.3185458e+00 
-3.8821590e+00 -1.2833937e+01 2.5344837e+00 
1.9358448e+00 5.1672206e+00 -1.4857630e+00 
-1.0480043e+01 -5.2580163e-02 1.9419124e+00 
8.5160208e+00 6.9633512e+00 -2.6478925e+00 
1.2591097e+01 6.7745566e+00 -2.0162487e+00 
-4.1534986e+00 -1.2268833e+01 2.8671410e+00 
1.3699796e+01 7.4471960e+00 -2.8223219e+00 
-7.1995387e+00 -7.0843511e+00 1.9867742e+00 
-5.3762751e+00 3.8039598e+00 -1.2409297e-01 
-8.1913862e+00 -2.2357850e+00 2.1191578e+00 
2.1564152e+00 -1.2045410e+00 4.4941284e-02 
1.1821691e+01 4.9938650e+00 -2.2814088e+00 
3.1679759e+00 7.1218600e+00 -2.3672035e+00 
-8.5867119e+00 -5.2234039e+00 2.1373332e+00 
-3.0009535e-01 2.8395586e+00 7.2068596e-01 
-1.0714116e+01 6.5591210e-01 2.0829349e+00 
-4.4251528e+00 -1.3067828e+01 3.1677320e+00 
6.8320346e+00 5.6413307e+00 -9.9545395e-01 
-6.9701958e-01 -8.7866774e+00 1.1087154e+00 
7.5087719e+00 5.7631316e+00 -2.6452348e+00 
-5.1168532e+00 4.5078177e+00 -1.9492505e-01 
-9.2375612e+00 -2.4096744e+00 1.9824216e+00 
1.2917912e+01 7.9326644e+00 -2.2078578e+00 
-8.1986780e+00 -5.7117043e+00 2.9080775e+00 
-4.2067571e+00 -1.3076091e+01 2.3127177e+00 
1.2758903e+01 8.2326803e+00 -2.9501610e+00 
1.2402933e+00 1.6397996e+00 -6.0975629e-01 
3.3880873e+00 8.0405846e+00 -2.6262045e+00 
-1.0702651e+01 5.3468806e-01 2.0584424e+00 
1.2034011e+01 3.7968183e+00 -2.3141258e+00 
2.1005969e+00 -1.1910695e+00 -5.4148943e-03 
-8.2920647e+00 -5.5403557e+00 2.8482928e+00 
-4.9787683e+00 4.4023604e+00 -8.6438254e-02 
-8.9134121e+00 -2.5236325e+00 1.7943677e+00 
-4.0825644e+00 -1.4063666e+01 2.4227221e+00 
5.4739861e+00 8.6469278e+00 -2.8538251e+00 
7.4318218e+00 5.3357248e+00 -1.0600654e+00 
-7.5324643e-01 -7.9142547e+00 7.7453494e-01 
1.0140529e+01 5.9837103e+00 -1.6967367e+00 
-1.0374959e+01 -2.3829500e-01 1.9694108e+00 
-5.4346805e+00 -8.3646650e+00 3.0524430e+00 
3.9077628e+00 7.7635412e+00 -2.3101034e+00 
1.5616883e+01 8.5674181e+00 -2.6242580e+00 
-4.0920143e+00 -1.2163663e+01 1.8974391e+00 
1.0385450e+01 5.6717601e+00 -2.3428929e+00 
-5.1981330e+00 3.8211637e+00 1.0756654e-01 
-7.3930421e+00 -1.5600888e+00 1.5228846e+00 
-1.1267735e+01 -3.4047875e+00 2.2108126e+00 
2.0244427e+00 -1.0965000e+00 -1.0856683e-01 
-5.0851140e+00 -1.3274981e+01 3.1351662e+00 
1.5531510e+00 -1.5450746e-01 3.8204563e-01 
2.1161582e+00 5.5930061e+00 -1.9304560e+00 
8.0215225e+00 7.2281561e+00 -3.1648793e+00 
-1.0101130e+01 -3.4771404e-01 1.8853520e+00 
-1.6871208e-01 2.4227252e+00 -5.3544545e-01 
2.3494060e+00 3.8818392e-01 -2.4986798e-01 
6.9490614e+00 2.5109208e+00 -5.3683448e-01 
-6.4487290e-01 -5.8048172e+00 4.4224012e-01 
-8.2903891e+00 -8.0082960e+00 2.4574442e+00 
1.7438057e+01 7.9128809e+00 -3.4420860e+00 
-5.1117311e+00 3.2668462e+00 1.4395912e-01 
-8.8872137e+00 -1.8904650e+00 2.0809841e+00 
9.9388914e+00 5.6880965e+00 -2.9531898e+00 
-4.6991496e+00 -1.1604129e+01 2.6954503e+00 
-8.8671646e+00 -4.4853015e+00 2.3348701e+00 
4.2136865e+00 6.8100071e+00 -2.2442012e+00 
-5.8240205e-01 2.8968201e+00 8.7661737e-01 
-1.0253098e+01 -9.5085301e-02 1.9649663e+00 
1.3535022e+01 6.0501037e+00 -1.9928228e+00 
-5.3448024e+00 -1.2808032e+01 2.9634082e+00 
2.0371242e+00 -1.0683304e+00 1.1259629e-02 
7.6548147e+00 5.8033791e+00 -2.8227825e+00 
-4.8986621e+00 3.6646297e+00 -5.1052921e-02 
8.5470219e+00 5.8427124e+00 -2.2869964e+00 
-8.9619036e+00 -1.9963012e+00 2.4186499e+00 
-5.2107511e+00 -7.8220758e+00 2.1051922e+00 
4.1051807e+00 3.3808041e+00 -3.3646330e-01 
-1.0910516e+00 -7.0592461e+00 7.7436614e-01 
3.2200911e+00 8.4321880e+00 -2.1651073e+00 
-1.0205617e+01 3.4902263e-02 2.0533633e+00 
8.4916697e+00 5.1900997e+00 -1.7192736e+00 
1.5808254e+00 -3.6437675e-01 -9.3975174e-01 
-9.5402260e+00 -3.2385979e+00 3.1636443e+00 
-5.8727646e+00 -2.0995779e+01 3.4846632e+00 
1.5407591e+01 1.0201920e+01 -3.0554969e+00 
-4.6730056e+00 4.4859614e+00 -1.1855491e-01 
-6.2178063e+00 -1.4388103e+01 3.8183455e+00 
-9.0063229e+00 -2.5538363e+00 2.2605715e+00 
7.0203681e+00 6.1345949e+00 -2.0976427e+00 
2.6373508e+00 -5.4812986e-01 -1.9065902e-01 
1.2029555e+01 5.4672694e+00 -2.0511415e+00 
-6.1783943e+00 -6.0593610e+00 2.4280798e+00 
-1.0250593e+01 1.5102150e-01 1.9353563e+00 
8.7944345e+00 7.7750640e+00 -1.0010368e+00 
4.2194433e+00 7.3180132e+00 -2.4649034e+00 
-6.7647904e-01 -7.1299272e+00 3.7663272e-01 
4.2682853e-01 1.2075372e+00 -2.8602523e-01 
8.7439594e+00 4.0451860e+00 -1.9282694e+00 
-4.6797538e+00 4.4964547e+00 -9.5059000e-02 
-7.8315945e+00 -1.1516980e+00 1.8925329e+00 
-1.0277281e+01 -5.2046976e+00 2.8385601e+00 
6.5590363e+00 5.7996941e+00 -2.6369233e+00 
7.3324366e+00 7.1761117e+00 -1.8500025e+00 
1.2924185e+00 2.5295944e+00 -1.1024873e-01 
-5.5173454e+00 -7.4039373e+00 1.8824567e+00 
-9.7291117e+00 -2.2383779e-01 2.1207778e+00 
9.1757393e+00 2.7958879e+00 -1.5080272e+00 
3.3055785e+00 7.6553941e+00 -2.4661896e+00 
2.5635667e+00 -5.6188488e-01 -9.2827991e-02 
-5.8351278e+00 -6.9935236e+00 2.5864227e+00 
1.8511084e+01 6.8011518e+00 -3.0705912e+00 
-1.4666218e+00 2.0984173e+00 1.4835490e-01 
-4.7203827e+00 3.5617800e+00 2.7538061e-01 
-8.6998587e+00 -1.7823395e+00 2.0071244e+00 
7.3574929e+00 4.8786449e+00 -1.8971983e+00 
-7.1243939e+00 -2.3596722e+01 3.8550968e+00 
5.4769983e+00 7.1617732e+00 -7.8165054e-01 
-9.4847870e+00 -4.4307880e+00 2.6044471e+00 
-2.0054567e+00 -1.6213413e+01 1.4631374e+00 
-2.8972894e-01 1.5053997e+00 3.1815255e-01 
2.9308627e+00 4.8007302e+00 -1.6026497e+00 
-9.8469486e+00 -1.8648671e-01 1.9579931e+00 
7.3089714e+00 7.7188435e+00 -2.9105203e+00 
-5.2866211e+00 -1.1145011e+01 2.3080096e+00 
1.3028360e+01 5.3350868e+00 -2.6626849e+00 
9.2555017e+00 9.1822681e+00 -1.6733059e+00 
-4.5892596e+00 3.3704107e+00 9.3022980e-02 
-9.3032026e+00 -1.8746040e+00 2.4933155e+00 
-6.4001961e+00 -6.4047365e+00 2.1756589e+00 
2.7266011e+00 6.9111139e-01 -4.1587952e-01 
1.7464061e+00 -2.1519396e+00 -3.7954789e-02 
7.0874443e+00 5.3802872e+00 -2.2637479e+00 
3.5971689e+00 8.1593227e+00 -2.2506561e+00 
-9.6210947e+00 3.7832689e-02 2.1047661e+00 
-1.5634486e-01 1.0699157e+00 -1.7616671e-02 
-9.7204714e+00 -4.2104096e+00 2.6087451e+00 
6.4484811e+00 6.5682635e+00 -2.0442286e+00 
5.2502155e+00 4.8912520e+00 -5.1885498e-01 
-3.9072573e+00 -7.6083326e+00 1.8113056e+00 
-4.2983689e+00 4.2021470e+00 -7.9406232e-02 
-8.5830402e+00 -2.6749005e+00 2.4148626e+00 
-2.6128645e+00 -1.6594366e+01 9.4925326e-01 
9.4589634e+00 3.0969052e+00 -2.8330190e+00 
-3.8506527e+00 -1.9235298e+01 2.3020296e+00 
-6.4190826e+00 -5.7211461e+00 2.6296966e+00 
1.9238726e+01 1.1196926e+01 -3.4740155e+00 
6.3702092e+00 4.8298774e+00 -1.2909306e+00 
-9.8774252e+00 6.2807089e-01 1.9712220e+00 
4.2280521e+00 8.0734072e+00 -2.5967164e+00 
8.0871325e+00 3.3707674e+00 -2.3928192e+00 
2.2597233e-02 1.7404432e+00 -1.9057460e-01 
1.4643170e+00 -1.3180475e+00 -4.2055207e-01 
-9.0877218e+00 -4.5859528e+00 2.6536739e+00 
-4.1569815e+00 4.5468607e+00 -7.1645893e-02 
-9.0630407e+00 -2.0579994e+00 2.1698966e+00 
6.1873932e+00 6.1893649e+00 -2.9102068e+00 
-4.2917628e+00 -9.6607237e+00 2.3835499e+00 
2.3860393e+00 4.0796787e-01 -7.3925453e-01 
1.0202204e+01 7.2304697e+00 -3.0288587e+00 
5.0886583e+00 3.3373690e+00 -1.6984379e-01 
-1.8132004e-01 -5.0207472e+00 -3.0832112e-01 
-9.4765577e+00 5.0886834e-01 2.1680040e+00 
-5.5853963e+00 -7.3771009e+00 2.2173753e+00 
2.5322981e+00 1.2978027e+00 -3.5376254e-01 
4.3511553e+00 8.1992683e+00 -2.6297081e+00 
5.3074908e+00 5.8193827e+00 -2.1285577e+00 
-3.5180926e+00 -1.0192883e+01 7.5517887e-01 
-4.4224734e+00 3.6150131e+00 4.1307998e-01 
9.4242687e+00 5.5292764e+00 -1.1766937e+00 
-6.3977537e+00 -1.5528603e+00 1.3943168e+00 
-1.0572937e+01 -4.6620193e+00 2.8231623e+00 
4.9456754e+00 6.6147509e+00 -1.9818996e+00 
1.7868762e+00 -9.9064875e-01 -2.0474423e-01 
-2.6493340e+00 -7.9109230e+00 1.4082543e+00 
1.3510580e+00 3.4517915e+00 -1.2487069e+00 
-9.1570282e+00 -1.1331881e-01 1.8019454e+00 
-4.0054989e+00 -1.7370028e+01 2.7390106e+00 
7.9557295e+00 3.1325738e+00 -2.1735048e+00 
-6.3240156e+00 -6.2257624e+00 2.0770261e+00 
-4.4869657e+00 2.7861431e+00 4.9186441e-01 
6.5161985e-01 9.6307504e-01 -7.6339549e-01 
4.5957088e+00 2.5727644e+00 8.9187741e-02 
-6.1836594e-01 -5.5404344e+00 -5.5952919e-01 
4.0212240e+00 5.2263918e+00 -1.9057409e+00 
-9.3014975e+00 -9.2914623e-01 2.2613220e+00 
7.7011924e+00 1.8960819e+00 -1.9576830e+00 
-6.1581302e-01 1.2200161e+00 5.1910007e-01 
1.6661738e+00 3.3474586e+00 -6.1697674e-01 
1.4157330e+00 3.7686839e+00 -1.0480069e+00 
2.0599981e+01 1.3533564e+01 -4.8679490e+00 
-8.5984001e+00 -7.2110027e-02 2.0965648e+00 
-8.7587080e+00 -3.5169919e+00 2.7346132e+00 
8.3920059e+00 6.5773773e+00 -9.0604365e-01 
-1.5062613e+00 -9.0243206e+00 5.8466578e-01 
5.0987973e+00 5.9647913e+00 -2.0052617e+00 
-5.3771482e+00 -1.8499054e+01 3.3082480e+00 
1.0911196e+01 9.0295296e+00 -3.2254360e+00 
1.7385448e+00 -9.6517396e-01 -2.3850608e-01 
-3.9990849e+00 3.3463511e+00 1.5515897e-01 
-1.1114718e+01 -2.0354354e+00 3.4449661e+00 
2.2316167e+00 1.0483766e+00 -1.3784394e+00 
-5.2316089e+00 -8.5342073e+00 2.7200186e+00 
7.1105318e+00 5.7401757e+00 -2.4283772e+00 
4.9971433e+00 1.0011196e+01 -3.1534438e+00 
-1.1530685e+01 2.4843419e-03 2.6764591e+00 
5.8699908e+00 3.7434335e+00 -1.1907145e-03 
-9.6094245e-01 -9.1446552e+00 -5.1990664e-01 
-1.3355905e-01 8.9602643e-01 1.8034039e-02 
-9.3234806e+00 -4.1317210e+00 2.3364053e+00 
-3.1981907e+00 -1.6315561e+01 2.1328235e+00 
7.0815516e+00 4.3158112e+00 -2.2474623e+00 
-5.1113796e+00 4.5310121e+00 3.7002307e-01 
2.6073847e+00 1.4608047e+00 -1.2710088e-01 
4.1897765e-01 4.2904693e-01 -2.7227616e-01 
2.1075048e+00 -1.1161357e+00 -3.2454535e-01 
-3.3549855e+00 2.0960016e+00 3.5026196e-01 
1.7832069e+00 6.2679319e+00 -1.8321375e+00 
-1.1160488e+01 -5.0852820e-02 2.7107229e+00 
4.3546405e+00 5.7898507e+00 -2.1186848e+00 
-1.4552655e+01 -4.0386972e+00 4.5040612e+00 
1.3962703e+00 6.0074625e+00 -1.7913970e+00 
-5.1695623e+00 -2.4550664e+00 1.6555430e+00 
7.7341933e+00 5.7691784e+00 -2.1595855e+00 
-8.5093527e+00 -4.7783766e+00 2.6023962e+00 
1.6049324e+01 1.0533049e+01 -5.4262109e+00 
-3.0793350e+00 -1.6123075e+01 3.3167162e+00 
1.0725121e+01 8.2566452e+00 -2.7618194e+00 
-3.0915136e+00 -1.6195721e+01 2.3872507e+00 
1.4925845e+01 9.8819380e+00 -2.5102367e+00 
-1.9909042e+00 -1.0446992e+01 2.8490400e-01 
4.3900819e+00 -7.9777604e-01 1.1025628e+00 
4.7434944e-01 -2.2530401e+00 -1.6614808e+00 
-5.1764526e+00 3.9378071e+00 2.5905046e-01 
1.2314982e+00 -5.8820117e-01 -1.7546302e-01 
7.8842268e+00 3.8824296e+00 -1.7438718e+00 
2.4889123e+00 8.9438400e+00 -2.0667868e+00 
-1.1742005e+01 4.7569558e-02 2.9456136e+00 
-8.4450264e+00 -5.1857781e+00 2.9971673e+00 
2.8668368e-01 3.8464391e+00 -1.1571668e+00 
-4.4311471e+00 -1.0690154e+01 2.0694184e+00 
-1.1005568e+01 -2.2417350e+00 2.9979424e+00 
1.3177062e+01 7.9186797e+00 -3.8626060e+00 
-4.8521514e+00 -8.2977180e+00 1.4189456e+00 
9.2652740e+00 3.3758240e+00 -2.9019411e+00 
-4.9055023e+00 3.9096847e+00 4.6515930e-01 
2.7204750e+00 3.2494004e+00 -1.6161327e+00 
-9.6994656e-01 -1.2777017e+01 1.3554925e+00 
2.8398199e+00 4.0930266e+00 -1.4125649e+00 
1.4689895e+00 5.5685663e+00 -1.6647854e+00 
1.8381683e+00 4.1745991e-01 -5.6756246e-01 
-1.0850817e+01 3.9481261e-01 2.6069450e+00 
-1.7926641e+00 2.4894662e+00 -2.0747027e-01 
-7.6616545e+00 -4.7823811e+00 2.3982573e+00 
1.1963387e+01 5.3030553e+00 -3.1171827e+00 
1.8925968e+00 -1.3692610e+00 -1.9073814e-01 
4.9476862e-01 -9.3323288e+00 -3.3005437e-01 
-1.5081407e+00 -7.1364646e+00 1.8542410e+00 
-4.5974765e+00 3.2005990e+00 7.1002549e-01 
2.7692778e+00 3.9276285e+00 -1.6848040e+00 
2.2557909e+00 1.2320078e-01 9.6566312e-02 
-8.9447813e+00 -1.6221209e+00 2.1354582e+00 
4.3356152e+00 4.1781478e+00 -2.0857217e+00 
4.0624933e+00 3.6163280e+00 2.1591596e-01 
-3.9937370e+00 -5.7701521e+00 1.4262671e+00 
1.2962881e+00 3.9489520e+00 -1.3059788e+00 
3.1064481e-01 7.8810006e-01 -7.1114892e-01 
-8.6806402e+00 -1.7834634e-01 2.3415375e+00 
3.0224380e+00 5.1029048e+00 -1.9679221e+00 
7.5782514e+00 6.3138528e+00 -1.6676028e+00 
-2.1082246e-01 -7.7490516e+00 1.7518105e-01 
-6.0303016e+00 -3.5574408e+00 1.9284393e+00 
4.0902834e+00 3.9277158e+00 -1.8859944e+00 
3.9350355e-01 -2.1481485e+01 2.0536554e+00 
-3.3566699e+00 -4.3168406e+00 1.2652054e+00 
1.0843934e+01 1.1730085e+01 -3.6619411e+00 
-4.6424975e+00 3.9561040e+00 3.6241212e-01 
-7.5272422e+00 -1.3758742e+00 2.1989591e+00 
1.5215307e+00 -1.4693999e+00 -4.1278708e-01 
3.6407032e+00 6.9454226e+00 -2.3615625e+00 
5.3813844e+00 2.5327177e+00 -1.6986243e+00 
1.5316654e+00 1.1642922e+00 4.7608343e-01 
-4.2238812e+00 -5.4943266e+00 2.3926246e+00 
-8.6949472e+00 2.1274032e-01 2.2856953e+00 
1.0049517e+00 3.2023740e+00 1.9688572e-01 
1.9251187e+00 -6.6567383e+00 -9.9457216e-01 
6.0146823e+00 3.4484637e+00 -1.9320320e+00 
3.6357194e-01 3.4727216e+00 -5.3097248e-01 
7.7953682e+00 4.1223574e+00 -2.7720268e+00 
-7.4416308e+00 -2.5465791e+00 2.4377306e+00 
-4.3552513e+00 4.4238629e+00 -3.5975426e-02 
-7.2691159e+00 -9.6881872e-01 2.5045931e+00 
-4.7650465e-01 -1.0703424e+01 1.1930386e+00 
3.7476156e+00 6.6104517e+00 -1.2487448e+00 
1.1296817e+00 -1.1571706e+01 3.1628779e-01 
3.8750877e+00 3.0438235e+00 -1.7866387e+00 
3.0663333e+00 7.1122494e+00 -2.4134243e+00 
1.0669919e+00 -8.9709204e-01 -2.0606886e-01 
-8.9683151e+00 8.3582556e-01 2.3212631e+00 
-3.7562449e+00 -5.3013892e+00 1.4401830e+00 
-9.4262563e-02 1.8203843e+00 -7.9762125e-01 
4.1129398e+00 5.1609669e+00 -2.1871195e+00 
2.9107857e+00 2.6092150e+00 -1.0970551e+00 
7.9025621e+00 9.5714712e+00 -2.8024549e+00 
4.2184086e+00 2.9055755e+00 -1.9246489e+00 
-3.4767416e-01 2.6065097e+00 7.3981088e-01 
3.1167080e+00 -5.4933248e+00 -1.0999620e+00 
1.8393427e+00 -1.8399139e+01 9.0642428e-01 
-4.7207007e+00 4.3662753e+00 4.6022207e-01 
-8.5295057e+00 -3.5278089e+00 3.1252661e+00 
-6.4518819e+00 -6.6203463e-01 1.8131830e+00 
-1.0278084e+00 -5.2282939e+00 1.2637861e+00 
3.6482844e+00 3.4252028e+00 -1.7887135e+00 
3.3223283e-01 1.9533902e+00 -3.2784840e-01 
4.1347919e+00 5.3002419e+00 -2.3851194e+00 
2.2261188e+00 6.2949080e+00 -8.5768974e-01 
1.7539895e+00 -1.0140223e+01 -2.2670278e-01 
-9.3280334e+00 9.9799740e-01 2.5398293e+00 
-2.8259377e+00 -5.8857074e+00 1.5778675e+00 
9.6560895e-01 -9.1353053e-01 -2.5874498e-01 
3.8483925e+00 4.5756822e+00 -2.1488514e+00 
2.1141744e+00 5.6471831e-01 -3.2853949e-01 
4.3904905e+00 4.6736650e+00 -2.1083603e+00 
-4.9089704e+00 4.6292224e+00 1.9129382e-01 
-6.3683233e+00 -2.4274173e+00 2.4521334e+00 
5.8659160e-01 -9.7365227e+00 1.2105514e+00 
-7.7203703e+00 -2.4507663e+00 2.2878537e+00 
-1.3223444e+00 1.5554385e+00 1.0372547e+00 
3.8058705e+00 -4.2336998e+00 -1.8412025e+00 
4.0332298e+00 9.0410173e-01 -8.9544988e-01 
2.1145716e+00 4.3973298e+00 -1.5665756e+00 
2.9933352e+00 7.2605085e+00 -2.6642847e+00 
-9.4395981e+00 1.0403256e+00 2.6121435e+00 
6.2100811e+00 7.8002281e+00 -3.2237139e+00 
7.5302273e-01 1.4135783e+00 -1.4144421e-01 
2.3867743e+00 -4.5537972e+00 -5.2836347e-01 
-3.9918680e+00 -3.1265347e+00 1.8285615e+00 
2.6944504e+00 5.7584505e+00 -1.6841568e+00 
4.5348296e+00 2.5744359e+00 -2.5355914e+00 
3.4100256e+00 -1.6250278e+01 1.6266154e+00 
8.7697500e-01 -8.7334037e-01 -2.6396492e-01 
-4.8105893e+00 4.5527797e+00 5.3033781e-01 
-7.0330186e+00 -7.4714744e-01 2.4667518e+00 
-6.7579656e+00 -3.0470986e+00 2.4498525e+00 
1.4221200e+00 -8.7799788e+00 1.4714704e-01 
1.7520118e+00 2.1357756e+00 -1.0723933e+00 
2.5550103e+00 -1.2126983e+00 -1.2108867e+00 
3.9531271e+00 3.3109589e+00 -1.7984166e+00 
3.1802282e+00 5.8992910e+00 -2.3480670e+00 
-2.0275373e+00 7.4466658e-01 1.2713734e+00 
4.3743062e+00 -3.2372074e+00 -1.6158564e+00 
-9.3347979e+00 1.1335530e+00 2.6474733e+00 
2.8802915e+00 4.5367942e+00 -1.1469533e+00 
-2.0289652e+00 -5.4076166e+00 1.3759323e+00 
6.4783162e-01 3.6924658e+00 -2.2243987e-01 
3.2874966e+00 -7.4690833e+00 -6.0613143e-01 
2.7050965e+00 4.2344456e+00 -2.3511531e+00 
-4.8327770e+00 4.4649067e+00 6.2366122e-01 
-7.1460409e+00 -1.4636355e-02 2.5713322e+00 
7.9434073e-01 -8.3405417e-01 -2.3261689e-01 
-6.8819480e+00 -2.8313780e+00 2.4440103e+00 
1.2305524e+00 2.0786700e+00 -5.4341394e-01 
5.3353815e+00 1.3086055e-01 -1.8994046e+00 
2.5019412e+00 3.3438134e-01 -7.2951633e-01 
2.8194602e+00 5.4518542e+00 -2.3013997e+00 
-2.5496085e+00 -2.1359131e+00 2.9881883e+00 
-9.0017815e+00 1.3053795e+00 2.7303765e+00 
5.9446397e+00 6.5982780e+00 -3.0026898e+00 
-2.4157639e+00 5.7505578e-01 1.2832701e+00 
4.5221090e+00 -2.9651752e+00 -1.9086144e+00 
2.6719744e+00 4.3378277e+00 -1.9016480e+00 
3.1666811e+00 1.5931402e+00 -8.0041671e-01 
-2.0591345e+00 -2.8252807e+00 1.6872399e+00 
-5.1828223e-01 1.7386895e+00 1.8581189e-01 
-4.5440159e+00 4.3698926e+00 5.8390665e-01 
5.5425439e+00 -1.6938639e+01 8.7954253e-01 
3.1603270e+00 -4.7944479e+00 -6.8235487e-01 
-7.1744447e+00 5.6077021e-01 2.6581826e+00 
5.4534440e+00 1.0166763e+00 -1.7995539e+00 
7.0415378e-01 -8.2800287e-01 -2.2969374e-01 
-6.1942787e+00 -3.2236958e+00 2.5054529e+00 
1.1389887e+00 4.0769167e+00 -9.3197376e-01 
2.8722889e+00 -1.1179043e+01 -9.6853292e-01 
3.1745863e+00 4.4641590e+00 -2.4092219e+00 
-8.6537638e+00 1.4626303e+00 2.7172027e+00 
2.5801418e+00 4.8037715e+00 -1.6741176e+00 
-2.8162985e+00 9.7025722e-01 1.3475515e+00 
4.7570133e+00 -3.3098865e+00 -1.7511659e+00 
3.2961738e+00 6.2167873e+00 -2.2900610e+00 
-1.0588543e+00 -4.7099161e+00 1.5831386e+00 
-8.2664042e+00 1.7518712e+00 3.6939905e+00 
-4.3770204e+00 4.5168018e+00 4.1390833e-01 
-7.8156817e-01 3.2635572e+00 1.4058797e-01 
4.0447445e+00 -7.0012093e+00 -1.2680532e+00 
2.9651480e+00 5.1267982e+00 -2.0153401e+00 
2.1469626e+00 2.0953605e+00 -1.7953491e+00 
-3.5169039e+00 -3.1384966e+00 1.0636302e+00 
5.9996200e-01 -7.9785389e-01 -2.3737879e-01 
1.6483613e+00 8.9665976e+00 -2.7368369e+00 
5.4998238e-02 -5.9581394e+00 2.8217101e+00 
-1.0012177e+01 2.7481711e+00 3.5091586e+00 
2.1361519e-01 6.6413933e-01 -6.4865065e-01 
3.6862979e+00 9.2584050e-01 -1.6719359e+00 
3.1550734e+00 1.7559123e+00 -7.4771881e-01 
2.1663110e+00 3.9557943e+00 -1.0410784e+00 
1.8108821e+00 2.2148349e+00 -1.1145371e+00 
-3.3619506e+00 1.0475032e+00 1.4150293e+00 
4.8394618e+00 -3.0815182e+00 -2.0085647e+00 
-8.9684021e-01 -4.9516869e+00 1.9179323e+00 
-5.7759576e+00 -7.6707566e-01 1.8005929e+00 
-5.5532265e+00 3.0957637e+00 1.4893639e+00 
8.5716085e+00 -2.0521719e+01 3.1703508e-01 
2.2471185e+00 2.8428376e+00 -2.4918122e+00 
1.0672741e+00 3.4778244e+00 -1.1398064e+00 
3.8155937e+00 -3.0162394e+00 -7.5125116e-01 
2.9043930e+00 9.2406070e-01 -4.8133397e-01 
-1.7993281e+00 1.5488209e+00 4.1407576e-01 
-3.3608739e+00 -4.0925245e+00 2.0202458e+00 
3.8160946e+00 -1.1312860e+01 -1.0790902e-01 
-9.4197702e+00 2.6162300e+00 2.7303495e+00 
5.0691247e-01 -7.8301269e-01 -2.8999868e-01 
2.7875898e+00 1.3670034e+00 -1.0707655e+00 
7.3562908e-01 5.7432575e+00 -1.2398763e+00 
2.8664057e+00 7.0131164e+00 -2.8336420e+00 
-5.1206641e+00 1.7461873e+00 2.2087519e+00 
-2.2798133e+00 -3.3405652e+00 1.6363188e+00 
-3.4533918e+00 1.2876558e+00 1.5452518e+00 
5.2362704e+00 -3.6340997e+00 -1.9128348e+00 
-5.6037512e+00 3.5659924e+00 1.0530592e+00 
1.6948949e+00 2.4737964e+00 -6.5084475e-01 
-6.5929151e-01 1.6154416e+00 7.3553050e-01 
2.4854817e+00 2.3920560e+00 -1.2741449e+00 
-2.1671376e+00 9.9460335e+00 -2.9286757e+00 
-2.1943738e+00 1.5343112e+00 3.5551742e-01 
-3.9718330e+00 -2.3238161e+00 1.8360821e+00 
4.8133717e+00 -6.3879471e+00 -1.6773946e+00 
-8.7096558e+00 1.3572956e+00 3.1819124e+00 
1.4657052e+00 4.8317966e+00 -1.6330879e+00 
3.3168268e+00 -1.0398281e+01 1.0619975e+00 
1.5730716e+00 -2.4082778e-02 1.4039190e-01 
1.5572860e+00 3.6278090e+00 -1.3539684e+00 
4.5688975e-01 -8.1146306e-01 -2.4359602e-01 
1.1269965e+00 2.6213763e+00 -7.0692682e-01 
4.2385120e+00 -3.7413874e-01 -4.5824602e-01 
-3.7047844e+00 -2.3689837e+00 2.5205395e+00 
-4.6241131e-01 -7.0017004e+00 1.4013588e+00 
6.1177218e-01 5.9904075e+00 -1.2441863e+00 
-4.5504336e+00 9.2600274e-01 1.3236222e+00 
5.8626366e+00 -2.9455705e+00 -2.2412083e+00 
1.2524722e+00 1.9669421e+00 -3.6112893e-01 
-5.5846363e-02 5.4014673e+00 -1.8758698e+00 
-5.1483874e+00 4.0032005e+00 1.3902045e+00 
-7.5151401e+00 2.1322842e+00 3.1998580e+00 
-2.8560486e+00 -3.3579948e+00 1.8324207e+00 
1.1046855e+01 -1.9209734e+01 -1.6666187e-01 
-4.3610759e+00 -1.7432076e-01 5.4711723e-01 
5.1577830e+00 -2.2096748e+00 -1.0502574e+00 
1.4082763e-01 4.7994084e+00 -1.0680450e+00 
1.1217023e+00 4.9151835e+00 -1.3758465e+00 
3.8225102e+00 -7.6006250e+00 1.2272948e-01 
1.6872470e+00 4.3391376e+00 -2.7962801e+00 
2.7289319e-01 -7.4657166e-01 -2.4077861e-01 
-3.3152544e+00 -2.2502990e+00 2.2658012e+00 
1.7108536e+00 3.9716954e+00 -1.3459501e+00 
6.8982875e-01 -6.5166140e+00 1.1732401e+00 
2.1881309e+00 1.3681148e+00 -1.2681342e+00 
-5.2983546e+00 9.7434211e-01 1.5775207e+00 
6.5674753e+00 -3.0914454e+00 -1.8393800e+00 
-5.3580737e+00 8.8170033e+00 -1.8632487e+00 
-5.3275681e+00 3.9829769e+00 1.4861219e+00 
-7.7565079e+00 2.4499729e+00 2.9804020e+00 
2.4298868e+00 2.4642451e+00 -7.3923326e-01 
4.7071964e-01 3.9979038e+00 -1.1074300e+00 
-1.3152437e+00 -4.5953894e+00 1.9092227e+00 
1.3779548e-01 3.1075041e+00 -1.3402510e+00 
-5.3140539e-01 3.0975041e+00 -7.1791220e-01 
-4.1930151e+00 1.0107926e+00 5.1759732e-01 
3.2054634e+00 2.0889030e-01 -8.4199452e-01 
6.4362483e+00 -4.7864156e+00 -1.6217862e+00 
4.9425955e+00 -1.0012423e+01 2.7624836e+00 
1.8839829e-01 -7.9264033e-01 -1.4230472e-01 
-3.3788495e+00 -2.3505461e+00 1.8683383e+00 
1.3315916e+00 6.1053314e+00 -2.0141008e+00 
1.1547837e-01 3.2919776e+00 -2.7492929e+00 
-3.8046244e-01 -2.9765453e+00 8.6076421e-01 
-6.5727043e+00 2.3608692e+00 1.4106638e+00 
7.0477891e+00 -4.1563001e+00 -1.9616919e+00 
1.1878716e+01 -1.4492963e+01 -7.3296028e-01 
-4.7136779e+00 2.0256456e-02 2.2509069e+00 
9.0919036e-01 2.5310740e+00 -6.0933781e-01 
-7.0225163e+00 8.5491076e+00 1.4072545e+00 
1.4737666e+00 3.6557262e+00 -2.1387799e+00 
-4.9205488e-01 -4.9243069e+00 2.4078040e+00 
-8.1483145e+00 3.9615190e+00 1.2084150e+00 
-1.7181468e+00 1.1286998e+01 -2.6024132e+00 
6.3677397e+00 -4.5290289e+00 -8.5723191e-01 
3.9947765e+00 -1.0732257e+01 4.6379146e-01 
3.0117180e+00 8.5309863e-02 1.7296671e+00 
-3.9970093e+00 -9.1706091e-01 2.1013389e+00 
3.2398384e-02 -7.6503462e-01 -2.3898466e-01 
1.6543622e+00 4.7143412e+00 -2.4823780e+00 
-1.0378652e+00 5.0726385e+00 -2.7460206e-01 
6.7541093e-01 -5.8391414e+00 2.3616476e+00 
-7.0137830e+00 1.6763247e+00 1.8807147e+00 
7.3400235e+00 -3.8239083e+00 -2.2388976e+00 
-6.0922661e+00 5.8697897e-01 3.5323009e+00 
9.0703797e-01 4.3567085e+00 -1.2693437e+00 
3.0921686e+00 2.5466638e+00 -6.9898492e-01 
-3.6592343e+00 8.0902615e+00 -1.4061292e+00 
-1.1493541e+01 1.0428821e+01 -1.4432369e+00 
2.2252977e+00 8.1229365e-01 -2.9516754e+00 
-6.0161281e+00 4.0403771e+00 1.6474133e+00 
2.0193467e-01 -4.7143841e+00 2.2519934e+00 
1.4991971e+01 -1.8727400e+01 2.6129568e-01 
-7.0160799e+00 3.9781291e+00 5.7443410e-01 
9.7379332e+00 -9.4934072e+00 -1.5200481e+00 
-2.9800146e+00 -1.0993044e+00 1.5003371e+00 
-7.2267450e-02 -7.3359752e-01 -3.0275580e-01 
5.7683629e-01 3.7338092e+00 -7.8909332e-01 
1.7328712e+00 1.9240210e+00 -3.0555947e+00 
6.1031318e+00 -1.2881400e+01 4.9209675e-01 
-7.8693414e+00 2.4297972e+00 3.0355537e+00 
2.6927795e+00 1.0818224e+00 -4.5373533e-02 
-7.3965945e+00 1.4448892e-01 1.8051617e+00 
8.0761518e+00 -2.6642644e+00 -2.5661235e+00 
2.0165254e-01 4.2109861e+00 -1.7477502e+00 
1.9735079e+00 2.2119226e+00 -1.0568864e+00 
1.7188529e+00 4.8150387e+00 -2.2246497e+00 
-4.6450071e+00 9.2796726e+00 -7.1847975e-01 
-1.6438941e+00 -1.7766503e+00 9.8189652e-01 
-1.8840779e+00 -1.6528608e+00 2.6480367e+00 
-7.9803038e+00 1.9867356e+00 4.7647235e-01 
1.0787803e+01 -9.2282610e+00 -1.8112504e+00 
-5.5155783e+00 4.1602769e+00 1.9360979e+00 
4.4630000e-01 4.4595666e+00 -2.2999549e+00 
1.3432785e+01 -1.7476315e+01 -1.4581978e-01 
-1.9597423e-01 -6.1990559e-01 -2.1391599e-01 
6.3204014e-01 1.0085733e+00 2.9380137e-01 
-6.4871961e-01 3.0275848e+00 -2.3857698e-01 
-1.3808846e+01 9.2987452e+00 -1.9804448e+00 
-4.9142962e+00 1.0752262e+00 3.1714196e+00 
-1.5372111e-01 4.5958295e+00 -1.0958098e+00 
3.8508000e+00 -8.1458578e+00 9.9128222e-01 
-8.2089033e+00 -6.2945002e-01 2.0562639e+00 
9.2746458e+00 -1.5134634e+00 -2.5772595e+00 
-2.0591278e+00 3.9549513e+00 -1.6564523e+00 
8.0421448e-02 3.4469807e+00 -2.2911046e+00 
-1.7764527e+00 -3.7636587e-01 1.3041521e+00 
1.4337246e+01 -1.0971953e+01 -1.0550914e+00 
1.7689484e+00 3.3308417e-01 -1.1357801e+00 
-1.2394135e+01 2.8947468e+00 7.5090802e-01 
1.3343989e+00 -6.1993585e+00 1.4893836e+00 
2.2431226e+00 8.3473139e+00 -6.2328166e-01 
-3.8015804e+00 5.8824167e+00 -3.4112465e+00 
-1.3111435e-01 -6.4814079e-01 -2.8482592e-01 
1.3945873e+01 -1.3852298e+01 -2.9496801e-01 
-7.6428685e+00 5.0658503e+00 2.5119166e+00 
-4.1400476e+00 1.5618663e+00 2.9358673e+00 
7.6290274e-01 3.0491583e+00 -1.7517976e+00 
-9.4752455e-01 -6.8313187e-01 9.9473941e-01 
-8.6487274e+00 -2.2913055e+00 2.3696868e+00 
1.1658767e+01 2.4146970e-01 -3.8590879e+00 
-8.2277237e-03 2.1264379e+00 -4.9893358e-01 
9.1532393e+00 -7.9812250e+00 -5.0848275e-01 
-6.2376704e+00 4.8587437e+00 -3.1063979e+00 
7.3976743e-01 3.2055049e+00 -7.4692774e-01 
1.1186626e+00 4.2678137e+00 -1.4488477e+00 
1.0929236e+00 -4.5265551e+00 1.3265626e+00 
-9.5408411e+00 -2.1538661e+00 1.6190693e+00 
1.7818274e+01 -8.2424431e+00 -2.8851111e+00 
1.0477223e-01 8.8936627e-01 -1.9471145e-01 
-6.1145067e-01 2.1082695e-01 -1.0594270e+00 
-2.3367831e-01 -5.0681150e-01 -3.3393505e-01 
-5.4072374e-01 1.6948222e+00 -7.8065413e-01 
-1.8406187e+01 5.6395998e+00 -6.6145122e-01 
-5.1391029e+00 3.6279917e+00 2.5267444e+00 
1.0062140e+01 -5.5469155e+00 5.4576522e-01 
-2.0768692e+00 -3.6387596e-01 1.9071778e+00 
-4.7503724e+00 4.3248286e+00 1.6460085e+00 
-1.2283845e-01 3.4601009e-01 -1.1712797e+00 
-3.2843902e+00 2.5205138e+00 1.8292244e-01 
-8.7528963e+00 -4.4747057e+00 2.7191374e+00 
3.9322925e+00 1.9645253e+00 -8.5224444e-01 
1.0084580e+01 3.3494060e+00 -3.5588343e+00 
4.5143018e+00 -1.4694678e+00 2.2553971e+00 
2.2603083e-01 3.4299386e+00 -2.2706046e+00 
-1.1849470e+01 -3.0266459e+00 2.0390005e+00 
9.1374016e+00 -1.8123649e-01 -1.7163059e+00 
-3.4793043e+00 1.2296554e+00 -6.6790169e-01 
-7.7908176e-01 3.0271575e+00 -1.3687040e+00 
2.3254659e+00 -1.5595667e+00 1.2880037e+00 
-2.8925186e-01 -4.3779486e-01 -2.9158080e-01 
-3.4504075e+00 2.1189969e+00 2.8972378e+00 
1.1094269e+01 -1.3615562e+01 -9.7584076e-02 
1.2265747e+01 -3.8981142e+00 -2.3577909e+00 
-1.2122135e+00 3.7111354e+00 -1.1733562e+00 
-8.4647036e+00 -3.6343062e+00 2.7588453e+00 
8.9976883e+00 1.8355542e+00 -3.1281161e+00 
-7.3991561e+00 7.9915252e+00 -3.4901097e-01 
-4.1909808e-01 7.6849061e-01 1.1114746e+00 
4.3144789e+00 -4.5771875e+00 3.0894849e-01 
-4.5683041e+00 3.9477417e+00 1.4389852e+00 
-8.5774460e+00 -2.8131702e+00 1.3481443e+00 
1.2306149e+01 1.6912569e+00 -2.8657179e+00 
-4.1486871e-01 1.3528056e+00 -1.0816706e+00 
-4.4220047e+00 1.7699503e+00 -1.0172147e+00 
-2.3950036e+00 2.3774874e+00 2.2768199e+00 
-2.5536904e-01 -5.0602496e-01 -2.3932615e-01 
-1.8274911e-01 3.1008003e+00 1.6360863e-01 
-1.1420033e+00 2.6631577e+00 -1.0740274e+00 
5.8892303e+00 1.5269760e+00 -2.8353822e-01 
-1.7086935e+01 -1.1990801e+01 1.2425722e+00 
8.6358249e-01 -1.8737413e+00 1.6046163e+00 
-1.3355105e-01 2.1352556e+00 -3.4176564e-01 
1.0666384e+01 -8.5670671e+00 1.1684869e-01 
-7.0962477e-01 3.6754090e-01 -1.6347634e+00 
-5.5090351e+00 3.1139634e+00 -2.3665080e+00 
-2.5097811e+00 1.6187121e+00 1.3886591e+00 
-8.7006941e+00 -3.2078195e+00 2.3888786e+00 
9.1252642e+00 1.9146483e+00 -3.0452425e+00 
6.7852579e-02 -5.4326075e-01 1.7353045e+00 
-8.9725399e+00 -2.9533610e+00 1.9346541e+00 
7.4966078e+00 -4.1472869e+00 2.4067481e-01 
-2.0091976e-01 3.2681553e+00 -1.9063171e+00 
3.5036120e+00 1.1390887e+00 -6.3063639e-01 
-4.1134286e+00 3.6934602e+00 2.2775459e+00 
-3.7343526e+00 2.1054800e+00 -1.1283289e+00 
8.9333391e+00 1.1042958e+00 -2.1804779e+00 
-3.0101463e-01 -4.7284892e-01 -2.5353464e-01 
-4.5506864e+00 4.1307225e+00 1.3954215e+00 
1.8239744e+00 -1.5106723e+00 1.1428924e+00 
1.7882040e+01 -1.9642997e+00 -1.8006586e+00 
2.3046443e+00 -6.1440200e-01 -1.2076765e+00 
2.1660602e+00 3.5369420e-01 8.6599863e-01 
-3.0884655e+00 2.9867172e+00 -1.2116863e+00 
6.3439102e+00 -2.9236264e+00 5.9499968e-02 
-9.7295389e+00 -4.8853631e+00 2.4343028e+00 
9.0638609e+00 3.1495616e+00 -2.8355629e+00 
-1.0593228e+01 2.6348376e+00 -1.8666873e+00 
-1.5413889e+01 -8.4738655e+00 2.2653172e+00 
-1.6003072e+00 2.1879616e+00 -1.5135750e+00 
-2.5780888e+00 2.6109490e+00 1.8906173e+00 
1.2008018e+01 3.2637222e+00 -2.9065330e+00 
6.7130837e+00 -1.7135837e+00 1.4638160e+00 
-4.3813413e-01 2.5905695e+00 -4.8339280e-01 
-1.7387267e+00 -5.0303394e-01 -2.1413121e-01 
-3.4936225e-01 -4.0603647e-01 -1.8729661e-01 
-6.7738354e-01 -2.6330379e-01 -9.9812788e-01 
-1.4047400e+00 2.3303778e+00 1.1329287e+00 
3.2777772e+00 -2.7446392e+00 1.6981475e+00 
-3.3053465e+00 1.0060830e+00 -6.7487276e-01 
-3.8956594e+00 3.7008212e+00 8.9232981e-01 
-1.0803488e+01 -6.5964513e+00 2.5086663e+00 
1.0109320e+01 5.2887735e+00 -2.9168122e+00 
-3.2352891e+00 -5.8350134e-01 -5.0867838e-01 
1.4234105e+01 -5.7749734e+00 1.7554770e-01 
2.4984474e+00 3.7349920e+00 4.1802209e-02 
-7.6265746e-01 2.6049206e-01 -7.4294668e-01 
-2.8103848e+00 4.1035466e+00 2.4666839e+00 
-1.1371548e+01 -7.3094668e+00 2.0744996e+00 
9.2665453e+00 5.1632404e+00 -1.9113976e+00 
-2.5349607e+00 -1.1176835e+00 -2.2075775e+00 
2.0405357e+01 -7.8064197e-01 -3.1443141e+00 
-1.8064253e-01 8.2586670e-01 -8.4707516e-01 
6.9020181e+00 -1.9861877e+00 2.1542516e-01 
-4.2088512e-01 -3.4716043e-01 -1.3676085e-01 
-1.5474563e+00 1.4911495e+00 1.4290802e+00 
-2.9119806e+01 -7.0678496e+00 1.4701310e+00 
1.0267433e+00 4.6508905e-01 1.1850132e+00 
-2.3111031e+00 1.4843105e+00 -1.9939994e+00 
-7.6727524e+00 5.7254572e+00 4.7038865e-01 
3.3924458e+00 1.2827666e+00 2.1059132e+00 
-1.0722652e+01 -6.4067402e+00 2.6362085e+00 
1.0292316e+01 5.4467683e+00 -2.9480953e+00 
4.4157948e+00 -4.5821327e-01 1.8953819e+00 
-1.5175395e-01 7.5451173e-02 1.4494470e+00 
-2.3187616e+00 3.8977797e+00 -1.3946104e+00 
1.8066055e+01 -1.2336123e+01 1.3721199e+00 
-3.6411963e+00 3.7304027e+00 1.2495595e+00 
-1.6190351e+01 -6.7250919e+00 2.9402711e+00 
1.4014247e+01 2.6480124e+00 -2.6929102e+00 
4.1481733e-01 5.0691897e-01 -1.1316154e+00 
-6.0282745e+00 3.8416846e+00 -9.9895078e-01 
-5.2769846e-01 -3.1309733e-01 -1.6838501e-01 
-3.6418870e-01 2.1277487e+00 1.7429866e+00 
7.2194467e+00 -3.0093365e+00 1.8730748e-01 
-1.1965675e+01 4.7827487e+00 -2.1967397e+00 
-1.8889324e-01 1.6906435e+00 -1.3087734e+00 
-1.4095010e+00 2.9833550e+00 -3.5763311e-01 
-1.0744063e+01 -6.0571876e+00 2.5200591e+00 
1.0767064e+01 4.9829993e+00 -2.8026071e+00 
-2.3339384e+00 2.6240163e+00 2.2296395e+00 
3.8432944e+00 -3.5192089e+00 1.1505271e+00 
2.5419979e+00 -1.7696909e+00 -3.2909644e-01 
8.9794912e+00 -4.2868280e+00 -5.7576823e-01 
-2.1260200e+00 3.2831812e+00 -1.6490856e+00 
1.0788539e+01 2.3295877e+00 -1.4402602e+00 
2.7109669e+01 -5.8032303e+00 -1.7873259e+00 
-1.0401520e+01 -3.9532621e+00 1.5951988e+00 
-2.3171592e+00 1.6697411e-01 -1.7439998e+00 
4.5797169e-01 8.5145617e-01 1.1139121e+00 
-2.7974558e+00 3.7199917e+00 9.7573656e-01 
-6.1274070e-01 -3.2652497e-01 -9.8685250e-02 
7.1597457e-01 4.2466979e+00 -1.9572940e-01 
8.4614868e+00 -4.2752161e+00 8.5496438e-01 
-1.1965292e+00 1.8773615e+00 -8.5463899e-01 
-2.7923010e+01 -4.2349234e+00 2.9833195e+00 
-1.8413614e+00 3.3029895e+00 2.9241438e+00 
-3.2699139e+00 1.2763849e+00 -1.6255541e+00 
-9.8880157e+00 -4.8247452e+00 2.1461840e+00 
1.0757699e+01 4.0984344e+00 -2.4500861e+00 
-1.3655552e+01 5.7579021e+00 8.3905417e-01 
-1.2005395e+00 3.3617215e+00 -1.2616671e+00 
3.3508983e+00 -2.5955093e+00 7.1422219e-01 
-9.3987932e+00 -2.9646730e+00 1.5254252e+00 
1.8439707e+01 -1.2609173e+01 9.3459374e-01 
3.7226176e+00 -2.4041631e+00 1.5572991e+00 
1.6999392e+01 -4.5409627e-02 -1.8838515e+00 
1.9612679e+00 3.1486115e+00 9.3747491e-01 
-6.3697786e+00 2.8423796e+00 -1.0513955e+00 
-6.2837040e-01 -3.9104500e-01 -7.2610672e-03 
-5.9881723e-01 2.6625681e+00 -1.1726413e+00 
-3.5217624e+00 4.6337857e+00 1.4606597e+00 
3.5941410e-01 8.4531504e-01 1.2601116e+00 
8.2751760e+00 -4.4130373e+00 1.1038773e+00 
-3.4603715e+00 3.2128353e+00 -1.2680076e+00 
-1.0914672e+01 -3.2756655e+00 2.0014329e+00 
1.0148714e+01 2.0347340e+00 -1.9779207e+00 
-1.8068287e+00 3.7044799e+00 -9.3432152e-01 
-7.3400054e+00 3.1703355e+00 -1.5623264e+00 
-1.9530062e+01 -1.8598021e+00 1.4402981e+00 
1.9336926e+00 -1.2338091e+00 1.1680335e+00 
4.9206862e+00 -4.0786653e+00 1.5892823e+00 
-8.6096632e-01 4.7899489e+00 9.4931257e-01 
1.0353633e+01 -5.4118190e+00 -4.7297144e-01 
-2.8052590e+00 1.5850310e+00 -8.4936452e-01 
1.0603854e+01 1.6145834e-01 -1.5104409e+00 
9.1174290e-02 2.5339684e+00 -1.5097322e+00 
1.9245734e+00 8.5234076e-01 8.7371671e-01 
-7.1996963e-01 -3.7954241e-01 -6.9404721e-02 
3.2104531e-01 -1.3707517e-01 -5.1174515e-01 
-2.9640608e+01 8.7719355e+00 7.1347457e-01 
-2.2070527e+00 3.2112842e+00 1.7032210e+00 
3.2399307e+01 -1.5919441e+01 1.3099492e-01 
7.7020531e+00 -6.7745500e+00 1.2305533e+00 
-4.3723497e+00 5.3743644e+00 -5.0646263e-01 
-1.5606095e+00 2.9240935e+00 -2.3777671e+00 
-1.2637038e+01 -3.5162463e+00 2.1154046e+00 
1.0091974e+01 1.9805137e+00 -2.0915797e+00 
-2.1826282e+00 3.4186244e+00 6.6342694e-01 
-4.3282275e+00 -1.6452582e+00 -5.3565830e-01 
2.9995744e+00 -4.7170541e-01 2.6795981e+00 
-1.7569641e+01 -5.1421016e-01 2.2064731e+00 
2.3777051e+00 -3.8303883e+00 1.1050957e+00 
1.6281471e+01 -3.4112065e+00 -1.2229985e+00 
-4.8078440e-02 1.3020215e+00 -1.7143422e+00 
9.1240702e+00 -1.2358828e+00 -7.4075079e-01 
-1.0628270e+01 7.9839978e+00 -7.6748914e-01 
1.7998310e+01 -1.2371487e+01 2.2459667e+00 
-7.9224163e-01 -4.1608319e-01 -6.0044393e-02 
-1.5931443e+00 3.8128891e+00 1.6352178e+00 
2.3616343e+00 8.1172597e-01 2.4623717e-01 
-1.5817376e+00 3.5268939e+00 -2.3278453e+00 
-2.7227540e+00 4.8279548e+00 -6.7293841e-01 
-1.1795564e+01 -2.2038581e+00 1.9403063e+00 
9.4866285e+00 -8.1243792e+00 1.0299057e+00 
1.0540011e+01 7.7828765e-01 -1.9125628e+00 
2.2788534e+00 6.9121927e-01 2.3722260e+00 
-2.0497572e+01 9.9551935e+00 -3.1133825e-01 
-1.7320412e+00 3.3207464e+00 1.1607617e-01 
-2.0003483e+01 4.6162529e+00 1.6699536e+00 
-4.3181396e-01 1.4653963e+00 -8.2564491e-01 
-1.1607427e+01 4.8887500e-01 1.1261432e+00 
5.5911860e+00 -3.1187916e+00 1.6283596e-01 
-6.9428482e+00 7.6513429e+00 -9.1658467e-01 
-1.3440384e+00 3.8837276e+00 2.2068796e+00 
1.0577676e+01 -2.2893972e+00 -1.0368019e+00 
-8.6268234e-01 -3.9815679e-01 -5.1158044e-02 
1.0627981e+01 -6.9409847e+00 1.3023183e+00 
-2.3930376e+00 5.0491829e+00 -9.4190246e-01 
2.9908617e+01 -1.8695831e+01 1.1800218e-01 
-4.2594261e+00 4.8242216e+00 -4.0136930e-01 
2.4781330e+00 -2.6241276e+00 1.1101910e+00 
-1.3131561e+01 -1.9461801e+00 1.8805809e+00 
1.0007360e+01 6.0877597e-01 -1.6657861e+00 
-6.0423222e+00 2.8970504e+00 5.2959913e-01 
6.3649135e+00 -7.9269886e+00 1.4334832e+00 
2.6871767e+00 1.1270567e+00 -1.1095059e+00 
4.1795038e-02 2.1878824e+00 -1.0595632e+00 
-2.4358037e+00 4.5267034e+00 7.7520549e-01 
-3.8854623e-01 1.3397681e+00 1.5811111e+00 
1.5981512e+01 -4.9665880e+00 -1.0063195e+00 
-4.0221524e+00 2.6646762e+00 -7.6542741e-01 
-1.8909983e+01 2.1443572e+00 1.5234853e+00 
2.4031610e+00 3.0997474e+00 5.9971654e-01 
3.5270998e+00 -4.0550631e-02 2.2233453e+00 
-8.5960573e-01 -4.4666615e-01 -2.3061251e-02 
-1.7076819e+00 4.4832625e+00 -8.6608082e-01 
-2.0707865e+01 7.1455922e+00 2.1948051e-02 
1.6535007e+01 -1.4118042e+01 7.9233313e-01 
1.9221511e+00 -2.0973427e+00 1.8450773e+00 
-4.8197355e+00 4.5479722e+00 -1.2568810e+00 
-7.1412854e+00 4.7893653e+00 -4.4603083e-01 
-1.2235433e+01 -6.1211383e-01 1.5416310e+00 
1.0197089e+01 -8.5677135e-01 -1.2484292e+00 
4.3695192e+00 3.2862437e-01 6.4349508e-01 
-5.5151068e-02 4.3053374e+00 -1.3091141e+00 
1.0342946e+01 -1.0995133e+01 1.1483665e+00 
-1.3638330e+00 9.9051642e-01 1.2909889e+00 
-1.1125070e+01 6.5981841e-01 1.0298299e+00 
-5.6275058e+00 7.6009822e+00 -1.6586684e+00 
1.0365520e+01 -2.3338606e+00 -3.9612445e-01 
-1.7156760e+00 2.9824529e+00 -1.1372272e+00 
-1.8346686e+00 3.8000560e+00 1.3272893e-01 
-8.8324451e-01 -4.4673282e-01 1.9565316e-02 
5.4858031e+00 -4.6781721e+00 1.3307512e+00 
1.1812877e+01 -1.2300745e+01 1.9462616e+00 
-9.2579260e-02 -2.8752143e+00 1.3045111e+00 
-2.0921684e+01 5.9526906e+00 6.1827987e-01 
2.8105116e+01 -1.6468136e+01 1.3319373e+00 
1.6085591e+00 4.4998384e+00 -3.6438707e-01 
-2.1209624e+00 3.6992617e+00 -7.8226167e-01 
1.0407639e+00 1.1831757e+00 -7.0989126e-01 
-1.1223455e+01 8.1607915e-02 1.3488075e+00 
9.4912672e+00 -1.5821590e+00 -1.0356535e+00 
-8.3864695e-01 4.0995011e+00 -1.5820081e+00 
-1.3568223e+01 1.0973651e+01 -1.0700595e+00 
-1.0775185e+00 7.6167208e-01 1.9445413e+00 
6.7251906e+00 -5.7313085e+00 1.3371390e+00 
-1.5420051e+01 5.2678595e+00 1.0471234e+00 
1.5090965e+01 -8.9149065e+00 -3.6288303e-01 
-8.6202615e-01 2.9431460e+00 -1.0029864e+00 
3.1490362e+00 1.0125519e+00 5.4723960e-01 
-4.8241467e+00 4.8527555e+00 -5.8710426e-01 
-8.6205262e-01 -5.1273453e-01 3.8906086e-02 
-1.9402578e+00 4.8156314e+00 -4.2218885e-01 
1.0099370e+00 1.4049375e+00 -4.5520850e-02 
1.8464217e+00 -2.9927433e+00 1.1643598e+00 
-1.2362961e+01 3.9333882e+00 2.6997158e-02 
3.9711444e+00 -4.7801585e+00 1.4476932e+00 
1.7985655e+01 -1.4224277e+01 2.8275092e+00 
-3.1904061e+00 5.6617260e+00 -1.3348327e+00 
-7.5437641e+00 4.4747028e+00 -8.4625706e-03 
4.0261178e+00 -2.6674584e-01 1.3467662e+00 
-1.0784457e+01 1.3035773e+00 9.2805880e-01 
9.6275091e+00 -3.0009634e+00 -7.8906554e-01 
-7.5994676e-01 5.4236746e-01 1.3714218e+00 
-2.0034103e+00 6.2432027e+00 -2.0365851e+00 
6.6902709e+00 -8.1343536e+00 5.0975454e-01 
1.5560229e+00 2.6161225e+00 4.6387410e-01 
3.3909247e+00 2.1081154e-01 -4.4357389e-02 
-7.1089001e+00 7.1788015e+00 -1.5775256e+00 
-1.0965294e+01 3.0599020e+00 2.4484606e-01 
1.0460724e+01 -5.3668523e+00 -7.7269182e-02 
-9.1441172e-01 -5.1891619e-01 6.4473942e-02 
7.9720116e-01 -3.0625534e+00 1.4451567e+00 
-6.7057586e-01 2.5335584e+00 -1.1521627e+00 
4.1892462e+00 -5.1877975e+00 1.1432676e+00 
-1.3643284e+00 4.5656261e+00 -4.3641788e-01 
9.2215366e+00 -1.0719081e+01 1.0923287e+00 
-2.4316031e+01 1.3636701e+01 7.3056275e-01 
2.8782614e+01 -2.4907665e+01 1.2266126e+00 
-3.3683429e+00 5.0966229e+00 -2.5722536e-01 
-1.0557436e+01 1.9837078e+00 7.6132208e-01 
9.1567526e+00 -3.4669192e+00 -4.9155700e-01 
-5.7987487e-01 -5.5795437e-01 1.7946199e+00 
-7.2637987e-01 7.0749221e+00 -2.2795565e+00 
-1.3634581e+01 1.2109183e+01 1.5983973e-01 
1.5672121e+00 1.4998480e+00 2.8284562e-01 
6.3515940e+00 -5.5224400e+00 1.9320191e+00 
2.6322768e+00 -3.0715771e+00 1.2379799e+00 
-1.3515418e+01 5.0221844e+00 3.0806768e-01 
1.5209529e+01 -9.6005411e+00 2.3640861e-01 
-2.8225241e+00 3.2978725e+00 -1.6460510e-01 
1.7990065e+00 1.4374189e+00 -2.0225009e-01 
-1.6229469e+00 4.2503238e+00 -1.0076283e+00 
-9.2594969e-01 -5.5461717e-01 6.7342646e-02 
-1.0307281e+01 5.7576156e+00 -4.3074954e-03 
4.0113702e+00 -5.5731115e+00 1.6092197e+00 
-1.1174361e+00 5.7532997e+00 -6.8496913e-01 
1.5184038e+01 -1.6961399e+01 2.7298617e-01 
1.0839814e+00 -1.8521898e+00 6.8959498e-01 
-2.1173973e+00 5.4830351e+00 -1.0690655e+00 
-1.7681631e+00 6.7646928e+00 -1.4912615e+00 
-1.1011157e+01 3.1795075e+00 5.6373596e-01 
6.6787785e-01 1.3551993e+00 2.9723850e-01 
9.3845835e+00 -4.8122077e+00 -2.9350659e-01 
-9.7100153e+00 7.7093539e+00 -1.1758296e+00 
1.4262748e+00 -4.0720897e+00 1.6176502e+00 
7.6285257e+00 -1.0631154e+01 1.1286343e+00 
-1.0017465e+01 4.3930273e+00 4.0896335e-01 
2.7493200e+00 1.7911704e+00 1.1639102e+00 
-2.3188777e+00 5.1913090e+00 -1.4892958e+00 
-2.1760490e+01 1.0749617e+01 -2.6147854e-01 
-4.2657661e+00 5.8387461e+00 -5.3855938e-01 
9.8344698e+00 -6.5710196e+00 1.5114199e-01 
1.7691696e+00 1.9640785e+00 2.1614875e-01 
-1.0041503e+00 -5.1698446e-01 5.8344409e-02 
2.6408339e-01 -6.2285507e-01 1.2822903e+00 
2.8800669e+00 -6.0130191e+00 1.5198848e+00 
-2.0607673e-01 4.7404885e+00 -1.3326439e+00 
2.8262058e+01 -2.4265568e+01 2.0060315e+00 
1.1961339e+01 -1.3750736e+01 2.1463063e+00 
-1.0541815e+00 4.2201400e+00 -6.5503478e-01 
4.7719103e-01 3.4483252e+00 2.6992345e-01 
-3.1573830e+00 6.5029130e+00 -1.8609117e+00 
-1.0844036e+01 3.2170448e+00 3.9660692e-01 
8.8851452e+00 -4.7602010e+00 -1.2390546e-01 
-5.6290236e+00 5.4774556e+00 -2.5162226e-01 
1.1853058e+00 -4.0592666e+00 1.7093449e+00 
-1.9999989e+01 1.2462353e+01 -9.5263278e-01 
-1.5556183e+00 5.2396588e+00 -1.3995355e+00 
7.5213795e+00 -1.0532491e+01 7.9710031e-01 
-1.3704929e+01 6.2166939e+00 1.5488883e-02 
1.3179417e+01 -9.9746571e+00 4.3742341e-01 
3.7420268e+00 1.3094382e+00 -1.0497197e+00 
-5.8609457e+00 9.0141096e+00 -1.1667984e+00 
1.6534543e+00 1.1857983e+00 5.6416637e-01 
-1.0088533e+00 -5.4044509e-01 1.2337236e-01 
-5.3580844e-01 -7.1542692e-01 1.4769615e+00 
-8.4951228e-01 8.2739210e+00 -1.9624205e+00 
2.7417736e+00 7.3344094e-01 -1.5174848e-01 
5.6724062e+00 -8.1389904e+00 8.4958243e-01 
1.7737164e+01 -1.8422951e+01 3.2302363e+00 
-9.3936288e-01 4.1069574e+00 -3.5184976e-01 
-2.8687472e+00 7.8615198e+00 -1.1819317e+00 
-1.1033387e+01 3.7415311e+00 2.2468328e-01 
9.4011650e+00 -5.3950791e+00 1.4677469e-01 
-3.9689379e+00 2.9786415e+00 -1.0277569e+00 
1.2406279e+00 -4.0893459e+00 8.0149370e-01 
-1.8663213e+00 6.6325922e+00 -1.4048687e+00 
-2.4989651e+01 1.7169899e+01 4.5100093e-01 
-1.0320563e+01 4.3166466e+00 2.0527634e-01 
7.5055838e+00 -9.5922737e+00 1.3140068e+00 
9.5323400e+00 -6.6413732e+00 6.3273698e-01 
2.2899660e+01 -2.4515673e+01 2.2040145e+00 
-6.1937723e+00 5.8751450e+00 -8.1551951e-01 
-1.0396231e+00 -5.4312021e-01 1.2542632e-01 
6.7019820e-01 4.8343220e+00 -1.4154716e+00 
-1.5271519e-01 -6.2336779e-01 7.8091031e-01 
-4.6120983e-02 1.7815882e+00 -2.8662080e-01 
1.1646547e+00 -3.1750836e+00 5.5342484e-01 
3.0280282e+00 -4.6273866e+00 6.6745973e-01 
-1.9210447e+01 1.5925224e+01 5.5091023e-01 
2.2370608e+00 1.7694812e-02 6.6217709e-01 
-4.1998901e+00 6.8913946e+00 -1.3645771e+00 
-9.5868748e-01 3.9767749e+00 -6.9400269e-01 
3.0252447e+00 4.2177110e+00 1.6761546e-01 
-1.1097388e+01 4.2121744e+00 2.2832163e-01 
9.5403881e+00 -6.1519251e+00 2.3929454e-01 
3.1822166e+00 1.4304490e+00 -4.6517217e-01 
1.4345707e+01 -1.8811596e+01 1.9738798e+00 
1.4584723e+00 -2.4687576e+00 9.8053801e-01 
-1.2708097e+00 7.4964867e+00 -1.7070261e+00 
-1.5320216e+01 9.1994419e+00 -3.5940257e-01 
1.5039146e+01 -1.3766864e+01 9.9645478e-01 
7.3419256e+00 -1.0695642e+01 1.6164331e+00 
-5.7326484e+00 7.5382071e+00 -1.0596111e+00 
-8.2024284e-02 -1.1230594e+00 7.6956236e-01 
-3.7130299e-01 7.0443707e+00 -1.5076718e+00 
-1.0280526e+00 -5.6459063e-01 1.5714088e-01 
2.8402965e+00 -4.2565861e+00 5.1428211e-01 
-2.0905046e+01 1.6087132e+01 -8.9172256e-01 
3.8429165e+00 -5.6821713e+00 8.8059324e-01 
-4.3618517e+00 7.4224401e+00 -1.3482599e+00 
-6.6512972e-01 3.9670269e+00 -7.4794143e-01 
1.9106773e+01 -2.3079611e+01 1.8501515e+00 
-1.1229390e+01 4.9129810e+00 1.0851686e-01 
1.1218039e+01 -7.9234605e+00 6.3132602e-01 
2.1460497e+00 -3.1999714e+00 8.3847064e-01 
2.1688945e+00 1.4034057e+00 6.4840978e-01 
1.1405477e+01 -1.3519672e+01 8.4360790e-01 
-9.6108494e+00 1.0458115e+01 2.7393082e-01 
-1.7756263e+00 8.4774952e+00 -1.7971259e+00 
1.7192547e+00 3.3823981e+00 5.1274788e-01 
-1.4304593e+01 7.6739116e+00 -2.2003001e-01 
-8.4830940e-01 6.4033394e+00 -1.6445972e+00 
3.3957443e-01 -1.5331334e+00 5.4332513e-01 
-7.3275084e+00 8.8834467e+00 -6.1318958e-01 
1.2723797e+01 -1.0908567e+01 1.1955273e+00 
2.1245155e+00 -4.2342710e+00 1.1598105e+00 
-1.1838023e-01 -7.4852085e-01 2.0262890e-01 
1.2309493e+00 -1.4655607e+00 7.2436832e-02 
6.5333853e+00 -1.2502185e+01 1.1410425e+00 
1.7745994e+00 -2.9051039e+00 5.8053690e-01 
-7.5058830e-01 5.5028872e+00 -1.2172886e+00 
4.8063173e+00 -7.5839477e+00 1.6625314e+00 
-5.2657361e+00 1.1014372e+01 -1.8168405e+00 
-1.4668567e+01 4.5153208e+00 3.2314298e-01 
-6.8953767e+00 6.9049034e+00 -2.0710410e-01 
5.3090829e-01 5.5275393e-01 3.6115396e-01 
-1.1054844e+01 7.8233509e+00 -1.9470816e-02 
-3.8336569e-01 1.2072389e+00 -3.6707079e-01 
-1.0831453e+00 7.3080649e+00 -1.8893815e+00 
1.1158974e+01 -1.2437999e+01 2.7141955e+00 
2.5347154e+00 1.0231845e+00 5.6491035e-01 
-1.1036533e+01 8.0551891e+00 -3.8900379e-02 
7.0369735e+00 -1.0113184e+01 1.6980679e+00 
9.8187532e+00 -1.0608503e+01 9.5766354e-01 
1.2056117e+01 -7.3283548e+00 -3.0684603e-02 
-9.9533100e+00 5.4626322e+00 -1.1809673e-03 
4.2653928e+00 1.8847753e+00 1.0709146e+00 
7.1194654e+00 -6.1340914e+00 5.3975064e-01 
-6.2353134e-01 -8.0525476e-01 -2.8534662e-02 
-6.1810665e-06 2.5323069e+00 5.0898218e-01 
1.2620986e+00 3.0492252e-01 -1.4990796e-01 
-3.8630253e-01 2.9478092e+00 -3.0976212e-01 
-7.6423568e-01 7.6247792e+00 -2.0273216e+00 
1.3195301e+00 -3.2370353e+00 1.2871335e+00 
-1.8161696e+00 7.8405671e+00 -1.3475852e+00 
1.9655128e+00 -6.8328543e+00 9.1603696e-01 
-2.0573688e+00 5.7607656e+00 -7.1867424e-01 
2.8651915e+00 -4.3536501e+00 4.1796851e-01 
-5.8568072e+00 8.2271080e+00 -1.2043008e+00 
5.1424913e+00 -1.0640164e+01 1.3699462e+00 
-8.3049212e+00 8.3354673e+00 -2.6644832e-01 
6.0463448e+00 -9.6348009e+00 6.3850963e-01 
-7.7553997e+00 6.6444983e+00 9.3041204e-02 
6.8820581e+00 -8.6336517e+00 1.7777730e+00 
-6.9535680e+00 6.1395330e+00 -1.2688196e-01 
8.9183941e+00 -1.0862606e+01 1.4331546e+00 
3.2414975e+00 8.7327099e-01 -4.0211552e-01 
-1.0283767e+01 6.9022870e+00 9.8855831e-02 
8.0580263e+00 -8.2002649e+00 5.7260168e-01 
-1.3056543e+01 3.7567730e+00 3.7480482e-01 
8.4417610e+00 -5.0419602e+00 2.0046759e-01 
3.0600259e+00 2.3824272e+00 -1.1811811e+00 
-1.2404601e+01 -1.1797099e+00 4.6891522e-01 
1.0956244e+01 -6.8831182e-01 -1.0943466e-01 
-7.2044969e-01 -2.2034167e-01 1.2070233e-01 
-1.1552774e+00 1.0503400e+01 -2.3461497e+00 
-6.5932864e-01 5.7186332e+00 -1.3012619e+00 
-2.5834446e+00 8.9256449e+00 -2.1899381e+00 
4.7071972e+00 -7.5594282e+00 1.7296448e+00 
5.9662523e+00 -9.3182659e+00 1.2061861e+00 
2.3264527e-01 -9.2368448e-01 1.8764742e-01 
1.8605649e+00 -5.2941833e+00 1.2674347e+00 
9.1252928e+00 -1.1714282e+01 1.2847012e+00 
-6.6036463e+00 5.2227077e+00 3.5570821e-01 
-7.9896488e+00 1.0033649e+01 -1.2957038e+00 
8.9195614e+00 -1.0864163e+01 1.4076639e+00 
-9.3815899e+00 7.9897275e+00 9.5032454e-02 
-8.5703068e+00 9.8052912e+00 -1.5411469e-01 
9.2402534e+00 -1.2607115e+01 1.2190292e+00 
7.9556007e+00 -7.2705064e+00 1.0486473e+00 
3.1238325e+00 5.2346015e-01 1.8984437e-01 
6.1240993e+00 -3.1429002e+00 4.9523732e-01 
-1.0625640e+01 5.4287028e+00 4.7040582e-02 
7.6860614e-02 4.2380023e+00 -1.2569569e+00 
-1.6121453e+00 -4.8467043e-01 2.3738275e-01 
2.4374254e+00 1.2448918e+00 -1.1041780e+00 
-1.5735520e+00 4.9400172e+00 -1.3929992e+00 
-1.4214046e+01 1.5790091e+00 3.4787095e-01 
4.5462516e-01 -1.6658232e+00 6.1140877e-01 
1.4875852e+00 -4.3588948e+00 2.5272697e-01 
-7.0746011e-01 4.0696836e+00 -1.0449872e+00 
4.4045535e-01 6.5880781e-01 5.3465873e-01 
-3.3423867e+00 7.2721620e+00 -1.0329694e+00 
3.9255731e+00 -7.5969806e+00 6.0190916e-01 
7.8114681e+00 -1.8285652e+00 6.7243373e-01 
9.1096771e-01 2.8779840e+00 2.4217604e-01 
-4.1411152e+00 3.9686298e+00 -1.4200541e-01 
-3.9907569e-01 8.4088993e+00 -2.1381209e+00 
1.1715283e+01 -1.7536814e+01 2.1956856e+00 
8.6211958e+00 -6.6800036e+00 9.4625539e-01 
-9.8526049e+00 1.0085835e+01 1.4729188e-01 
1.2182626e+01 -1.6893944e+01 2.0397766e+00 
-1.0412017e+01 9.0217400e+00 -4.0432245e-01 
-8.4723406e+00 4.0090241e+00 1.2521334e-01 
1.0293093e+01 -1.1289937e+01 1.8596483e+00 
-1.1073821e+01 8.0752468e+00 -1.5544853e-01 
2.5046690e+00 1.7268287e+00 -3.6790740e-02 
6.2470615e-01 2.8564689e+00 9.5875315e-02 
-4.5445099e+00 7.5967298e+00 -7.7805442e-01 
6.0124307e+00 -1.0254031e+01 1.7241431e+00 
-1.4684144e+00 4.8711810e+00 -1.0501888e+00 
-2.0167425e+00 -3.2471839e-01 3.8265800e-01 
3.1768474e-01 -7.6654911e-01 -4.5522703e-03 
2.4058819e+00 -3.4019103e+00 7.9366052e-01 
-1.6214612e+00 6.8308420e+00 -1.2488753e+00 
3.5055878e+00 -6.0499487e+00 4.7036630e-01 
-3.5353464e-01 4.6894207e+00 -1.5424352e+00 
-1.0246496e+01 4.1160927e+00 5.8564592e-02 
7.2761030e+00 -5.2199950e+00 8.0016279e-01 
-6.2627697e-01 5.3743057e+00 -1.4794239e+00 
-6.4717727e+00 6.8909883e+00 3.7689322e-01 
5.5905180e+00 -9.0091877e+00 1.2590010e+00 
1.2267524e+00 1.4780424e+00 3.3055052e-01 
-1.0480644e+01 7.5976005e+00 -4.4067994e-01 
6.9695842e-01 -1.9478385e+00 5.8689797e-01 
9.6844292e+00 -1.0055078e+01 1.9319673e+00 
9.5727521e-01 -3.0695951e+00 2.4507019e-01 
-1.0987271e+00 4.4741020e+00 -9.0727735e-01 
-2.6717681e-01 4.1469960e+00 -1.3238325e+00 
-3.7434585e+00 5.0476699e+00 -8.5130209e-01 
3.8849711e+00 -7.7019753e+00 7.0801765e-01 
2.0204365e+00 2.3395255e+00 -5.5888545e-02 
-8.8125998e-01 -4.9957526e-01 2.2044334e-01 
1.3769241e+01 -1.8714344e+01 2.0331511e+00 
-1.2095072e+01 9.5855713e+00 -1.2163102e-01 
1.8806141e+01 -2.1404482e+01 3.8921270e+00 
-5.8331573e-01 5.7967172e+00 -1.1475163e+00 
1.7960702e+00 1.3726504e-01 -2.8210899e-01 
-2.2961042e+00 5.1290994e+00 -8.0793440e-01 
3.0583706e+00 -5.6727557e+00 9.2605954e-01 
-5.3733006e+00 6.7816424e+00 -5.9602313e-02 
-7.9880204e+00 3.7311110e+00 -6.0932327e-02 
2.7326696e+00 2.0016885e+00 -2.5517595e-01 
6.5681367e+00 -5.2439575e+00 8.7996507e-01 
-9.5615555e-03 2.3209829e+00 -9.3578285e-01 
4.5503097e+00 -8.2183533e+00 6.8181574e-01 
-1.9679310e+01 1.2977535e+01 2.1701036e-01 
1.5973520e-01 -6.3059276e-01 -6.5728515e-02 
1.4248741e+00 -4.3169222e+00 4.3886632e-01 
7.1133466e+00 -6.3709211e+00 1.0939827e+00 
1.7005322e+00 8.2250260e-02 -3.5310608e-01 
-1.4507722e+00 5.4287524e+00 -1.2193143e+00 
-5.9036678e-01 4.8079352e+00 -1.4374467e+00 
-7.9198136e+00 4.6096902e+00 -6.7646518e-02 
-4.5271225e+00 6.3198438e+00 -2.7100235e-01 
4.7680011e+00 -8.0221262e+00 7.0853245e-01 
-5.7735234e-01 2.1259294e+00 -2.5877568e-01 
-8.5034126e-01 -5.0300765e-01 2.8006199e-01 
-9.8390406e-01 6.6603098e+00 -1.6587418e+00 
1.9500127e+00 1.4909388e+00 -5.4171681e-02 
-2.1682236e+00 2.5004327e+00 -2.2291807e-03 
-2.3433449e+00 5.1942477e+00 -1.1779866e+00 
3.2951038e+00 -5.5865045e+00 1.4318468e-01 
-7.4011741e+00 4.6927023e+00 -3.3167681e-01 
1.3847376e+00 -2.2876573e+00 -1.7919378e-02 
1.1586120e+00 2.2999916e+00 6.0810447e-01 
1.7174011e+00 -3.7856958e+00 7.5066835e-01 
6.1899023e+00 -6.3257818e+00 1.1521909e+00 
-6.0586948e+00 6.7779865e+00 -7.9634959e-01 
8.2261314e+00 -1.1038089e+01 1.6515629e+00 
-1.9738121e-01 5.5836802e+00 -2.0549254e+00 
-1.0413175e+00 4.5461731e+00 -1.2289443e+00 
-1.0653676e+01 7.5068846e+00 -5.5330551e-01 
1.0580243e+01 -1.1365961e+01 2.0578403e+00 
-4.2086320e+00 6.1485920e+00 -9.8860365e-01 
3.3579032e+00 -7.9160419e+00 8.8495249e-01 
-8.1796235e-01 -4.9922383e-01 2.9704320e-01 
-1.9540001e+01 1.8784912e+01 6.8736368e-01 
-5.1870817e-01 6.2800813e+00 -1.7903262e+00 
1.9250034e+01 -2.9100843e+01 3.5705507e+00 
1.8360225e+00 8.4755397e-01 -5.3735960e-01 
4.0275943e-01 -6.5515780e-01 -1.6538794e-01 
1.1137099e+00 -3.0897064e+00 3.1968364e-01 
1.6387440e+00 1.5959068e-01 5.2261037e-01 
-5.9088917e+00 6.3767648e+00 -2.4405999e-02 
-1.8635252e+00 6.4824071e+00 -9.6456945e-01 
5.1142793e+00 -8.7841835e+00 5.5178636e-01 
4.2352834e+00 -6.0903192e+00 4.1710225e-01 
-7.4514546e+00 4.9611750e+00 -5.1997638e-01 
2.5413091e+00 2.0312414e+00 -6.6020924e-01 
6.0005279e+00 -6.4439497e+00 1.3436579e+00 
-3.1318015e-01 4.6646385e+00 -1.3771751e+00 
-1.6547362e+00 4.6539202e+00 -1.1263274e+00 
1.7487429e+01 -2.3793371e+01 3.7112784e+00 
-1.8510298e+01 1.6113766e+01 -7.5916928e-01 
-6.7781391e+00 4.2337308e+00 -3.7069640e-01 
1.3362538e+00 -3.6095083e-01 -7.2604172e-02 
5.8010888e+00 -6.0103793e+00 1.3098917e+00 
6.5908417e-02 2.3754401e+00 -1.2565107e+00 
-4.3442984e+00 5.6940322e+00 -3.9830047e-01 
4.2688556e+00 -7.5331278e+00 1.0713961e+00 
1.2382836e+00 7.4050540e-01 2.0408180e-02 
-8.1568944e-01 4.8118200e+00 -1.6117092e+00 
1.2496545e+00 -2.2441659e+00 -4.5296490e-02 
1.5760555e+00 -2.4150021e+00 -3.0187103e-01 
-8.0252999e-01 -5.0000650e-01 3.1282175e-01 
-2.1001167e+00 5.3245845e+00 -1.1668013e+00 
3.0976930e+00 -5.7739878e+00 1.6895466e-01 
-7.2267594e+00 5.0756383e+00 -5.8865303e-01 
1.5698751e+00 2.1493864e+00 -1.7382983e-02 
-5.0020993e-01 4.4569278e+00 -1.5401942e+00 
5.7884784e+00 -6.6193733e+00 1.4150398e+00 
-1.2484926e+00 4.0621519e+00 -1.1328943e+00 
-7.6762037e+00 8.2656527e+00 -3.3807161e-01 
8.0083065e+00 -1.2060206e+01 1.9245698e+00 
4.3565184e-01 1.4072917e+00 -9.9369124e-02 
9.5730728e-01 -6.8777460e-01 -4.6597856e-01 
2.1695652e+00 -3.6055949e+00 3.9848143e-01 
-8.7590666e+00 6.8257937e+00 -5.3579193e-01 
8.2421885e+00 -1.0088572e+01 1.7925491e+00 
1.0967772e+00 4.1135862e-01 1.6580747e-01 
-9.9269086e-01 5.6722107e+00 -1.5803527e+00 
-3.9181983e+00 5.6560049e+00 -2.1638253e-01 
4.1805058e+00 -6.8093843e+00 2.7660027e-01 
1.1025072e+00 5.2230954e-01 -3.5017616e-01 
-7.9832941e-01 -5.0507456e-01 3.4430659e-01 
-1.5630117e+01 1.2871134e+01 1.1277004e-02 
1.5535436e+01 -2.1671076e+01 2.5156796e+00 
3.3093417e-01 5.3717051e+00 -2.5465019e+00 
3.5364038e-01 8.1952089e-01 3.0826184e-01 
1.7115813e-01 2.1443663e+00 -9.9911892e-01 
-2.9780167e-01 2.9370117e-01 5.9638582e-02 
1.2032524e+00 5.4084224e-01 -3.6128965e-01 
-1.4118103e+00 4.7810497e+00 -1.1775705e+00 
-5.2795882e+00 5.1111789e+00 -2.1781550e-01 
-2.9760900e+00 4.8661885e+00 -9.7222316e-01 
4.8170667e+00 -8.0345821e+00 1.0264735e+00 
2.5738025e+00 -4.5756645e+00 3.0327070e-01 
-7.1712680e+00 4.9983130e+00 -6.3184327e-01 
5.6990318e+00 -6.5100570e+00 1.6244016e+00 
1.2860999e+00 -1.6267803e+00 -1.3683325e-01 
2.3879251e+00 -4.1173172e+00 2.9642081e-01 
-9.5132107e-01 6.0333524e+00 -1.9097695e+00 
-1.8639290e+01 1.3344633e+01 -3.1479487e-01 
1.6909355e+01 -1.9912857e+01 3.2636311e+00 
-6.8573642e+00 4.5806704e+00 -3.5877138e-01 
2.4847167e+00 3.3700082e-01 9.5260814e-02 
5.5699663e+00 -5.9969788e+00 1.4268540e+00 
-3.7161212e+00 5.4875093e+00 -8.4973466e-01 
4.9380932e+00 -6.7119598e+00 7.0317209e-01 
-8.1632459e-01 -4.8867404e-01 3.5379460e-01 
-2.4182850e-02 1.8611594e+00 -2.1854962e-01 
-7.9713738e-01 4.5646286e+00 -1.5334762e+00 
6.9162458e-01 5.1336277e-02 -2.3214580e-01 
-1.4420393e+00 4.3725729e+00 -1.2978902e+00 
1.3239430e+00 -7.3697519e-01 -4.4827485e-01 
2.1223357e+00 -3.1843233e+00 4.9270276e-02 
-3.2941868e+00 5.1976104e+00 -1.0155772e+00 
4.2450113e+00 -5.9292350e+00 2.3724402e-01 
-7.0667653e+00 5.0019431e+00 -6.3920993e-01 
5.5571222e+00 -6.5574665e+00 1.5066786e+00 
-4.9740959e-02 1.9554236e+00 -6.9196719e-01 
2.8224498e-01 2.8843493e+00 -1.5904598e+00 
-7.9941378e+00 8.5192366e+00 -5.0456452e-01 
9.2565460e+00 -1.3200302e+01 1.3320539e+00 
-5.7504958e-01 3.9868054e+00 -1.5538456e+00 
1.0989447e+00 1.6054643e+00 -7.2179079e-01 
9.2937618e-01 1.1286944e+00 -2.6525138e-02 
-9.3332901e+00 7.6383553e+00 -4.4578159e-01 
8.1131735e+00 -1.0296495e+01 1.5872518e+00 
-4.2175918e+00 5.0302567e+00 -7.7783120e-01 
4.8105865e+00 -6.2207856e+00 9.9081612e-01 
7.9687077e-01 -3.8006681e-01 -1.4150454e-01 
-8.3742404e-01 -4.8998466e-01 3.5065696e-01 
-1.9763401e+01 1.6585535e+01 3.4917229e-01 
1.7175756e+01 -2.4219143e+01 3.1336856e+00 
-6.9707453e-01 4.3937669e+00 -1.6770290e+00 
9.5308775e-01 -1.6242816e-01 -6.0710824e-01 
2.5727599e+00 -2.5363755e+00 -1.0319235e-01 
-1.5998455e+00 3.7448514e+00 -8.4270960e-01 
2.3254080e+00 -2.9478374e+00 -1.8201156e-01 
1.6308874e+00 -1.1266924e-01 -2.9219430e-02 
-5.9611831e+00 5.4743042e+00 1.3870028e-01 
-2.8165774e+00 4.8293595e+00 -1.2202865e+00 
5.0129585e+00 -7.5500045e+00 5.2826017e-01 
2.5674131e+00 -3.7785671e+00 1.1731731e-01 
-7.2046990e+00 5.0015578e+00 -6.9622499e-01 
1.3404623e+00 9.9542654e-01 -2.3379187e-01 
5.5382690e+00 -6.4855943e+00 1.5531026e+00 
5.6863171e-01 2.0406499e+00 -1.8683802e-01 
-1.1373734e+00 6.2019167e+00 -1.5451763e+00 
1.3523953e+00 -4.4742352e-01 -5.0442554e-03 
-1.8703650e+01 1.3646776e+01 -5.3856373e-01 
-6.7240176e+00 4.5574546e+00 -3.3482459e-01 
1.6604372e+01 -2.0237238e+01 3.1905050e+00 
1.1426380e-01 5.3343840e+00 -2.6030629e+00 
5.6208110e+00 -6.3725300e+00 1.3944316e+00 
1.4150310e+00 -5.8839370e-02 -5.8443153e-01 
1.8466852e+00 -2.5065830e+00 1.2746848e-01 
1.0447500e+00 8.5200667e-01 -1.2098583e-01 
-4.8071551e+00 5.1781988e+00 -4.7870669e-01 
1.7295470e+00 -2.1179340e+00 -3.3835385e-02 
4.5701537e+00 -6.8078580e+00 8.6149836e-01 
-8.6363518e-01 -4.9157691e-01 3.4916145e-01 
-1.6000361e+00 4.3170142e+00 -1.3139981e+00 
2.2486000e-01 -6.7583859e-02 2.7440855e-01 
-3.0017080e+00 5.8329406e+00 -9.1220200e-01 
2.8930871e+00 -3.5298097e+00 1.6350831e-01 
-7.1818337e+00 4.7639961e+00 -6.0945177e-01 
5.5702224e+00 -6.3961430e+00 1.5776248e+00 
1.0758108e+00 1.0247958e+00 -7.9116905e-01 
-8.7523246e-01 4.7592797e+00 -1.6860561e+00 
-9.0042219e+00 8.1914558e+00 -3.2173920e-02 
7.9780092e+00 -1.1550911e+01 1.7799000e+00 
1.6290039e+00 2.1531620e+00 -3.0686989e-01 
1.1625829e+00 -1.7066285e-02 -7.1135545e-01 
1.6889026e+00 -1.9039483e+00 -2.1344361e-01 
2.8612628e+00 -3.1972160e+00 8.4382072e-02 
-9.7949495e+00 7.1266279e+00 -5.2057612e-01 
8.3467846e+00 -9.9182482e+00 1.6277497e+00 
-8.3066636e-01 4.4375334e+00 -1.6312535e+00 
4.6393114e-01 3.5942137e-01 -3.0340958e-01 
1.9190887e+00 8.7314141e-01 -7.0442671e-01 
-1.5589621e+00 4.1201677e+00 -1.0253624e+00 
-4.5085926e+00 4.7830062e+00 -4.7706744e-01 
4.3142629e+00 -6.2997537e+00 6.8053287e-01 
1.5254333e+00 -4.7330597e-01 2.7395951e-02 
-8.8761950e-01 -4.8272151e-01 3.8666609e-01 
-2.0193287e+01 1.3902252e+01 -1.2729266e-01 
1.7486814e+01 -2.2333000e+01 2.8910911e+00 
6.4539188e-01 3.0550525e+00 -1.8510426e+00 
-1.3237920e+00 4.0013585e+00 -1.4133487e+00 
-6.1106215e+00 5.4045410e+00 -3.4652114e-01 
-2.8162045e+00 4.3861737e+00 -9.7436690e-01 
6.3376589e+00 -7.7282805e+00 5.9378475e-01 
4.2443919e+00 -4.7320065e+00 -2.4170678e-02 
-7.3459687e+00 4.7281642e+00 -7.3519307e-01 
1.4633279e+00 1.7688912e+00 -4.8026153e-01 
5.5361919e+00 -6.1853933e+00 1.6880622e+00 
2.0680220e+00 -1.2090921e+00 -4.8663878e-01 
2.6599112e+00 -1.7099148e+00 -1.5051344e-01 
-6.4689583e-01 3.9915459e+00 -1.4817152e+00 
6.3688660e-01 2.9590434e-01 -2.6195642e-01 
-2.0077183e+01 1.2769899e+01 -6.0749221e-01 
-2.3330164e+00 5.2934122e+00 -1.5241270e+00 
-6.9731293e+00 4.1539721e+00 -2.9745755e-01 
1.7764040e+01 -1.9453083e+01 3.0762923e+00 
5.6913233e+00 -5.9546571e+00 1.4990138e+00 
6.4264524e-01 1.5096295e+00 -3.3093148e-01 
-4.9777322e+00 5.0841575e+00 -2.4143308e-01 
4.8458061e+00 -6.5898752e+00 3.2942951e-01 
1.2349800e+00 2.0480051e+00 -7.4864227e-01 
-9.0572357e-01 -4.7846818e-01 3.8788298e-01 
1.4074532e+00 5.0473284e-02 -8.8493979e-01 
-1.2446198e+00 4.6982017e+00 -1.5372766e+00 
1.9228816e+00 -1.4298505e+00 -3.5043433e-01 
4.2346640e+00 -3.6161845e+00 -3.5037071e-01 
-3.6384449e+00 5.1269774e+00 -1.0425553e+00 
2.9555829e+00 -3.2540319e+00 -1.2456537e-01 
-7.2845745e+00 4.5510831e+00 -5.9346884e-01 
5.5209813e+00 -6.1161089e+00 1.6866498e+00 
7.9558939e-02 1.0639169e+00 -7.1006495e-01 
1.3238750e+00 5.3965867e-01 -3.4877685e-01 
-7.9711823e+00 5.2106247e+00 1.9629970e-01 
4.0882757e-01 9.6761420e-02 -6.4747341e-02 
7.8796811e+00 -9.7756195e+00 1.1554474e+00 
-1.6192249e+00 4.0856857e+00 -1.1292074e+00 
-1.0386274e+01 6.8948946e+00 -5.1165879e-01 
4.7358325e-01 5.7520428e+00 -3.1890302e+00 
8.3851137e+00 -9.2614851e+00 1.7453823e+00 
1.2597541e+00 4.5331669e-01 -4.8279282e-01 
-5.0588665e+00 4.5920310e+00 -3.0751821e-01 
5.0069990e+00 -5.8038101e+00 2.7770743e-01 
1.2841532e+00 -1.3834831e-03 -5.6589508e-01 
-9.1429889e-01 -4.7957754e-01 4.1341203e-01 
2.3097317e+00 -8.8617671e-01 -6.5661901e-01 
2.8557086e+00 -2.3189831e+00 -2.5803414e-01 
-2.1968180e+01 1.2868952e+01 7.7061135e-01 
1.9902266e+01 -2.2417181e+01 3.0913723e+00 
1.3273565e+00 2.1225388e-01 1.4254770e-01 
-1.4138892e+00 4.8213091e+00 -1.8241969e+00 
7.7513528e-01 3.1683078e+00 -8.6880612e-01 
-6.3968134e+00 4.0240893e+00 -4.6360783e-02 
-3.7476397e+00 4.2909098e+00 -9.7451258e-01 
4.8407354e+00 -4.9605570e+00 5.6188887e-01 
5.5336523e+00 -5.4495096e+00 -3.8553920e-02 
-7.3794227e+00 4.6423645e+00 -7.3014414e-01 
5.4369702e+00 -6.0602593e+00 1.7321037e+00 
2.0735079e-01 3.9329773e-01 -3.5090637e-01 
-7.5739926e-01 3.4740026e+00 -1.3285356e+00 
-2.1536875e+00 3.7068026e+00 -1.0865501e+00 
7.4293870e-01 7.8781801e-01 -8.7625736e-01 
1.8059306e+00 5.4504283e-02 -9.6511960e-01 
-2.0735218e+01 1.1071636e+01 -1.1144236e-01 
2.2596920e+00 -1.3650293e+00 -2.8852838e-01 
-7.1129704e+00 4.1276479e+00 -2.0945422e-01 
1.7999702e+01 -1.7568550e+01 3.4118314e+00 
2.9545872e+00 -2.3008921e+00 -5.0832760e-01 
5.7221699e+00 -5.8709645e+00 1.5352077e+00 
1.3980536e+00 1.5306951e+00 -5.0641161e-01 
-5.0668635e+00 5.0578990e+00 -9.9669206e-01 
4.6973400e+00 -4.6070657e+00 5.1208162e-01 
-9.2835897e-01 -4.7889167e-01 4.0785533e-01 
-1.4787620e+00 4.3826542e+00 -1.7689561e+00 
4.4224283e-01 -7.2932787e-02 -1.4883783e-01 
1.2125528e+00 1.1966909e-01 3.4311753e-02 
-3.5056381e+00 4.2939687e+00 -1.0209630e+00 
4.6981959e+00 -3.9648488e+00 3.1064119e-02 
-7.2823691e+00 4.5142827e+00 -5.9392118e-01 
5.3994770e+00 -6.0507455e+00 1.7363201e+00 
2.0457692e+00 -1.3639842e-01 1.8024269e-01 
9.4116503e-01 5.4520788e+00 -3.3291268e+00 
-2.3424244e+00 4.1938181e+00 -1.3897737e+00 
-1.0230723e+01 5.9589233e+00 3.4218407e-01 
8.7927256e+00 -9.4583683e+00 7.0007235e-01 
2.6485565e+00 -8.2816583e-01 -7.3818731e-01 
3.8899770e+00 -2.1216025e+00 -6.9526750e-01 
-1.0479888e+01 6.6548162e+00 -4.0210405e-01 
6.6350889e-01 4.5828336e-01 -1.2872867e-01 
8.3866568e+00 -9.1284914e+00 1.7336192e+00 
-1.4831047e+00 3.9148159e+00 -1.7548393e+00 
-5.1103516e+00 3.0955141e+00 -1.0037783e-01 
5.2338200e+00 -5.1975121e+00 2.8668660e-01 
5.2929498e-02 1.6597105e+00 -5.4700482e-01 
-9.3865246e-01 -4.7796014e-01 4.2936686e-01 
-2.3437395e+01 1.2046602e+01 3.7892103e-01 
1.1831801e+00 1.1325701e+00 -9.3920803e-01 
1.9439882e+01 -1.8389685e+01 2.3308647e+00 
3.1487379e+00 -5.3948456e-01 1.8714067e-01 
-1.0785607e+00 3.4973726e+00 -1.4669514e+00 
2.3597386e+00 8.6030133e-02 -1.0792150e+00 
-1.5740499e+00 2.9765706e+00 -1.2378869e+00 
2.9442565e+00 -1.4313084e+00 -5.5514330e-01 
-6.5011406e+00 4.1568742e+00 4.3522054e-01 
-4.2665434e+00 3.9070385e+00 -1.0014360e+00 
4.2649827e+00 -2.5397596e+00 -1.3333932e-01 
5.8597236e+00 -6.4557767e+00 5.5387318e-01 
3.3755419e+00 -2.8906410e+00 -2.6880848e-01 
-7.3879819e+00 4.5086246e+00 -7.4195659e-01 
1.1090446e+00 1.7163780e+00 -8.1481886e-01 
1.0800939e+00 5.1603287e-01 -3.7224364e-01 
5.3486171e+00 -5.9220805e+00 1.7881052e+00 
3.5277560e-01 2.4222124e-02 -3.3440074e-01 
5.6062150e-01 6.7946029e-01 -5.0759941e-01 
-1.7474728e+00 4.0814424e+00 -1.6498367e+00 
-2.2356562e+01 1.1960524e+01 -5.4167295e-01 
-7.4226236e+00 3.6754558e+00 -3.1846711e-01 
1.8714205e+01 -1.8158073e+01 3.0013671e+00 
5.8042340e+00 -5.4570718e+00 1.5610348e+00 
-6.1985927e+00 3.4936724e+00 -1.7776774e-01 
5.4571366e+00 -4.7268257e+00 4.7465041e-02 
6.2963563e-01 3.1822622e-01 -4.8149991e-01 
-6.4428562e-01 9.6412599e-01 -2.9473177e-01 
-9.5846355e-01 -4.7056979e-01 4.2430559e-01 
3.1706150e+00 -4.6229371e-01 -8.1002402e-01 
3.8294721e+00 -1.9509051e+00 -3.4983790e-01 
1.4837878e+00 5.0492768e+00 -3.5954695e+00 
9.6360672e-01 9.4512887e-02 -3.3863994e-01 
-2.8143709e+00 3.4413939e+00 -1.3333045e+00 
-3.9147649e+00 3.8941264e+00 -1.1529586e+00 
6.4415188e+00 -4.4425783e+00 -2.1360144e-01 
-7.4283485e+00 4.2868690e+00 -6.4151120e-01 
1.0483041e+00 1.2238319e+00 -5.4945832e-01 
5.3592725e+00 -5.7394595e+00 1.7413765e+00 
-1.0288099e+01 5.1762762e+00 1.4438900e-01 
8.5778456e+00 -8.3608732e+00 1.0391866e+00 
-1.7444538e+00 4.0721645e+00 -2.0070984e+00 
-1.0881229e+01 6.0514917e+00 -3.6831185e-01 
8.6044216e+00 -8.7304344e+00 1.7949922e+00 
4.0922041e+00 -7.0564175e-01 -1.0055428e+00 
3.2149453e+00 -1.4638801e+00 -4.2899534e-01 
-5.8561764e+00 3.0757837e+00 -1.4025770e-01 
4.6490249e-01 1.0866988e+00 -7.2384632e-01 
5.3425345e+00 -4.4399886e+00 1.6256934e-01 
2.5843346e-01 1.8445336e+00 -9.7812313e-01 
2.8169208e+00 2.7690527e-01 -1.2078450e+00 
-9.8479784e-01 -4.5334446e-01 4.2605260e-01 
-2.4661707e+01 9.9885921e+00 2.7831718e-01 
2.1406788e+01 -1.9227499e+01 2.1535285e+00 
-1.0998659e+00 3.1591306e+00 -1.4074140e+00 
-2.9705408e+00 3.1539972e+00 -1.3878963e+00 
2.0214660e+00 4.6197820e-01 -7.3188519e-01 
7.5372756e-01 -7.2889969e-02 -5.8095211e-01 
-7.1682019e+00 3.8019450e+00 7.3296845e-01 
-4.7584686e+00 4.0649619e+00 -9.5326430e-01 
6.0376287e+00 -5.2947807e+00 4.2940164e-01 
6.4850917e+00 -3.6958971e+00 -3.4337381e-01 
5.8482277e-01 4.0522969e-01 -4.5256186e-01 
-7.6004648e+00 3.9848628e+00 -7.0515704e-01 
5.3967447e+00 -5.3204122e+00 1.7531211e+00 
-1.7401692e+00 3.2930217e+00 -1.5748416e+00 
1.2975354e+00 1.0292367e+00 -6.5513128e-01 
3.4801466e+00 -2.9448995e-01 -1.0468646e+00 
4.3067942e+00 -1.4635593e+00 -4.9854466e-01 
-7.5507970e+00 3.1924014e+00 -2.1784982e-01 
5.8231068e+00 -4.9566584e+00 1.4756677e+00 
-2.4851652e+01 1.0744580e+01 -2.7880454e-02 
2.0368059e+01 -1.5939042e+01 3.1181879e+00 
-6.4980674e+00 3.8615768e+00 -3.3880731e-01 
9.1511828e-01 1.3081814e-01 -2.4270777e-01 
6.7604551e+00 -4.3947506e+00 -4.4976536e-02 
4.0394935e-01 9.7937390e-02 6.9387920e-02 
2.0930469e+00 1.3659806e+00 -5.7105309e-01 
1.8874569e+00 4.7923346e+00 -3.8929269e+00 
-1.0032490e+00 -4.3915159e-01 4.1974598e-01 
-2.9256065e+00 2.8827806e+00 -1.2607079e+00 
6.1115789e-01 1.0297954e+00 -7.9290998e-01 
-5.1128426e+00 3.4326575e+00 -7.9501313e-01 
4.1915464e+00 -2.4277472e+00 -3.0861226e-01 
-7.6380448e+00 3.6201086e+00 -5.4011130e-01 
6.0623803e+00 -2.2253418e+00 -7.6897848e-01 
5.4502602e+00 -5.0067606e+00 1.6632111e+00 
-1.8347229e+00 3.2436342e+00 -1.9307705e+00 
3.5366316e+00 -7.2912067e-01 -7.2777301e-01 
8.9347279e-01 6.4487502e-02 -3.8723564e-01 
-1.0045155e+01 3.3412416e+00 -4.1241756e-01 
8.5882664e+00 -6.5550852e+00 8.8287723e-01 
-1.9510943e-01 9.5292586e-01 -2.7164128e-01 
3.5790796e+00 2.7919054e-01 -1.3022705e+00 
5.1646495e-01 3.8164669e-01 -3.5926756e-01 
-1.1195899e+01 5.1984715e+00 -2.8950283e-01 
8.5723677e+00 -7.4268961e+00 1.6055784e+00 
-1.2195379e+00 2.7734730e+00 -1.5728894e+00 
-3.5601382e+00 3.4818339e+00 -1.6529436e+00 
7.3748022e-01 -1.1341709e-01 -3.2399154e-01 
-6.6439481e+00 2.5545404e+00 -2.0760009e-01 
4.2353299e-01 7.6156509e-01 -3.0566514e-01 
5.8957191e+00 -3.5653634e+00 3.4747341e-01 
-7.5814705e-03 2.1363692e-01 6.7682989e-02 
-1.0132711e+00 -4.3449098e-01 4.2977363e-01 
-2.7435682e+01 1.0836178e+01 8.8278919e-01 
2.1389740e+01 -1.6826307e+01 2.4096255e+00 
3.3321099e+00 -2.5210434e-01 -1.0806726e+00 
5.2519860e+00 -1.3074250e+00 -8.4199297e-01 
3.1700943e+00 -1.6799088e-01 -7.0531332e-01 
-2.3097928e+00 3.1953039e+00 -1.6791934e+00 
-7.7677712e+00 2.4908335e+00 5.1405895e-01 
-4.9461432e+00 3.1655660e+00 -9.9073613e-01 
6.4076047e+00 -4.6798472e+00 2.3357067e-01 
6.9610114e+00 -2.7938824e+00 -3.5285580e-01 
1.5078335e+00 1.6754221e+00 -1.2507733e+00 
-7.7992725e+00 3.4211278e+00 -5.9052712e-01 
1.1047769e+00 9.2996621e-01 -5.5272532e-01 
5.4551291e+00 -4.7149606e+00 1.6019807e+00 
3.1071076e-01 3.2448038e-01 -2.2589916e-01 
2.4243903e-01 -1.3151655e-01 -2.8304687e-01 
-2.2614307e+01 7.4131260e+00 3.3637145e-01 
-8.1187849e+00 2.8353384e+00 -1.7136902e-01 
2.0993473e+01 -1.4659514e+01 3.0925765e+00 
6.1720400e+00 -4.6097064e+00 1.2777934e+00 
3.8019338e+00 5.0976353e+00 -4.7984290e+00 
4.2148417e-01 1.0660877e+00 -6.5442288e-01 
-7.0116196e+00 2.4441285e+00 2.0747343e-01 
6.5497479e+00 -4.0135942e+00 1.3107125e-01 
5.0313181e-01 2.0154950e-01 -3.7815058e-01 
5.0037208e+00 -2.0817554e-01 -1.3488038e+00 
-1.0419900e+00 -4.0754312e-01 4.1535529e-01 
4.9434814e+00 -1.5395286e+00 -6.2975276e-01 
3.9700994e-01 1.0005023e+00 -4.5097363e-01 
-3.7998273e+00 3.1493809e+00 -1.6316133e+00 
-2.1735306e+00 3.2256420e+00 -2.0582528e+00 
2.9807121e-01 5.2188438e-01 -5.7645619e-01 
5.6675162e-02 3.7849266e-02 -4.7273401e-02 
-4.9183583e+00 2.1059093e+00 -4.9984103e-01 
5.2311697e+00 -2.4369864e+00 -2.0087631e-01 
-7.9306931e+00 3.1083560e+00 -4.9353388e-01 
5.5384231e+00 -4.3295493e+00 1.5907613e+00 
5.9013504e-01 5.5328447e-01 -2.9565665e-01 
-1.2381926e+01 4.4977965e+00 7.6151735e-01 
9.9929934e+00 -6.3752160e+00 5.9333730e-01 
1.3069092e+00 1.7680155e-01 -1.0824752e+00 
4.6154361e+00 -5.3967607e-01 -8.0628633e-01 
5.8842692e+00 2.0657200e-01 -1.7977010e+00 
3.0840209e+00 -8.3264261e-01 -3.2934541e-01 
-1.1455010e+01 3.5268576e+00 -4.8306085e-02 
9.0856056e+00 -5.9861217e+00 1.5735608e+00 
-2.3038259e+00 1.2029114e+00 -5.7772297e-01 
-7.0919847e+00 2.2734797e+00 -4.3861571e-01 
6.8050618e+00 -3.9166002e+00 2.3594898e-01 
-1.9066745e+00 3.0692854e+00 -2.0388925e+00 
-2.2453237e+00 1.9275421e+00 -1.3491182e+00 
-1.0763215e+00 -3.8810232e-01 4.2379293e-01 
1.2112997e+00 1.9794263e+00 -1.2762849e+00 
6.9022506e-01 -2.4323699e-01 -8.9871198e-01 
-3.3925941e+01 5.8557682e+00 2.2188652e+00 
1.9750738e+01 -1.0984792e+01 1.3758996e+00 
2.3806357e-01 1.6436452e-01 -2.0989878e-01 
-1.5170686e+01 4.6786880e+00 -8.6902358e-02 
4.1783819e-01 9.6801543e-01 -6.8106771e-01 
7.6264876e-01 -3.7286449e-02 -3.2906041e-01 
-8.8939543e+00 2.3116286e+00 5.4476166e-01 
-4.3909192e+00 1.6970844e+00 -7.8104204e-01 
5.5611596e+00 -1.8848580e+00 -3.3473271e-01 
-4.2747702e-02 2.0274223e-01 -2.2122347e-01 
-8.0625639e+00 2.7588553e+00 -4.9807182e-01 
8.1776059e-01 1.8802643e+00 -1.3165398e+00 
5.6411524e+00 -3.9493957e+00 1.5539018e+00 
1.0878461e+01 -6.2726808e+00 9.0603292e-01 
5.6597629e+00 -8.5772753e-01 -6.7900378e-01 
5.3840981e+00 -8.8765286e-02 -1.0852938e+00 
-6.4213961e-02 6.5070480e-02 -1.8653341e-01 
-3.6499240e+00 1.9139376e+00 -1.0083212e+00 
-2.1290789e+00 2.3264689e+00 -1.6967944e+00 
4.4680438e+00 4.2118516e+00 -4.6265340e+00 
-1.2092572e+01 3.2785680e+00 -8.4907725e-02 
6.2558765e+00 -3.7190301e+00 1.1540642e+00 
1.9421448e-01 2.5681105e-01 -4.4641140e-01 
2.4101316e+01 -1.3402321e+01 2.5808709e+00 
-7.8183708e+00 1.9589251e+00 1.8100508e-01 
6.8580260e+00 -2.7473297e+00 -2.0331863e-01 
8.2779294e-01 3.0032560e-01 -6.3301528e-01 
-1.1065123e+00 -3.7470999e-01 4.2210478e-01 
8.0826318e-01 4.0657490e-01 -1.3211302e-01 
2.3715618e-01 1.5548159e+00 -9.5889705e-01 
1.1424134e+00 9.1104984e-01 -4.1684425e-01 
6.3704902e-01 -2.3233585e-01 -5.9075600e-01 
5.9256415e+00 -5.8554268e-01 -8.2663691e-01 
4.0666947e+00 4.2195484e-02 -1.1281543e+00 
-6.6610842e+00 2.3368301e+00 -9.0619636e-01 
8.2491980e+00 -1.8635937e+00 -8.8370252e-01 
8.5055375e-01 -2.3365775e-01 -2.8139547e-01 
6.7845985e-02 -2.9754564e-02 2.9141065e-03 
-8.3300829e+00 2.4326262e+00 -5.0010145e-01 
5.7784462e+00 -3.5743296e+00 1.5148277e+00 
-1.7289009e+01 4.0687747e+00 7.4370217e-01 
-2.0122464e+00 2.5080748e+00 -2.1615875e+00 
-3.5013661e+00 1.9897327e+00 -1.5191740e+00 
6.4430137e+00 -3.1380057e+00 2.0560831e-01 
5.1749098e-01 1.1842679e+00 -6.7388463e-01 
8.1326807e-01 1.1305235e-01 -5.9179384e-01 
-8.7444115e+00 1.8869513e+00 -5.0130241e-02 
-3.0983130e+01 5.6233749e+00 8.1982726e-01 
1.8967714e-02 4.2421329e-01 -2.2846401e-01 
1.0715466e+01 -5.5068421e+00 1.8231064e+00 
-7.8343987e+00 2.2222819e+00 -4.8407558e-01 
4.5229559e+00 6.6863543e-01 -1.5015165e+00 
6.2362976e+00 -2.0897212e+00 -5.4241881e-02 
6.9979781e-01 1.0820849e+00 -6.1455023e-01 
1.1409922e+00 1.0195292e-01 -2.8455666e-01 
1.1122335e+00 -4.4176960e-01 -3.8577196e-01 
-1.1453844e+00 -3.5791433e-01 4.3341371e-01 
2.8480305e+01 -1.3915310e+01 1.9557511e+00 
4.7952499e+00 -3.5694015e-01 -8.3366114e-01 
6.1727262e-01 -7.9780221e-03 -3.8080809e-01 
6.2282701e+00 -6.9237989e-01 -8.8787538e-01 
-3.7428253e+00 1.3358122e+00 -1.2661296e+00 
-2.4499080e+00 2.0396760e+00 -1.6626462e+00 
-4.9065795e+00 1.1949203e+00 -4.3121663e-01 
6.8388901e+00 -2.7586083e+00 3.4929320e-01 
5.8787608e+00 -1.2656548e+00 -3.3519107e-01 
-8.5544872e+00 2.2837322e+00 -4.3500623e-01 
6.8613648e-01 1.1290109e+00 -1.1154053e+00 
5.6921439e+00 -3.2510591e+00 1.5112711e+00 
-9.1795578e+00 1.2755144e+00 6.4823222e-01 
2.9290190e+00 3.5544143e+00 -4.2667108e+00 
5.3997170e-03 4.1773477e-01 -3.3288419e-01 
1.8597189e-01 2.6680294e-01 -3.7144691e-02 
8.2623082e-01 3.6633092e-01 -4.6445486e-01 
-1.4715164e+01 2.7243235e+00 1.6698033e-02 
5.1315403e+00 2.8731680e-01 -1.2604704e+00 
5.1434321e+00 -2.8375976e-03 -7.1731657e-01 
3.9927704e+00 -4.7033247e-01 -4.5136458e-01 
6.5855026e-01 3.2096419e-01 -4.9971676e-01 
-7.2759547e+00 9.9420941e-01 2.9847196e-01 
7.4180293e+00 -2.3497140e+00 -1.1263125e-01 
6.0308129e-01 3.6258280e-01 -3.6272424e-01 
9.0168381e-01 1.0173069e+00 -3.9051175e-01 
6.4919090e+00 -2.9228411e+00 1.1987265e+00 
-1.1664224e+00 -3.4749073e-01 4.3022943e-01 
-1.6082827e+00 1.4449667e+00 -1.3901162e+00 
-6.5649664e-01 1.4462826e+00 -4.3366027e-01 
-2.4085057e+00 1.0987357e+00 -1.4833791e+00 
-2.6946013e+00 6.5039068e-01 -5.6504983e-01 
-4.0615967e+01 5.6227431e+00 2.0958016e+00 
2.8528688e+01 -1.1058917e+01 2.9482868e+00 
-5.6293473e+00 9.0852451e-01 -2.7890334e-01 
-9.2661676e+00 1.2181271e+00 6.1410505e-01 
6.4625626e+00 -1.2552752e+00 -4.9302033e-01 
9.4704378e-01 4.9749172e-01 -4.8976982e-01 
8.8604712e-01 7.4430382e-01 -4.7767919e-01 
-8.5049000e+00 1.8023256e+00 -3.5018066e-01 
5.1667471e+00 -2.5086663e+00 1.2791911e+00 
1.2011223e+01 -4.8491082e+00 4.4873342e-01 
3.3343107e-01 -1.6663219e-01 -2.3447761e-01 
4.6714969e+00 8.3949089e-01 -1.4781400e+00 
4.7991695e+00 1.9730949e-01 -9.1732377e-01 
-1.2283920e+00 1.4715356e+00 -1.4871941e+00 
6.4737420e+00 -6.2241262e-01 -7.8660494e-01 
-2.3021305e+00 8.8590449e-01 -1.1919619e+00 
6.4788494e+00 -2.7987404e+00 1.0565757e+00 
-4.1750712e+00 1.3606648e+00 -1.1074013e+00 
8.9148837e-01 -1.3289504e-01 -8.5499156e-01 
5.0048554e-01 1.1277956e+00 -5.5650520e-01 
-7.9795651e+00 1.2505503e+00 8.5367747e-02 
7.4016328e+00 -1.6730206e+00 -2.2876865e-01 
-9.4821129e+00 1.6322370e+00 -1.5348621e-02 
-4.7849558e-02 5.5638775e-03 2.5566330e-02 
2.0533464e+00 -1.4816363e-01 -9.3857002e-01 
-1.2082876e+00 -3.1229138e-01 4.2894980e-01 
-3.4209923e+01 4.3050423e+00 1.0785366e+00 
3.8215141e+00 2.5640655e+00 -3.4620678e+00 
3.1403947e-01 5.3921205e-01 -3.6231604e-01 
6.3025862e-01 -1.2929052e-01 -1.5455720e-01 
1.1182704e-01 -1.1059802e-01 4.8380010e-02 
-5.6691189e+00 8.7026614e-01 -5.7022530e-01 
9.2107468e+00 -9.5018357e-01 -7.8852189e-01 
5.1758808e-01 6.6761039e-02 -4.0111959e-01 
5.4841552e+00 1.8091589e-01 -1.2628307e+00 
6.8980446e+00 -1.2002130e-01 -1.0588026e+00 
3.2506135e-01 4.5816371e-01 -9.2071258e-02 
-8.2845812e+00 1.5423269e+00 -3.0318618e-01 
2.6480650e+01 -8.9164610e+00 1.9582655e+00 
5.7321348e+00 -2.4707208e+00 1.3580307e+00 
1.9323681e-01 5.8166778e-01 -5.1935899e-01 
-1.5711213e+01 1.7925242e+00 1.2715013e+00 
8.0851364e+00 -2.0609684e+00 -2.4448529e-01 
-1.8715599e+00 1.1819397e+00 -1.5082924e+00 
-2.7809918e+00 9.2258471e-01 -1.0195162e+00 
-2.8133507e+00 4.2595884e-01 -5.5615014e-01 
4.4958189e-01 5.9960479e-01 -2.4706161e-01 
-1.4404395e+01 1.9882834e+00 1.5032010e-01 
1.0553295e+01 -4.0904179e+00 1.6314738e+00 
2.5505087e-01 1.7949156e-01 -3.5326305e-01 
-8.7112150e+00 1.3155117e+00 -2.1966498e-01 
7.9415431e+00 -2.1839921e+00 -9.0965800e-02 
-1.2288316e+00 -3.0110443e-01 4.0814376e-01 
7.1002775e-01 5.5841601e-01 -3.8013622e-01 
5.6664515e-01 2.4662432e-01 -2.6217550e-01 
4.8764758e+00 9.2803657e-01 -1.5163583e+00 
5.5393853e+00 3.2688713e-01 -1.0137104e+00 
7.0721717e+00 -1.5873952e-01 -9.9628675e-01 
-1.1931381e+00 1.0173136e+00 -1.5535945e+00 
2.4382193e+01 -7.4971852e+00 1.6027782e+00 
-2.4701593e+00 1.0069078e+00 -1.2109078e+00 
-3.3693500e+00 6.3932097e-01 -1.0163369e+00 
-6.6247993e+00 3.8318720e-01 -3.9133382e-01 
6.6535964e+00 -8.3390975e-01 -6.2654716e-01 
-3.6285549e+01 3.8520525e+00 1.5321575e+00 
1.1871940e+00 7.2057784e-01 -7.6021910e-01 
-8.7513685e+00 1.0854012e+00 -2.9688862e-01 
6.1225471e+00 -2.0775273e+00 1.3721888e+00 
-1.0048284e+01 9.9579442e-01 5.8807588e-01 
1.1312759e+01 -3.3656793e+00 2.8632593e-01 
5.7748383e-01 1.2249043e+00 -9.5811498e-01 
2.4431680e-01 2.9827484e-01 -1.4164729e-01 
1.7964377e-01 2.0872624e-01 -2.5428563e-01 
5.4954392e-01 9.8990373e-02 -2.6845285e-01 
1.0896326e+01 -3.2274711e+00 1.3000500e+00 
4.4694269e-01 2.4122997e-01 -1.4656875e-01 
-9.1616850e+00 3.6101532e-01 5.6511194e-01 
7.8671961e+00 -1.3696954e+00 -2.1509160e-01 
5.7710737e-01 2.1906440e-01 -6.6592979e-01 
3.7969127e+00 1.8530246e+00 -3.2162333e+00 
-1.0088329e+01 9.4214016e-01 2.1400723e-01 
5.8143048e+00 7.3413509e-01 -1.4640961e+00 
5.7689900e+00 3.3764347e-01 -9.3726331e-01 
5.5692911e-01 2.6518723e-01 -3.1266308e-01 
4.6557469e+00 -1.5312678e-01 -5.6217808e-01 
-5.7808781e-01 1.2764958e+00 1.4917031e-01 
-1.2656204e+00 -2.7708384e-01 4.2307103e-01 
-1.9806423e+00 9.1360474e-01 -1.5175486e+00 
-2.7838039e+00 5.0621259e-01 -1.1841159e+00 
-3.2061594e+00 3.7525043e-01 -6.4881766e-01 
-3.5530029e+01 2.4943111e+00 1.5107436e+00 
-6.0849462e+00 3.0880263e-01 -2.0507276e-01 
7.9103746e+00 -6.4593321e-01 -6.0610044e-01 
3.3362406e-01 1.0411507e+00 -6.3658130e-01 
-8.5889349e+00 9.9122751e-01 -2.6996088e-01 
6.0204492e+00 -1.8782400e+00 1.3040632e+00 
-1.7223532e+01 8.2839423e-01 1.0351114e+00 
8.1363373e+00 -1.9211309e+00 1.2156360e-01 
1.6621920e-01 3.2210082e-01 -2.7088976e-01 
2.7995934e+01 -8.3936863e+00 8.5926300e-01 
2.3081580e-01 4.4633210e-01 -1.5898676e-01 
1.0790246e+00 9.5293760e-01 -4.1205972e-01 
4.0214869e-01 5.0594304e-02 -3.7222508e-01 
5.0864687e+00 9.7568238e-01 -1.5012426e+00 
5.8371606e+00 7.0142686e-01 -1.0591251e+00 
6.5484719e+00 -1.7730383e-02 -8.6647153e-01 
4.7711876e-01 3.7360615e-01 -1.3868181e-01 
-1.5246120e+01 1.1394112e+00 3.1993243e-01 
-1.1822381e+00 6.5431428e-01 -1.4835600e+00 
-2.7268023e+00 4.9535891e-01 -1.2033318e+00 
-4.4370322e+00 4.0195242e-01 -1.0353227e+00 
-8.4151621e+00 5.1627636e-01 9.6450061e-02 
8.0265694e+00 -9.6211976e-01 -3.9815533e-01 
1.2373382e+00 5.6971365e-01 -1.0081217e+00 
6.9931045e+00 -1.9119476e+00 1.0735548e+00 
-1.2866398e+00 -2.7158219e-01 4.1611314e-01 
6.1088443e-01 6.9488174e-01 -8.8878584e-01 
2.7299797e+01 -6.3547750e+00 2.4767511e+00 
3.0367634e-01 8.6144999e-02 -1.1959094e-01 
-6.3419938e+00 2.0357946e-02 -4.4529793e-01 
6.1353308e-01 4.3007669e-01 -2.4455544e-01 
5.6771111e+00 -4.8383564e-01 -3.6141017e-01 
-9.0653172e+00 9.1529495e-01 -1.7853294e-01 
6.7235577e-01 -3.6924684e-01 -4.2013660e-01 
5.8241897e+00 -1.6798524e+00 1.2419832e+00 
1.2001019e+01 -2.1226678e+00 -2.3480909e-01 
6.1100326e+00 8.5838014e-01 -1.4492389e+00 
5.9031787e+00 8.7904835e-01 -1.1305269e+00 
6.6768680e+00 -6.5144794e-03 -8.6553341e-01 
3.9617221e+00 1.5266416e+00 -3.0146518e+00 
-1.0139980e+01 9.4017517e-03 8.6474478e-01 
-1.9951732e+00 5.5127823e-01 -1.3396853e+00 
-2.8589203e+00 2.2535704e-01 -1.0831307e+00 
-3.3335984e+00 -1.3730337e-02 -4.7164974e-01 
5.4230171e-01 5.3955317e-01 -4.7109312e-01 
4.6854150e-01 2.5718313e-01 -4.1054323e-01 
-4.8183459e-01 1.5068969e+00 -4.1245830e-01 
1.0589389e+01 -2.8890657e+00 1.4827019e+00 
-8.2754173e+00 4.0043060e-02 2.5749946e-01 
8.3883619e+00 -9.1480589e-01 -1.4324875e-01 
9.1066569e-01 4.6300371e-03 -2.9085335e-01 
-1.0360223e+01 9.7242600e-01 2.9698905e-01 
9.0479746e-02 5.8214933e-01 -7.8050286e-02 
-1.3034109e+00 -2.6883504e-01 4.0977231e-01 
-4.1200069e+01 9.7279602e-01 2.6172130e+00 
4.8873571e-01 4.9120635e-01 -3.1764132e-01 
2.8053021e-01 1.3276249e-01 -3.2953009e-01 
2.5016272e-01 1.7060873e-01 -8.2074128e-02 
-3.4983128e+01 1.2650064e+00 1.8621714e+00 
5.8832440e+00 6.4946461e-01 -9.9950683e-01 
5.2233086e+00 1.1088839e+00 -1.4889737e+00 
6.6738024e+00 2.7342215e-01 -9.8716384e-01 
-1.1797299e+00 3.5177359e-01 -1.4401882e+00 
-7.1757126e+00 -2.8561151e-01 -4.7833821e-01 
-1.0230560e+01 3.0803606e-02 8.0431467e-01 
8.4072876e+00 -7.0903637e-02 -7.0829242e-01 
-2.4433537e+00 1.8171902e-01 -1.0884383e+00 
-3.8682830e+00 1.5208377e-01 -9.5428252e-01 
5.6036872e-01 1.0600097e+00 -6.4816165e-01 
7.2916925e-01 -2.8001925e-02 -2.6300320e-01 
-8.7911091e+00 7.3724014e-01 -2.5339422e-01 
6.1533904e+00 -1.6513504e+00 1.2680490e+00 
8.2802382e+00 -5.6532937e-01 2.4978667e-01 
2.8483044e+01 -5.3116035e+00 1.0905390e+00 
-1.6445456e-02 2.4552928e-01 -2.0905788e-01 
-1.5420395e+01 7.9740429e-01 3.0234241e-01 
2.4163818e-01 2.1362808e-01 6.1705546e-03 
3.9859986e-01 2.3347722e-01 -2.5569463e-01 
-9.1001959e+00 1.3722039e-02 2.9517511e-01 
8.3483143e+00 -5.6840944e-01 -3.4589174e-01 
7.1805148e+00 -1.5930058e+00 1.0081345e+00 
1.4898430e+00 -4.9878269e-01 -5.8253014e-01 
-1.3252037e+00 -2.5111914e-01 4.1440150e-01 
6.3031130e+00 1.0475541e+00 -1.4293253e+00 
6.6847515e+00 5.5416071e-01 -1.1445885e+00 
3.9610736e+00 1.3142941e+00 -3.0190394e+00 
5.0902672e+00 3.3905661e-01 -6.4524621e-01 
-2.0113871e+00 3.1712627e-01 -1.3283641e+00 
-2.9250252e+00 -7.6360730e-03 -9.8506761e-01 
-3.4043036e+00 -2.2769201e-01 -7.0272326e-01 
6.1420077e-01 6.7933738e-01 -4.8413670e-01 
2.7949965e+01 -4.7727175e+00 1.6462820e+00 
-6.8414555e+00 -6.2414944e-02 -1.4878875e-01 
7.2901053e+00 -1.6720009e-01 -5.8485448e-01 
1.9179931e-01 8.9131087e-01 -4.0432215e-01 
9.9882686e-01 1.1238906e+00 -9.0324306e-01 
-9.3816290e+00 4.6540248e-01 -1.8675123e-01 
3.7620914e-01 2.4100544e-01 -3.4869772e-01 
3.2374138e-01 4.6829477e-01 -4.4310877e-01 
5.9857020e+00 -1.1118302e+00 1.2193363e+00 
-1.6242950e+01 -3.4933147e-01 1.2371634e+00 
1.2714885e+01 -1.5573400e+00 3.8232684e-01 
7.4682629e-01 -5.7432102e-04 -9.6314453e-02 
3.4143725e-01 1.8246914e-01 -1.8290581e-01 
5.3364239e+00 1.0830523e+00 -1.5245105e+00 
7.0409513e+00 6.0151511e-01 -1.2566497e+00 
7.9781113e+00 5.8479357e-01 -1.0345461e+00 
-1.1669985e+00 1.5953335e-01 -1.3782766e+00 
1.1061579e+01 -1.7407147e+00 1.2602181e+00 
-4.6456370e+00 -3.8535562e-01 -9.0537721e-01 
-9.1585846e+00 -3.8807103e-01 2.6999983e-01 
-2.8339939e+00 2.3474128e-03 -1.1459109e+00 
8.4530602e+00 -3.1039432e-01 -2.9018182e-01 
7.9623437e-01 4.7010052e-01 -3.3851841e-01 
-1.0776788e+01 2.3260961e-01 3.7454629e-01 
-1.3514616e+00 -2.2702514e-01 4.0446904e-01 
-3.7049969e+01 -5.1144248e-01 3.0167165e+00 
7.2851306e-01 1.5570201e+00 -3.9297217e-01 
-3.6260010e+01 1.5926746e-01 2.0690651e+00 
-8.5261345e-02 3.3746901e-01 -1.3385767e-01 
-1.0936783e+01 -4.9201196e-01 9.1200411e-01 
2.8788060e-01 3.1395561e-01 -3.5025299e-02 
-6.8494110e+00 -5.8351064e-01 -2.9650912e-01 
7.4463968e+00 2.5794128e-01 -6.9127268e-01 
2.9500017e-01 6.6913977e-02 -1.6220088e-01 
5.2570307e-01 4.8813647e-01 -7.9239339e-01 
-9.1161642e+00 2.6739061e-01 -1.3259628e-01 
6.3037457e+00 -9.6981668e-01 1.1442572e+00 
8.1302471e+00 -4.2939177e-01 -1.3901244e-01 
3.0291227e+01 -4.3323627e+00 1.0662670e+00 
3.9536903e+00 1.0500468e+00 -2.9817078e+00 
6.3190594e+00 1.0305308e+00 -1.5242249e+00 
6.8395939e+00 7.1107495e-01 -1.1509042e+00 
5.4815927e+00 2.9937977e-01 -6.4371347e-01 
-1.9516857e+00 3.0486124e-02 -1.3123451e+00 
-3.1749156e+00 -2.2252902e-01 -1.0526360e+00 
-3.4643726e+00 -5.8903414e-01 -4.9000373e-01 
6.6417783e-01 -2.5833231e-01 2.4588766e-02 
5.9213966e-01 3.7019747e-01 -2.2051862e-01 
7.2386652e-01 7.7277738e-01 -4.0919390e-01 
4.2875206e-01 1.4295448e-01 -1.0513971e-01 
-1.6048233e+01 1.9091693e-01 5.3809243e-01 
-1.0068899e+01 -6.5948820e-01 5.5070281e-01 
8.9757290e+00 1.0682896e-02 -2.5158277e-01 
1.1712282e+00 5.6617314e-01 -7.4824423e-01 
-8.1739210e-02 6.6930103e-01 -3.8230997e-02 
7.2892828e+00 -1.0558658e+00 9.3370867e-01 
-1.3607011e+00 -2.2210556e-01 3.9475253e-01 
8.4025882e-02 3.3997065e-01 -1.4827968e-01 
3.4943369e-01 4.3668047e-01 -2.7754642e-02 
4.1118026e-02 3.3590862e-01 -3.9531612e-01 
3.9114748e-04 7.2103733e-01 -2.0821182e-01 
5.4162636e+00 1.1243129e+00 -1.5145463e+00 
2.9045118e+01 -3.1351891e+00 2.0086792e+00 
-1.3326491e+00 1.0512566e-01 -1.3680580e+00 
6.1770349e+00 7.5971586e-01 -1.1672556e+00 
-7.6736164e+00 -8.4406441e-01 -3.7091172e-01 
8.9187508e+00 2.6916033e-01 -7.5735086e-01 
7.3457189e+00 9.7407389e-01 -1.0847305e+00 
-9.6019945e+00 6.9332227e-02 -6.7664444e-02 
-2.4871755e+00 -3.8272542e-01 -9.9397969e-01 
-4.0206842e+00 -4.3456426e-01 -9.0169656e-01 
-1.6701174e+01 -9.0702355e-01 1.4475499e+00 
6.1065679e+00 -6.7079538e-01 1.0843282e+00 
1.2497243e+01 -1.1092360e+00 -1.1243814e-01 
4.9736002e-01 3.6686110e-01 -2.5723588e-01 
1.1232477e+01 -1.1221131e+00 1.1689799e+00 
3.5989486e-02 4.0776390e-01 -1.1558346e-01 
-9.6674261e+00 -7.8589213e-01 4.5905161e-01 
8.9629211e+00 -1.3259451e-01 -3.4251180e-01 
6.1614335e-01 1.3015084e-01 -3.1214893e-01 
3.9856536e+00 8.9728683e-01 -2.6774743e+00 
5.4858446e-01 -3.4385454e-02 -1.6715603e-01 
-1.0965511e+01 -2.0136808e-01 4.6030354e-01 
2.4952310e-01 2.5409931e-01 -3.8313541e-01 
5.5838740e-01 8.8752128e-02 -2.4743225e-01 
4.2793703e-01 5.5449623e-01 -3.3650285e-01 
3.6074299e-01 7.7145123e-01 -2.7172747e-01 
-1.3760605e+00 -2.0420408e-01 3.9229646e-01 
-3.7940357e+01 -8.3804822e-01 2.9863572e+00 
8.4392052e+00 1.5422304e+00 -1.8244183e+00 
8.9870381e-01 -4.3397465e-01 1.5666674e-01 
6.9312024e+00 1.3140225e+00 -1.0982790e+00 
7.7034016e+00 6.4055264e-01 -9.8449671e-01 
-1.9900657e+00 -2.3457165e-01 -1.2462814e+00 
-3.0846848e+00 -3.8634703e-01 -9.9270040e-01 
-5.0382862e+00 -8.2492775e-01 -6.9439161e-01 
-3.5287598e+01 -1.1780323e+00 2.3901048e+00 
-1.1082987e+01 -6.4781749e-01 9.8474211e-01 
-6.2124772e+00 -7.1786046e-01 -7.9819523e-02 
6.2408366e+00 4.1123199e-01 -5.3055298e-01 
3.9174539e-01 3.4892938e-01 -1.7522784e-01 
2.2736737e-01 4.7483245e-01 -2.3376650e-01 
-9.2773790e+00 -7.2368622e-02 -5.0833546e-02 
6.4064450e+00 -5.4909950e-01 1.0878620e+00 
9.4146690e+00 -3.0336991e-01 9.6915685e-02 
3.2607918e+01 -1.8007957e+00 1.1903987e+00 
3.1652436e-01 1.8890429e-02 -1.3252449e-01 
7.5734919e-01 5.0458211e-01 -5.4523295e-01 
5.8864290e-01 1.5433389e-01 -7.4130408e-02 
-1.1610873e+00 -2.1824256e-01 -1.2656145e+00 
-1.3802226e+01 -3.3335972e-01 5.8320987e-01 
5.4614246e-01 6.2231547e-01 -5.6622332e-01 
-1.0285249e+01 -9.5567781e-01 3.8290384e-01 
9.1641245e+00 3.7181529e-01 -5.0062948e-01 
7.8322549e+00 8.4832031e-01 -1.2001605e+00 
-1.2383512e-01 9.1250736e-01 -1.6243662e-01 
-2.5203173e+00 -6.6522604e-01 -9.7525740e-01 
7.9321928e+00 1.2872632e+00 -1.6403960e+00 
7.3678617e+00 -5.3557068e-01 8.9750338e-01 
-1.3791229e+00 -1.9829878e-01 3.9299586e-01 
7.5019592e-01 -3.0419925e-01 2.8357420e-02 
-4.1804857e+00 -6.5617067e-01 -9.1091233e-01 
6.7993040e+00 1.2663337e+00 -3.1264520e+00 
3.2684120e+01 -2.1629672e+00 2.3223650e+00 
6.0675788e-01 1.0504483e+00 -8.0204087e-01 
-8.0148449e+00 -1.4844937e+00 -1.9181535e-01 
9.2855139e+00 6.8447864e-01 -8.6529028e-01 
4.5455518e-01 1.2501593e+00 -2.8643176e-01 
4.7717273e-01 2.2565262e-01 -7.0202678e-02 
-9.9998055e+00 -1.6519697e-01 9.1737155e-03 
-1.7682598e+01 -7.2529918e-01 1.5488199e+00 
6.1721206e+00 -4.3386120e-01 1.0425235e+00 
1.5114840e+01 5.2482080e-01 -1.9751075e-01 
-2.2118149e+00 -2.8569588e-01 -1.5283529e+00 
7.3921280e+00 1.3596133e+00 -1.8366176e+00 
6.8680196e+00 9.0593278e-01 -1.0652354e+00 
6.1904516e+00 7.3723596e-01 -6.9959760e-01 
-3.0712895e+00 -6.8031156e-01 -9.4312543e-01 
-3.7422318e+00 -7.9265130e-01 -5.0830632e-01 
5.2677602e-01 2.9468268e-01 -3.1883210e-01 
-1.0048254e+01 -9.7090118e-02 4.4425389e-01 
-2.6013773e+01 -1.3709067e+00 1.8935503e+00 
1.1554687e+01 -9.7235185e-01 1.2788296e+00 
-1.0447396e+01 -1.1540775e+00 7.2097629e-01 
9.5728168e+00 2.8177044e-01 -3.0510101e-01 
6.6208839e-01 3.7637052e-01 -1.1317419e-01 
7.6461899e-01 4.2390952e-01 8.3001656e-03 
-1.3822478e+00 -1.9651316e-01 3.8958821e-01 
-3.8037121e+01 -1.9865379e+00 2.8987348e+00 
1.9723538e-01 6.4573675e-01 -1.4359714e-01 
-8.1988239e+00 -1.0912135e+00 -3.2434580e-01 
9.4162846e+00 7.9554617e-01 -9.2492610e-01 
4.9828193e-01 8.7631576e-02 4.9134225e-02 
-1.0135465e+01 -3.2635057e-01 -3.2546543e-02 
7.0759982e-01 1.7771761e-01 -2.0892195e-01 
-1.5091703e+01 -1.1532153e+00 1.4006246e+00 
7.2137227e+00 -3.3584967e-01 1.2225024e+00 
7.7733359e+00 1.0596886e+00 -1.0044044e+00 
-4.2512579e+00 -8.7472588e-01 -8.3325952e-01 
8.0874729e+00 1.4706270e+00 -1.6350430e+00 
-2.8527761e+00 -6.8795955e-01 -1.4649496e+00 
6.4232516e-01 -3.0235156e-01 5.6289887e-01 
5.9429293e+00 9.1668743e-01 -3.6199234e+00 
5.8255428e-01 5.0019377e-01 2.5274813e-02 
-1.5098222e+01 -7.0247322e-01 7.0438319e-01 
1.1030943e-01 1.8807444e-01 -6.6528440e-02 
-1.0685634e+01 -1.2794567e+00 7.7369034e-01 
9.4622164e+00 4.0396771e-01 -4.0152216e-01 
6.4340788e-01 7.0325488e-01 -1.0449080e-01 
3.1872430e-01 1.4512284e-01 4.6675123e-02 
5.5161834e-01 6.6783465e-02 -1.8795133e-01 
1.2474540e+01 1.6469883e-02 1.6777100e-01 
-1.3890008e+00 -1.8020006e-01 4.0206838e-01 
3.5037079e+01 -9.2890185e-01 7.0536715e-01 
7.2774706e+00 1.3820896e+00 -1.7602861e+00 
6.9435034e+00 1.2472612e+00 -1.1688714e+00 
8.1006565e+00 7.2350186e-01 -1.0268502e+00 
2.4721216e+01 -3.7366804e-01 1.1522328e+00 
-1.9077294e+00 -6.2603122e-01 -1.4341033e+00 
-3.1894040e+00 -8.7643987e-01 -9.5798355e-01 
-5.2113771e+00 -1.3291163e+00 -6.2348568e-01 
-1.3898042e-01 1.0454617e+00 -6.9023982e-02 
-6.7384348e+00 -8.8268054e-01 -1.5799711e-02 
6.3774352e+00 6.3737023e-01 -5.9461069e-01 
1.0762649e+01 -5.4797244e-01 1.2300367e+00 
-1.0408980e+01 -3.2616955e-01 -1.3518277e-02 
-1.2436770e+01 -1.1799959e+00 1.2652495e+00 
5.6657827e-01 5.9640205e-01 -1.6041864e-02 
6.4962602e+00 -1.3867030e-01 1.0743794e+00 
1.5540482e-02 1.5577364e-01 -8.9753374e-02 
1.3766180e-01 8.4386981e-01 -9.9548966e-02 
-3.1628057e+01 -2.0479493e+00 2.4661348e+00 
-2.2916981e+01 -1.5046178e+00 2.1924293e+00 
2.8457195e-01 7.4837124e-01 -9.1776222e-02 
1.2044029e+00 2.9270846e-01 -3.0893981e-02 
8.1735426e-01 6.0915196e-01 5.3340472e-02 
-1.3619095e+01 -3.4735319e-01 6.7228025e-01 
5.8449588e+00 8.2823747e-01 -3.5167747e+00 
3.1502524e-01 7.5433567e-02 3.6730029e-02 
-1.0721305e+01 -1.1456782e+00 4.7213650e-01 
8.3897028e+00 1.4586819e+00 -1.5437065e+00 
7.8120813e+00 1.0592844e+00 -1.1325330e+00 
-2.8443758e+00 -7.1430469e-01 -1.5165416e+00 
5.1405108e-01 5.7820328e-02 -1.3830529e-01 
-1.7006681e+00 -1.9504446e-01 3.4410271e-01 
7.5700531e+00 4.3056604e-01 -3.4100163e-01 
-4.1853909e+00 -9.8003834e-01 -8.1823206e-01 
1.3904329e-01 1.6197218e-01 -2.2249737e-01 
-9.0955477e+00 -1.5265927e+00 -6.3744128e-02 
9.9040699e+00 8.7507045e-01 -8.4859490e-01 
1.0170863e+01 7.8742146e-02 -2.2417276e-01 
1.0278169e+01 -2.5779593e-01 1.9966225e-01 
-9.2675095e+00 -8.0030257e-01 8.9699864e-01 
-1.0259953e+01 -4.5238048e-01 3.5903309e-02 
-1.1531358e+01 -9.9577332e-01 1.4291879e+00 
1.4724659e+01 -2.9852518e-01 3.2280421e-01 
6.7356902e-01 -1.1922477e-01 2.6817867e-01 
2.6385227e-01 2.7336851e-01 8.6899847e-03 
5.8661896e-01 3.6315247e-01 -1.6128372e-01 
4.9400630e+00 -6.5554030e-02 8.7330061e-01 
-1.3917369e+01 -8.9571166e-01 1.1979624e+00 
8.5599480e+00 -2.0121659e-01 1.0440251e+00 
7.6764739e-01 3.7929738e-01 3.1666424e-02 
8.4581251e+00 2.8412223e-01 5.5761534e-01 
9.9085693e+00 -5.2115649e-01 8.9955693e-01 
-1.2399948e+01 -6.1716408e-01 8.6097503e-01 
7.0623879e+00 1.3203218e+00 -1.7840402e+00 
7.0007219e+00 1.0894769e+00 -1.1510249e+00 
7.6754403e+00 2.5320703e-01 3.1186283e-01 
4.9318999e-01 3.4418771e-01 -6.7281246e-02 
-9.1060448e+00 -4.9609721e-01 8.2377476e-01 
-3.1317072e+00 -8.7942421e-01 -8.8481522e-01 
6.1695786e+00 7.9993600e-01 -7.9344034e-01 
-1.9760052e+00 -9.5282972e-01 -1.7907373e+00 
-3.7495241e+00 -9.2584133e-01 -4.4767720e-01 
3.5227123e-01 5.8808941e-01 2.3099534e-02 
-8.8267603e+00 -2.8359869e-01 3.9119896e-01 
-9.6941423e+00 -5.9314853e-01 8.2720178e-01 
7.4788916e-01 -3.5816386e-02 9.1067120e-02 
2.3253757e-01 7.8857821e-01 -1.6479599e-01 
-2.1580906e+00 -1.8322438e-01 3.8345057e-01 
4.2943221e-01 4.0584460e-01 1.1724076e-02 
6.6611118e+00 9.3274581e-01 -2.9301968e+00 
1.1935208e+01 7.1619982e-01 -5.0724530e-01 
-1.3291154e+01 -1.3125002e+00 9.8053688e-01 
2.5282362e-01 2.0759536e-01 -3.6170371e-02 
2.1007785e-01 1.5958227e-01 1.3194448e-01 
-9.3038492e+00 -1.5898366e+00 -1.7287935e-01 
1.0644925e+01 8.5132658e-01 -9.9270868e-01 
2.3986258e-01 -1.9893417e-01 2.8989518e-01 
8.1772156e+00 1.2737030e+00 -1.6178689e+00 
8.6538649e+00 1.7259855e-02 1.1796557e-01 
-4.1594844e+00 -1.0331072e+00 -6.9796264e-01 
-2.6715171e+00 -8.3033735e-01 -8.6957109e-01 
7.7676153e+00 1.1292017e+00 -1.0369364e+00 
-1.0967319e+01 -9.4551498e-01 1.1705024e+00 
7.3786106e+00 3.7580225e-01 2.1602862e-01 
4.9930635e-01 5.9291887e-01 -5.3828232e-02 
-9.3870277e+00 -9.8193723e-01 1.1545377e+00 
-1.0837897e+00 -4.7033572e-01 -1.0576956e+00 
8.3732710e+00 -2.5061584e-01 4.0076748e-01 
-9.7339802e+00 -4.8408040e-01 8.8102740e-01 
4.4807386e-01 2.9212409e-01 1.3629970e-01 
7.7755723e+00 -5.4642662e-02 3.6482841e-01 
4.9796286e-01 2.8115439e-01 2.9534096e-01 
9.0369682e+00 -8.6610667e-02 1.3136880e+00 
3.9720955e-01 7.4506795e-01 1.6346666e-01 
-1.3119220e+01 -5.3932095e-01 1.7520799e-01 
-9.7414322e+00 -5.5521262e-01 9.0367031e-01 
7.1572990e+00 2.9129902e-01 5.0388956e-01 
-9.4398985e+00 -9.7765493e-01 8.4037691e-01 
3.4950677e-01 2.6684797e-01 1.2955756e-01 
8.4691849e+00 -4.0385622e-01 8.9983052e-01 
-1.0713040e+01 -1.7046027e-01 6.1025304e-01 
5.3873456e-01 1.3841367e-01 3.3065736e-01 
-1.4840878e+00 -1.8012528e-01 4.9087599e-01 
2.4612747e-01 1.4170919e-01 1.5430492e-01 
3.1335235e-01 4.0643120e-01 5.9739962e-02 
4.6455115e-01 2.8901091e-01 1.7402434e-01 
8.3840698e-01 5.0677764e-01 2.1058394e-01 
-1.0188556e-01 2.6056468e-01 1.4064233e-01 
3.2032561e+00 2.8962690e-01 -2.1092391e+00 
1.0117104e+01 1.7408781e+00 -2.4478707e+00 
-1.9438400e+00 -5.5466658e-01 -1.0609552e+00 
-3.0034180e+00 -8.8154870e-01 -8.1731409e-01 
7.2824850e+00 1.1474699e+00 -1.0819018e+00 
-5.2659717e+00 -1.2540686e+00 -5.7598889e-01 
8.2313957e+00 1.0577860e+00 -1.1809851e+00 
5.3258090e+00 4.0086517e-01 -4.7584239e-01 
-4.9560804e+00 -7.2922677e-01 -1.3445213e-02 
-1.0474501e+01 -1.1300273e+00 5.1771605e-01 
1.0431678e+01 8.8483393e-01 -3.1538078e-01 
-1.1029648e+01 -1.2328267e+00 1.1441453e+00 
8.9345551e+00 2.5019106e-01 -1.3995545e-01 
-9.2741127e+00 -6.2655807e-01 1.0311799e+00 
7.0012183e+00 5.7319198e-02 4.9704522e-02 
-9.1437588e+00 -6.5864277e-01 1.0052633e+00 
7.0682335e+00 -5.3895704e-02 5.0911959e-02 
-9.2565804e+00 -4.8008975e-01 8.5127664e-01 
7.5019341e+00 -3.1346613e-01 3.8285479e-01 
7.3248434e-01 4.7082299e-01 -2.5227278e-02 
-9.1347303e+00 -5.6644440e-01 7.5848109e-01 
7.1102500e+00 -1.6278784e-01 6.6388172e-01 
-8.9194698e+00 -4.7613490e-01 7.7567649e-01 
4.8371315e-01 -9.4663888e-02 2.5116858e-01 
6.6292605e+00 -1.3934568e-01 5.1991808e-01 
6.3135082e-01 -3.6596093e-02 4.4600400e-01 
2.0993063e-01 1.4867534e-01 -4.8790565e-03 
6.3621968e-01 3.9877255e-02 2.6625377e-01 
9.6332051e-02 1.5675236e-01 1.1203136e-02 
-1.0971611e+01 -4.4582230e-01 5.0875509e-01 
2.2930048e-01 3.5236773e-01 1.6962942e-01 
6.8300285e+00 -1.1709151e-01 7.8520703e-01 
1.2202002e-01 2.9618797e-01 1.2311046e-01 
-1.0289770e+01 -7.7856779e-01 -2.8146375e-02 
6.8802319e+00 3.1619975e-01 1.0755570e+00 
-9.9787641e-01 -4.3033835e-01 -1.0624300e+00 
5.2662742e-01 1.8441600e+00 -3.1897306e-01 
-7.7903783e-01 -7.9316594e-02 2.3336595e-01 
1.8192621e-01 -3.7762541e-01 5.4973704e-01 
-2.6696832e+00 -7.5515956e-01 -8.4509695e-01 
8.0204086e+00 9.4731027e-01 -9.5317733e-01 
-4.1487904e+00 -8.7860036e-01 -7.3933333e-01 
8.2357321e+00 1.3568958e+00 -1.7537571e+00 
-7.7427410e-02 2.7348325e-01 -2.8605092e-02 
-4.2881185e-01 9.3966520e-01 -8.1391513e-02 
-1.0694405e+01 -6.1896622e-01 1.2281507e+00 
2.8116098e-01 -5.6610782e-02 1.5065058e-01 
-8.9579153e+00 -1.2839226e+00 -1.0911988e-02 
1.0598680e+01 1.2868894e+00 -1.0206519e+00 
-9.9214954e+00 -6.9319290e-01 1.1941974e+00 
9.2097340e+00 1.0779254e-01 1.5116115e-01 
7.3364396e+00 3.9558308e-03 2.0611884e-01 
-1.0004994e+01 -6.4032042e-01 1.0383267e+00 
6.5135107e+00 9.5611918e-01 -2.7759528e+00 
8.1952353e+00 -5.1102847e-01 5.4653060e-01 
-9.7388010e+00 -6.9777596e-01 9.8623496e-01 
1.5093398e-01 2.4009795e-01 8.1892952e-02 
8.3982487e+00 -2.8097333e-02 5.4449767e-01 
-9.2403984e+00 -5.7633650e-01 8.6214149e-01 
-1.3607715e+01 -1.6429302e+00 1.0810479e+00 
6.1264296e+00 1.0958884e-01 6.3432890e-01 
7.6329988e-01 -2.0832618e-01 3.7227929e-01 
2.8134489e-01 1.5728244e-01 -1.2503065e-01 
1.1815556e+01 2.4526966e-01 -5.0509214e-01 
8.9136982e+00 -2.5049374e-01 8.3338594e-01 
-1.0665212e+01 -6.0287452e-01 7.5754857e-01 
1.3198730e-01 1.2006908e-01 7.0030376e-02 
-2.0780804e+00 -5.6743509e-01 -1.1228071e+00 
3.6713091e-01 1.2114425e-01 3.5275668e-01 
6.9146201e-02 -1.6124666e-01 8.9107983e-02 
6.8886995e+00 1.4714572e-01 9.3158901e-01 
-2.9603429e+00 -8.6409330e-01 -8.0823612e-01 
6.7064171e+00 1.1381688e+00 -1.1510178e+00 
-3.8824248e+00 -8.5300583e-01 -4.2253000e-01 
6.3479710e-01 5.3972381e-01 3.5359669e-01 
6.1005645e+00 6.2592351e-01 -8.5946846e-01 
5.0694227e-01 1.0400829e+00 -7.9289176e-02 
6.8828712e+00 1.1679642e+00 -1.6620377e+00 
-7.9136997e-01 -1.3178509e-01 5.0526536e-01 
1.1216924e+00 -3.8284323e-01 7.2136372e-01 
-1.3415039e+01 -8.3191276e-01 2.2488202e-01 
1.7839694e-01 1.1814491e-01 2.2075599e-01 
3.7736353e-01 7.4058875e-02 -5.5098074e-04 
-9.1814671e+00 -1.4296734e+00 -1.1910325e-01 
9.7663593e+00 9.0532786e-01 -8.3866191e-01 
-9.2414827e+00 -1.1254646e+00 1.0452145e+00 
7.8896236e+00 1.3046640e-01 5.6573797e-02 
-1.1826586e+01 -8.2710284e-01 1.4373783e+00 
-9.9388180e+00 -3.5466442e-01 9.0595633e-01 
-9.0871763e+00 -2.4724045e-01 9.9497169e-01 
6.8115836e-01 -1.7422323e-01 3.7248072e-01 
2.4602917e-01 3.0826333e-01 9.9505611e-02 
-1.4716805e+01 -1.3205148e+00 1.9148239e+00 
7.8480358e+00 1.1268730e+00 -1.0122988e+00 
9.9661407e+00 2.6220731e-02 3.9097288e-01 
-2.6656275e+00 -8.5068583e-01 -1.2792165e+00 
7.6941037e+00 1.2027341e+00 -1.5385568e+00 
-4.0418954e+00 -9.4319439e-01 -6.4629084e-01 
4.7462153e+00 1.5368395e-01 6.6557992e-01 
5.2553530e+00 5.6838167e-01 -3.2049458e+00 
9.8900738e+00 2.6946777e-01 -1.3975057e-01 
1.2521052e+01 3.6333540e-01 4.1119203e-01 
-1.1308814e+01 -4.6732271e-01 1.0300297e+00 
7.0900816e-01 1.2090448e+00 4.5805666e-01 
6.4876306e-01 3.7538186e-01 5.3946030e-01 
7.0154314e+00 3.0977523e-01 -4.8349369e-01 
-9.1947184e+00 -5.0426018e-01 4.8890537e-01 
1.3154478e+01 -2.5839078e-01 1.3981819e+00 
3.5633504e-01 5.7035989e-01 2.4804261e-01 
8.7682730e-01 -3.0763257e-01 2.0131272e-01 
-1.0239200e+01 -1.0153205e+00 9.9074119e-01 
1.0535528e+01 -1.1483898e-01 1.3058187e+00 
-2.4894214e+00 -1.8090563e-01 3.4147650e-01 
4.9018916e-01 5.5065840e-01 3.6197293e-01 
6.0470205e-02 2.9350206e-01 1.8343355e-01 
3.9114162e-01 1.2880731e-01 1.4734662e-01 
-4.2135401e+00 -9.7769034e-01 -7.0753789e-01 
-6.7333703e+00 -9.0539783e-01 7.7771164e-02 
6.3483534e+00 3.4398574e-01 -5.2379364e-01 
-2.9080515e+00 -6.9493014e-01 -7.1454954e-01 
7.0510278e+00 1.1049445e+00 -1.6944262e+00 
6.9707036e+00 1.0390693e+00 -1.1399584e+00 
8.4900236e+00 9.7908574e-01 -1.0684384e+00 
-1.0377130e+01 -5.3213388e-01 1.4735055e-01 
-1.2850001e+01 -9.7399288e-01 1.6117510e+00 
-1.8444643e+00 -6.2432432e-01 -1.6245885e+00 
6.0493841e+00 9.5753931e-02 9.0416795e-01 
-2.6770430e+01 -1.6202849e+00 3.2967224e+00 
3.4255126e-01 1.2078343e-01 1.4629087e-01 
2.3429029e-01 1.2210140e-02 1.1214092e-01 
-2.0304330e-01 3.9203960e-01 -1.2406091e-02 
2.5566146e-01 2.4979651e-01 5.8474727e-02 
-1.1929421e+01 -3.9479128e-01 5.8722496e-01 
3.3803529e-01 5.4828495e-01 4.1867653e-01 
1.1518363e+01 1.4042465e-01 5.7290179e-01 
6.8044597e-01 -2.1228671e-02 3.9055058e-01 
-1.0144037e+01 -1.0500969e+00 7.8146052e-01 
6.3175874e+00 8.3188158e-01 -2.7765634e+00 
1.2505669e+01 -4.1245222e-01 1.6554468e+00 
8.7102814e+00 1.5492825e-01 -6.8399675e-02 
3.0102929e-01 -3.6549401e-02 1.5122780e-01 
2.1075171e+01 -5.6039661e-01 9.0340215e-01 
-3.6233990e+01 -1.3228973e+00 3.7356877e+00 
-3.1877027e+00 -6.7373699e-01 -2.5761363e-01 
-1.3071626e+00 -1.1943483e-01 3.4377512e-01 
3.6260444e-01 4.9364150e-01 6.0102069e-01 
2.9146915e+01 -2.3624022e-01 2.3587973e+00 
-9.5316869e-01 -3.3826920e-01 -9.6815580e-01 
-2.4388270e+00 -5.9889650e-01 -7.8561169e-01 
-2.8225822e+00 -7.3773801e-01 -6.1036414e-01 
7.6750712e+00 1.1761384e+00 -1.6295462e+00 
7.3371568e+00 9.6402061e-01 -1.1875817e+00 
3.6146259e-01 9.1912463e-02 5.5291116e-01 
6.3036132e-01 9.8171455e-01 7.1309978e-01 
-6.8071127e+00 -8.7250119e-01 1.4935967e-01 
9.6837521e+00 5.2766436e-01 -8.1603849e-01 
1.5226544e-01 4.7946405e-01 1.7752223e-01 
-1.5863473e+01 -9.9787688e-01 1.7808317e+00 
-9.7133055e+00 -2.5691938e-01 1.9016790e-01 
6.9923239e+00 -1.2933619e-01 1.0920137e+00 
7.6026958e-01 -6.9591665e-01 1.3469999e+00 
2.9678729e-01 3.6533105e-01 1.6343734e-01 
2.5550193e-01 -8.9395009e-02 1.1845577e-01 
2.4792989e-01 9.0736851e-02 6.7945249e-02 
8.5232002e-01 8.1921083e-01 8.2062405e-01 
-1.5404762e+01 -3.0323485e-01 9.6247411e-01 
-1.9370390e+00 -4.2382470e-01 -9.8411399e-01 
-9.8437996e+00 -8.6890626e-01 8.7085199e-01 
8.8534393e+00 2.3845823e-01 -2.6595706e-01 
-2.6040740e+00 -5.9360152e-01 -6.7138875e-01 
6.0478597e+00 6.0016811e-01 -8.4752160e-01 
-4.3576651e+00 -8.4566909e-01 -4.4214797e-01 
6.5733490e+00 9.8339784e-01 -1.6954377e+00 
6.4295082e+00 7.6218331e-01 -1.0784847e+00 
1.3798994e+01 -4.7157255e-01 1.5710169e+00 
-1.2492788e+00 -1.0841827e-01 3.2581985e-01 
5.6860337e+00 6.7282134e-01 -2.8676670e+00 
1.2010111e-01 1.2651482e-01 2.1215360e-01 
3.2580018e-01 1.8436161e-01 -3.5670791e-02 
6.5728545e-01 4.2681658e-01 7.0937455e-01 
-6.4803028e+00 -8.1716675e-01 5.7027053e-02 
9.6273565e+00 6.9601595e-01 -1.0132548e+00 
2.0012565e-02 3.5612795e-01 1.8620026e-01 
1.5234123e-01 4.4818681e-01 3.0091861e-01 
-1.0347423e+01 -5.3373909e-01 1.5037911e+00 
-9.1800270e+00 -1.5218526e-01 5.8792699e-02 
1.2597375e+01 3.4123298e-02 2.4516140e-01 
-3.8389446e+01 -1.1919744e+00 4.5725803e+00 
6.4716997e+00 -1.5727334e-01 9.5569193e-01 
7.4350328e+00 9.7641724e-01 -1.6079845e+00 
-2.2104378e+00 -5.2864754e-01 -7.0361489e-01 
8.0993099e+00 9.9219209e-01 -9.7815639e-01 
-2.8336132e+00 -4.7730047e-01 -5.8063740e-01 
-2.9826393e+00 -5.3520477e-01 -2.4936652e-01 
-1.0502390e+00 -3.5890007e-01 -1.0148910e+00 
3.8926560e-01 1.0909933e-01 2.6650941e-01 
3.8516137e-01 7.0925407e-02 7.7294433e-01 
-9.5553350e+00 -6.3649058e-01 9.6169257e-01 
7.3834591e+00 5.9179809e-02 -3.0057740e-01 
4.0939125e-01 5.4591764e-02 5.2804023e-01 
7.7041447e-01 -2.7627650e-01 5.4388732e-01 
8.8141054e-02 2.1593402e-01 1.6559538e-01 
-1.0098324e+01 -2.5420684e-01 7.5862718e-01 
2.8709288e+01 -9.3413949e-01 2.2516863e+00 
6.5373030e+00 -2.8473315e-01 8.6334056e-01 
-1.2127241e+00 -9.6577927e-02 3.0179074e-01 
2.1124247e-01 2.0500818e-01 5.0119287e-01 
-3.6782074e+01 -2.9675990e-01 4.9294186e+00 
7.5253621e-02 4.6558619e-01 1.0677249e+00 
7.4799747e+00 -1.6897491e-01 6.8665370e-02 
-6.9268045e+00 -7.5362557e-01 7.1829520e-02 
6.4809594e+00 4.1650900e-01 -4.8041373e-01 
7.6485572e+00 1.0076967e+00 -2.0679731e+00 
5.8134508e-01 7.1026213e-02 7.4529403e-01 
-1.7410216e+00 -3.6710793e-01 -9.4799304e-01 
-2.4644277e+00 -4.2454433e-01 -6.1812192e-01 
-1.4816268e+01 -6.5286660e-01 1.9861767e+00 
-3.3891773e+00 -4.6910456e-01 -4.6390119e-01 
-8.5590305e+00 -1.0702588e-01 3.6900736e-02 
2.6455395e+01 -1.7379490e+00 2.4071233e+00 
5.7658186e+00 -2.0376937e-01 9.2409211e-01 
6.9155498e+00 1.0258600e+00 -1.2681572e+00 
3.3831785e+00 3.2354245e-01 -2.2438693e+00 
8.3145723e+00 6.1748677e-01 -1.1681391e+00 
2.2154161e-01 2.4956433e-01 2.1515408e-01 
3.4351420e-02 1.3774692e-01 3.7797775e-02 
2.9098579e-01 4.3406188e-02 4.7513711e-01 
-1.4853573e+01 -9.9440016e-02 8.2414675e-01 
1.1639658e-01 5.7345110e-01 4.4968301e-01 
-9.3580742e+00 -5.7818645e-01 8.2908279e-01 
7.4108820e+00 -1.2394194e-01 -1.6858155e-01 
6.0979505e+00 -3.5853106e-01 7.9441732e-01 
-3.4972788e-03 1.4315270e-01 9.1146663e-02 
1.6500178e-01 8.4726375e-01 7.4542528e-01 
4.3327186e-01 1.2283962e-01 4.4216979e-01 
-1.1686165e+00 -9.1163948e-02 2.9871994e-01 
-1.0225750e+00 -1.1931251e-01 -9.6097046e-01 
-2.2608943e+00 -3.3624390e-01 -6.4028615e-01 
-2.6068938e+00 -3.6985278e-01 -5.2042025e-01 
4.6930737e+00 6.7314786e-01 -1.4223284e+00 
-3.9105704e+00 -5.4232955e-01 -3.6103895e-01 
6.3064041e+00 7.2844970e-01 -1.1934935e+00 
3.8620326e-01 5.7441872e-03 6.2090123e-01 
7.4466205e+00 6.3112789e-01 -1.0897024e+00 
1.6337963e+01 -1.9107078e+00 1.8725080e+00 
-5.2244935e+00 -3.6489263e-01 1.7431800e-01 
9.1382198e+00 2.9854327e-01 -8.0674410e-01 
-3.4997601e+01 -2.8223231e-01 5.5166326e+00 
-9.8737574e+00 -2.4401079e-01 1.5547205e+00 
-8.6030989e+00 4.1347336e-02 2.1717107e-02 
1.0825380e+01 -8.8025874e-01 4.5968693e-01 
4.6281767e-01 -4.0685344e-02 3.2227737e-01 
5.9901328e+00 -3.5113189e-01 9.9190223e-01 
4.0146250e-01 -1.5258694e-01 5.7464242e-01 
2.8832272e-01 3.9549351e-02 4.9179447e-01 
1.4019494e-01 8.0539578e-01 5.0404990e-01 
5.4699540e-01 7.6548320e-01 9.4317704e-01 
3.1789134e+00 5.0913656e-01 -2.1437442e+00 
3.2867441e-01 3.4656283e-01 2.9909948e-01 
7.3653764e-01 -8.5000493e-02 1.2428793e+00 
-9.1310091e+00 -1.0982065e-01 8.1062287e-01 
7.2755647e+00 -1.4526351e-01 -2.6973301e-01 
9.1004019e+00 -8.1713682e-01 1.2605792e+00 
-9.0464630e+00 5.6926548e-02 8.8657099e-01 
-1.6744609e+00 -1.1817317e-01 -8.5670835e-01 
-2.1942642e+00 -3.7052715e-01 -4.8078811e-01 
-3.2030468e+00 -4.3715292e-01 -4.8235652e-01 
6.7100601e+00 7.0625669e-01 -1.0064015e+00 
1.4385710e+01 -1.0387495e+00 1.1246679e+00 
-1.1218014e+00 -7.8857362e-02 2.8981879e-01 
7.0297613e+00 9.2776126e-01 -1.7571734e+00 
6.5249863e+00 3.4283569e-01 -1.0222534e+00 
-3.9514740e+01 5.7893926e-01 4.4322290e+00 
1.7343859e+01 -1.7619824e+00 2.3484135e+00 
-6.5330930e+00 -4.2997766e-01 1.3956946e-01 
5.9978933e+00 -1.0511884e-01 -6.3491035e-01 
6.1551547e-01 -2.1450857e-02 9.5898563e-01 
1.9586875e-01 1.8227789e-01 2.8593877e-01 
-1.4630018e+01 6.6975147e-02 1.9545153e+00 
-7.4840488e+00 2.7079850e-01 -6.2797740e-02 
7.2127271e+00 -4.7562054e-01 5.5400836e-01 
4.1091093e-01 2.1836124e-01 7.3634994e-01 
5.7844014e+00 -5.8329672e-01 1.0769757e+00 
4.6090212e-02 -1.2119295e-01 1.2551721e-02 
-9.5027572e-01 -6.6315100e-05 -9.8127967e-01 
-2.0433745e+00 -1.6335781e-01 -5.8749384e-01 
-2.4387708e+00 -8.6862825e-02 -5.8837378e-01 
-2.7795408e+00 -2.5996122e-01 -2.3242265e-01 
-9.0128260e+00 3.7596810e-01 4.6728581e-01 
3.0304414e-01 1.9867486e-01 4.9374419e-01 
6.2241731e+00 2.3265450e-01 -1.0107664e+00 
4.0550065e+00 1.3519481e-01 -6.5420204e-01 
3.9080885e-01 1.5979132e-01 6.4880162e-01 
3.2608047e-01 5.3436029e-01 9.2686456e-01 
-8.5867796e+00 -3.0534920e-01 1.0137167e+00 
7.5062804e+00 -5.3086579e-01 -1.7675875e-03 
9.2458944e+00 -1.3918436e+00 1.3755620e+00 
7.0389420e-01 -4.6389350e-01 5.4754335e-01 
6.6464391e+00 7.9656154e-01 -1.6011465e+00 
-1.0703340e+00 -6.3760877e-02 2.8139162e-01 
2.4296707e-01 3.7070796e-01 7.4316686e-01 
1.8208727e-01 -5.2101046e-02 1.9286288e-01 
2.0275957e+01 -2.5217001e+00 2.8614123e+00 
5.4389138e+00 8.5113901e-01 -2.8124986e+00 
3.6360058e-01 3.8048148e-01 6.8661165e-01 
-6.1670618e+00 -2.0753399e-01 1.8533267e-01 
5.5469875e+00 -2.4733461e-01 -3.7838399e-01 
1.4880206e+01 -2.3031514e+00 8.9588273e-01 
-8.9679737e+00 1.9110169e-01 1.4662818e+00 
-8.0702229e+00 5.8533913e-01 -1.0993849e-01 
-1.5548806e+00 8.8460684e-02 -8.4965146e-01 
-2.0883400e+00 -1.2037306e-01 -5.4764080e-01 
5.4029403e+00 -8.4297764e-01 1.0449075e+00 
-3.0321651e+00 -1.0571159e-01 -4.6947759e-01 
-3.6637409e+01 9.4486326e-01 6.2358375e+00 
3.8170639e-01 2.7217647e-01 6.9015145e-01 
5.9160967e+00 2.9365772e-01 -1.1306149e+00 
6.2917590e+00 2.0475459e-01 -7.0744586e-01 
3.7022993e-01 1.6594505e-01 3.9043057e-01 
1.6385204e-01 2.7935225e-01 5.9543884e-01 
5.6301122e+00 6.6689348e-01 -1.5749452e+00 
3.7103435e-01 4.4539252e-01 7.9971242e-01 
-1.4810818e+01 9.9808437e-01 9.6795225e-01 
-8.1593599e+00 -3.1240126e-02 9.6153373e-01 
7.6424422e+00 -7.1237773e-01 6.9973543e-02 
3.7408534e-01 4.2843145e-01 1.6179860e+00 
9.2538975e-02 2.2259957e-01 2.7684796e-01 
4.0232417e-01 -1.5829682e-01 3.0025956e-01 
5.6490412e+00 -9.3168211e-01 9.6803850e-01 
-1.0178380e+00 -4.8145231e-02 2.5961643e-01 
-1.4211433e-01 3.8527420e-01 -2.9492356e-02 
-8.8540071e-01 1.5304296e-01 -9.5301491e-01 
-1.9163066e+00 1.3342777e-01 -6.2052041e-01 
-2.2087743e+00 1.0757135e-01 -4.9254376e-01 
-3.5398586e+00 1.9343558e-01 -3.4971657e-01 
2.3312866e+01 -4.4289598e+00 2.9483285e+00 
-4.6328640e+00 5.7121828e-02 1.6001204e-01 
6.9297333e+00 -6.7211002e-02 -8.4769577e-01 
3.4303537e-01 4.1508290e-01 9.2249990e-01 
7.6618924e+00 -3.9653543e-01 -9.1214675e-01 
-1.4583241e+01 4.7146419e-01 1.9786114e+00 
5.4198446e+00 4.5231360e-01 -1.2516420e+00 
-7.9710779e+00 7.6649094e-01 -1.3882594e-01 
6.3776493e+00 -1.1372111e+00 1.5018135e-01 
4.6508861e+00 -8.6806887e-01 9.5747882e-01 
-3.4861683e+01 2.5598528e+00 4.7350011e+00 
2.6321489e-01 1.2545377e-01 4.3898794e-01 
2.2056904e-01 -1.3167363e-01 2.3415436e-01 
2.7504033e-01 -2.1920480e-02 4.4478229e-01 
4.4639421e+00 8.9392787e-01 -2.6589749e+00 
3.3300632e-01 2.0828477e-01 1.6782241e-01 
-8.8684607e+00 8.6884958e-01 4.1501963e-01 
5.4029708e+00 -1.1764458e+00 9.2270154e-01 
-7.5794058e+00 5.4710490e-01 6.7747343e-01 
4.8555523e-01 -1.5150310e-01 7.9347008e-01 
5.9927573e+00 -8.4731150e-01 -3.9324996e-01 
1.8697207e-01 -2.3551323e-01 1.0746781e+00 
3.3313185e-01 7.8469926e-01 1.4919293e+00 
-1.3551636e+00 3.1947002e-01 -7.4883455e-01 
-2.0174048e+00 1.8260384e-01 -6.0877383e-01 
2.5891865e+01 -6.3978672e+00 4.5848751e+00 
-9.6867478e-01 -3.5229705e-02 2.4654713e-01 
-2.6983385e+00 1.0469876e-01 -4.6952635e-01 
3.4023385e+00 2.8213280e-01 -1.0615748e+00 
5.4944048e+00 3.4134644e-01 -9.1933125e-01 
4.8519649e-02 1.0349598e+00 5.9436357e-01 
6.0527825e+00 -4.0711862e-01 -1.0090717e+00 
3.9236200e-01 5.8360177e-01 9.7458160e-01 
5.8444805e+00 -1.2890497e+00 8.7199897e-02 
-5.6238523e+00 4.4459289e-01 1.4836331e-01 
5.4104095e+00 -5.8918822e-01 -4.5508656e-01 
-7.6018257e+00 9.1591960e-01 -1.6543446e-01 
1.0384447e-01 1.5140928e-02 2.4925677e-01 
4.8863082e+00 -1.0934664e+00 1.1153703e+00 
6.7060664e-03 2.1844590e-01 4.1051885e-01 
2.5013027e+00 2.8080392e-01 -7.8922999e-01 
-7.9924455e+00 3.8230735e-01 1.1260420e+00 
1.3671170e-01 1.5432473e-01 2.7967897e-01 
-8.1475449e-01 4.0161958e-01 -9.1371894e-01 
-1.6390405e+00 3.2722175e-01 -5.2573240e-01 
-1.9802957e+00 2.5900474e-01 -5.2094239e-01 
-2.3465655e+00 2.0870966e-01 -3.0071241e-01 
-1.2188180e+01 1.2515775e+00 1.1513333e+00 
4.1794142e-01 3.7716165e-01 8.4510368e-01 
-6.1127381e+00 2.6622072e-01 9.8469180e-01 
6.2094229e-01 -2.7969331e-01 7.9690659e-01 
5.8706126e+00 -1.2768598e+00 2.9464510e-01 
5.2459893e+00 -2.1676223e-01 -1.0441189e+00 
7.9596028e+00 -1.9564339e+00 1.5997986e+00 
5.6593599e+00 4.0114716e-01 -1.5933462e+00 
3.6329448e+00 -2.2345017e-01 -5.6416857e-01 
7.1255678e-01 4.2632889e-02 1.3168069e+00 
-3.4293961e+01 3.3614001e+00 5.5764728e+00 
2.8440830e-01 5.3906046e-02 5.1149088e-01 
-9.0766960e-01 -1.1291167e-02 2.2927456e-01 
-1.1188193e-02 -3.7410621e-02 2.4393754e-01 
2.8700602e-01 2.4855071e-01 5.4765105e-01 
-1.4984390e-01 2.0678058e-01 1.6074805e-01 
3.7508965e-01 3.0099478e-01 4.2293808e-01 
3.5632029e+00 1.0258082e+00 -2.5406003e+00 
2.4890703e+01 -8.1026669e+00 4.5048566e+00 
-7.5323157e+00 8.8925910e-01 1.0604231e+00 
-5.3204083e+00 7.4866176e-01 2.8365610e-02 
5.0618415e+00 -8.3212245e-01 -4.6486679e-01 
1.2206110e-01 2.9271159e-01 2.5385514e-01 
5.2655083e-01 3.4844184e-01 8.8048589e-01 
7.8530631e+00 -2.5193362e+00 1.0724941e+00 
-7.0210395e+00 1.3334143e+00 -2.8823650e-01 
4.4285741e+00 -1.3962007e+00 1.1681592e+00 
-1.1856048e+00 5.7469481e-01 -7.5769538e-01 
-1.7175244e+00 4.4407433e-01 -5.0627160e-01 
-2.4162977e+00 5.1071423e-01 -3.7028140e-01 
4.6155243e+00 -1.4738195e-01 -9.1538841e-01 
5.4999981e+00 -5.3066099e-01 -9.1786331e-01 
2.7766705e-03 3.6129546e-01 3.3534622e-01 
-2.7107393e+01 4.5812206e+00 4.4752331e+00 
4.8385777e+00 -1.8462454e+00 1.1289634e+00 
-7.6390715e+00 1.5686324e+00 3.2794109e-01 
4.5868154e+00 3.8525921e-01 -1.4018835e+00 
1.5270250e-01 7.1142167e-02 4.5229536e-01 
-6.5520329e+00 1.0206380e+00 8.2703960e-01 
8.1339329e-01 -8.1087738e-01 1.3484387e+00 
5.3884740e+00 -1.6692678e+00 2.3876250e-02 
3.2770762e-01 3.2807815e-01 1.5980992e+00 
1.2532012e-01 1.7712697e-02 4.8806849e-01 
1.6542725e+01 -5.4867830e+00 2.7059741e+00 
2.0146340e-01 9.5443092e-02 2.8474337e-01 
1.9680637e-01 1.0834519e-02 7.2108042e-01 
-8.3599818e-01 1.2128201e-02 2.1970315e-01 
5.4142570e-01 5.7913815e-03 1.7167677e+00 
3.2186514e-01 3.2659131e-01 8.7925124e-01 
-6.4298731e-01 6.4646405e-01 -9.1523522e-01 
-1.5883428e+00 7.2740382e-01 -5.7926947e-01 
-1.6604089e+00 6.2327707e-01 -4.9882081e-01 
-2.8017156e+00 6.6052425e-01 -4.1455233e-01 
-4.0070486e+00 7.0076096e-01 -1.7958332e-02 
4.6322370e+00 -1.2389808e+00 -4.8562908e-01 
4.1801639e+00 9.5250271e-02 -1.2264357e+00 
-1.1426934e+01 1.6117676e+00 1.5211136e+00 
4.5807886e+00 -5.3512472e-01 -6.0125071e-01 
7.6564655e+00 -3.4089365e+00 9.4697744e-01 
-6.4901185e+00 1.7872490e+00 -3.8895109e-01 
3.3674321e+00 -4.3109715e-01 -5.1025015e-01 
4.2263818e+00 -1.8686445e+00 1.2873321e+00 
1.4032777e-01 3.0349804e-02 2.6169267e-01 
4.7992113e-01 2.8478581e-01 4.2723036e-01 
-3.2660279e-02 3.6985990e-01 7.1246117e-01 
3.9972392e-01 1.5081054e-01 8.8193721e-01 
-1.0453804e+01 2.6770837e+00 7.1075052e-01 
-6.3242946e+00 1.4079739e+00 7.6963878e-01 
1.7767851e-01 5.4675174e-01 9.2269105e-01 
4.8797536e+00 -1.7732619e+00 2.2575429e-01 
6.9175830e+00 -3.3809893e+00 1.8595222e+00 
3.6314363e+00 1.2570093e+00 -2.5799425e+00 
1.8318164e-01 1.9285098e-01 4.2658108e-01 
1.9455235e-01 -8.2643211e-02 8.0768311e-01 
-2.0482754e+01 4.2542429e+00 4.9160528e+00 
-1.0476891e+00 8.4399384e-01 -7.2197127e-01 
-1.4863402e+00 7.4079812e-01 -6.0271823e-01 
-7.6385367e-01 4.4043016e-02 1.9675288e-01 
-2.0873611e+00 1.0827882e+00 -2.6506707e-01 
1.3495478e+01 -7.0669088e+00 3.4726295e+00 
1.3627085e-01 -7.0703931e-02 1.3371566e-02 
2.7021434e+00 5.5033281e-02 -1.0844653e+00 
4.0883136e+00 -2.2945169e-01 -8.9130151e-01 
4.3285151e+00 -8.4770083e-01 -5.3512985e-01 
1.1396793e-01 9.1248095e-02 2.9445541e-01 
4.0936306e-01 6.0657572e-02 1.7828213e+00 
-4.4317937e+00 1.2401911e+00 1.1170027e-01 
4.8696661e+00 -1.5754535e+00 -5.4179281e-01 
3.2563043e-01 -9.0415888e-02 3.1456441e-01 
-8.9587698e+00 2.1548173e+00 1.5417633e+00 
-5.8566871e+00 2.2426376e+00 -5.1952428e-01 
3.8958535e+00 -2.3275168e+00 1.4058181e+00 
4.1875777e+00 -2.3566835e+00 3.4635279e-01 
1.8495208e-02 4.9346671e-01 3.9516595e-01 
2.0959821e+00 1.2300356e-01 -7.8016067e-01 
-2.1315432e+01 6.2279654e+00 3.2850053e+00 
2.5248778e-01 4.4848710e-02 2.8681350e-01 
1.1941503e+01 -7.1664209e+00 3.8156817e+00 
-5.5351716e-01 1.0504873e+00 -9.0111262e-01 
-1.2084399e+00 9.7077823e-01 -5.2558172e-01 
3.5373056e-01 2.9289001e-01 1.1347437e+00 
-1.4447058e+00 8.8165635e-01 -4.4921488e-01 
-6.2105298e+00 2.2094002e+00 1.5452696e-01 
-1.8705554e+00 9.4069558e-01 -3.7518987e-01 
-5.5585513e+00 2.0146244e+00 1.1216338e+00 
3.9031055e+00 -1.8150388e+00 2.8233793e-02 
3.6722524e+00 -2.4008799e+00 1.3411568e+00 
2.0712665e-01 -1.9639106e-02 1.7235459e+00 
1.5397640e-01 1.6071232e-01 4.0752038e-01 
1.4576751e-01 3.3269379e-01 6.7958122e-01 
3.7062509e+00 2.4580581e-02 -1.2035488e+00 
-3.2978049e-01 4.6454576e-01 3.4826842e-01 
3.7053292e+00 -7.3818135e-01 -6.9135648e-01 
3.1309369e+00 -8.8181823e-01 -4.6108946e-01 
1.5153232e+01 -1.0657092e+01 3.6121392e+00 
2.4404851e-01 -2.6384926e-01 2.4250674e+00 
-6.7973077e-01 7.6802425e-02 1.7794564e-01 
1.3316888e-01 1.1357128e-01 6.0170794e-01 
2.3562750e-01 1.5859519e-01 6.2293631e-01 
3.7129464e+00 -2.7525012e+00 3.9789808e-01 
-3.9759905e+00 1.8822421e+00 -1.7615226e-01 
4.4236941e+00 -2.0471921e+00 -4.8729044e-01 
-5.5750437e+00 1.9184455e+00 1.0557003e+00 
-5.1572504e+00 2.8045018e+00 -6.5783244e-01 
-1.9023531e+01 7.0920129e+00 4.7692375e+00 
3.4017735e+00 -2.8307860e+00 1.5211726e+00 
3.1232953e-01 7.0037104e-02 8.9587933e-01 
-8.6141366e-01 1.2897410e+00 -6.5537590e-01 
-6.4594736e-03 -6.3609727e-02 8.7154508e-01 
-1.1494441e+00 1.1082436e+00 -4.8849609e-01 
4.7607627e+00 1.3121037e+00 -2.7711453e+00 
-1.7572817e+00 1.3684113e+00 -4.9869516e-01 
4.2132468e+00 -4.8848003e-01 -1.1484993e+00 
3.5755382e+00 -1.2025112e+00 -9.6791613e-01 
4.5163238e-01 2.1082927e-01 2.0959847e+00 
-8.1901627e+00 3.9684052e+00 2.6095957e-01 
1.6229145e-01 1.8717206e-01 4.0654585e-01 
-7.4882522e-02 2.8686348e-01 5.3391212e-01 
4.6022817e-01 2.8648442e-02 5.5352187e-01 
-4.9196324e+00 2.0303757e+00 7.4238878e-01 
3.8140795e+00 -2.5890505e+00 3.1306796e-02 
5.2867854e-01 4.8580259e-02 9.3206036e-01 
4.0441689e+00 -3.7319179e+00 1.6755462e+00 
3.1479474e-04 8.9390779e-01 1.5502529e+00 
-5.9501672e-01 1.1602604e-01 1.5755434e-01 
1.5419679e+01 -1.5213135e+01 6.3323293e+00 
-4.0095982e-01 1.4496884e+00 -8.8659871e-01 
-9.2362952e-01 1.3623327e+00 -5.1585740e-01 
-2.6105282e+00 1.4706826e+00 4.0800691e-02 
5.7176847e-02 1.1982044e-01 1.8797197e+00 
-1.9853966e+00 1.8876263e+00 -3.5530955e-01 
-1.1707476e+00 1.4373183e+00 -5.1838315e-01 
2.7093306e+00 -1.8145349e+00 -7.9613350e-02 
-7.4401627e+00 3.2646122e+00 1.8259418e+00 
5.6503320e+00 -5.9911094e+00 1.2340555e+00 
-4.4488950e+00 3.3783975e+00 -8.5037184e-01 
2.9100137e+00 -3.3569279e+00 1.6173767e+00 
4.0698509e+00 -2.4773310e-01 -1.9480512e+00 
3.0993350e+00 -1.0770320e+00 -5.7791644e-01 
3.1057656e+00 -1.6561148e+00 -4.9421701e-01 
3.3517954e-01 8.3612926e-02 8.8292027e-01 
-1.9050716e+01 1.0152530e+01 2.1666517e+00 
6.5984182e+00 -6.9658008e+00 2.9692924e+00 
7.0448957e-02 3.1572282e-01 1.6399341e+00 
6.6082275e-01 -1.0274139e-01 2.1588962e+00 
2.7890310e-01 3.9623019e-01 6.8759799e-01 
-4.8130651e+00 3.1549528e+00 -2.3303340e-01 
1.1750375e-01 -1.2369413e-01 4.0481511e-01 
-4.3428550e+00 2.5787156e+00 4.9834523e-01 
3.2427895e+00 -3.0086746e+00 8.8920659e-01 
2.4703197e+00 -2.9009740e+00 1.3025581e+00 
1.3643803e-01 4.4617587e-01 1.1837108e+00 
-5.1957381e-01 1.5159941e-01 1.3476436e-01 
-5.6979805e-01 1.6981536e+00 -6.9847023e-01 
-8.8132781e-01 1.4551044e+00 -5.2510345e-01 
-1.4074236e+00 1.8208458e+00 -5.8198637e-01 
3.3494289e+00 -8.0192041e-01 -1.0351914e+00 
4.2712104e-01 6.6552770e-01 1.5127922e+00 
2.9091437e+00 -1.7127458e+00 -7.2126174e-01 
4.0891047e+00 1.6405354e+00 -2.9606292e+00 
-2.9697707e+00 2.6351366e+00 -3.2256049e-01 
4.9055475e-01 -1.0991832e-01 5.4486185e-01 
3.2548084e+00 -2.8012025e+00 -4.4439265e-01 
4.8194671e-01 -6.3443089e-01 2.5648963e+00 
9.8073073e-03 3.1967792e-01 1.3296596e+00 
-3.9267306e+00 2.0445428e+00 1.0091668e+00 
-3.8415103e+00 3.8209286e+00 -9.4021595e-01 
1.2626322e-01 2.0928992e-01 3.8769734e-01 
2.4638731e+00 -3.7492630e+00 1.7292349e+00 
2.5703602e+00 -3.6506555e+00 4.5972759e-01 
2.2296032e-01 1.6172455e-01 6.6730154e-01 
-1.7067982e+01 1.2257949e+01 4.1709018e+00 
-6.0415258e+00 5.3960991e+00 6.1365608e-02 
-6.3307631e-01 1.6089039e+00 -5.6542242e-01 
-3.2909913e+00 2.7495480e+00 8.7766439e-01 
-8.2870942e-01 1.7128196e+00 -4.9495101e-01 
2.2288301e+00 -2.9336812e+00 1.0043133e-01 
2.8541582e+00 -4.7184725e+00 1.9246696e+00 
2.0334536e-01 6.9369361e-02 1.8390149e+00 
9.5355791e-01 -6.0213145e-02 1.2296197e+00 
2.1454002e-01 -2.2867402e-02 9.5611584e-01 
-1.1842593e+00 1.8284374e+00 -4.6533227e-01 
-2.0451191e-01 1.8027924e+00 -8.9710772e-01 
1.0074753e+01 -1.6310198e+01 3.9099622e+00 
-1.3117644e-01 3.6421731e-01 1.4719429e+00 
3.2080572e+00 -5.8870637e-01 -1.7995627e+00 
-4.3300706e-01 1.9499825e-01 1.1768495e-01 
2.4342682e+00 -1.4950106e+00 -4.0024218e-01 
2.4471555e+00 -2.0773108e+00 -4.7158563e-01 
2.3016913e-01 1.8935888e-01 5.7167631e-01 
-3.3703637e+00 2.7296309e+00 5.6800431e-01 
-4.1345680e-01 4.6459886e-01 8.6479491e-01 
-1.9237528e+00 2.2780974e+00 2.5275713e-01 
1.9842061e+00 -3.8663008e+00 5.2237248e-01 
1.7911407e+00 -2.3279734e+00 -1.3218345e-01 
5.7883687e-02 -7.9377525e-02 6.0213274e-01 
-3.2751241e-03 3.2505348e-02 4.6361965e-01 
-2.9778912e+00 4.4715171e+00 -1.1366321e+00 
1.8457464e+00 -4.3024497e+00 1.8497088e+00 
6.6320281e+00 -1.5003298e+01 6.3578453e+00 
-5.9117030e-02 5.4809190e-02 8.0351643e-02 
-3.5400403e-01 1.9474972e+00 -5.5407107e-01 
-5.3546840e-01 1.8827958e+00 -3.7826324e-01 
8.0832146e-02 6.5529394e-01 1.2304947e+00 
-6.0493344e-01 1.7464714e+00 -4.8163331e-01 
3.5906145e-01 6.1160143e-02 6.5113449e-01 
-1.1381828e+01 1.3018190e+01 1.6161877e+00 
-6.9351822e-01 1.3087885e+00 -2.8388900e-01 
2.3192816e+00 -1.0596142e+00 -1.4018335e+00 
-1.5607129e-01 2.1885160e-01 5.4962134e-01 
-2.8857796e+00 4.4044838e+00 -4.2102033e-01 
1.9946674e+00 -1.9875426e+00 -5.8927119e-01 
-2.9881082e+00 3.1027451e+00 3.9078650e-01 
1.4045781e-01 1.8824887e-01 6.9113791e-01 
3.3898661e-01 4.0848982e-01 1.9430834e+00 
3.8927650e-01 1.0738895e-01 8.7146032e-01 
1.9774581e+00 -3.8583336e+00 5.3286260e-01 
1.5121704e+00 -4.2040997e+00 1.7805783e+00 
2.0531191e-01 2.1084315e-01 7.3751676e-01 
1.2698159e-01 3.6487541e-01 1.9249921e+00 
1.6323909e-01 -1.3490818e-01 5.4270244e-01 
-3.3636889e-01 2.4690005e-01 9.2465438e-02 
1.4315233e-01 4.3124780e-02 4.6947521e-01 
6.5846591e+00 -1.7873383e+01 7.0436497e+00 
3.9191145e-02 1.8300912e-03 9.8091252e-02 
3.2166171e+00 2.0995712e+00 -3.2293084e+00 
-1.5541000e+00 2.5222473e+00 -8.9828059e-02 
2.0305548e+00 -3.6448765e+00 -2.5393897e-01 
-2.3101382e-01 1.8457087e+00 -5.2056503e-01 
-3.7989122e-01 2.1739490e+00 -5.5573201e-01 
-4.4811745e+00 4.9696264e+00 1.6309201e+00 
-7.0587713e-01 2.3890841e+00 -3.7999508e-01 
2.1942785e+00 -6.6093984e+00 1.9777921e+00 
-1.9441894e+00 5.2990446e+00 -1.2434324e+00 
6.0123652e-01 2.6874810e-01 1.5985992e+00 
3.5871621e-02 1.4477618e+00 -5.2802312e-01 
1.0772461e+00 -5.0611196e+00 1.9666708e+00 
1.6535676e+00 -8.0436087e-01 -7.7682477e-01 
1.7630602e-01 4.3275356e-01 1.3724085e+00 
1.5979953e+00 -1.6733935e+00 -3.2662383e-01 
1.1952633e+00 -2.0654602e+00 -4.5454842e-01 
-5.9738494e-02 1.3498494e-01 2.2931497e-01 
1.3157001e-01 7.7033743e-02 2.7247423e-01 
1.3022742e-01 9.5063895e-02 1.4083463e+00 
6.2426418e-02 -1.2920931e-01 1.8170550e-01 
-2.8551273e+00 6.7374196e+00 -3.5986632e-01 
2.6873785e-01 5.2092772e-02 1.0540258e+00 
-2.0128732e+00 3.5640078e+00 3.3619824e-01 
2.1642879e-01 2.3396453e-01 5.4702955e-01 
1.3756044e+00 -4.5534072e+00 3.3263895e-01 
1.3806597e+00 -8.5256224e+00 2.7757530e+00 
8.6751163e-02 1.2655224e-01 4.1260660e-01 
-7.0791955e+00 1.1467585e+01 3.0795257e+00 
2.4810245e+00 -1.3343161e+01 3.9360011e+00 
-6.8727471e-02 2.3299076e-01 8.5290545e-01 
-2.1751672e-01 3.0400819e-01 6.4710215e-02 
9.3631692e-02 1.5909286e+00 -6.7044294e-01 
-1.5191303e-01 1.6359024e+00 -4.4732738e-01 
-2.2858261e-01 2.2468224e+00 -3.7487143e-01 
-4.5633113e-01 2.8917897e+00 -5.4198617e-01 
-4.7726369e+00 1.2505595e+01 1.1142286e+00 
1.3596922e+00 -2.2778764e-01 -1.4483253e+00 
-1.2104726e+00 4.0018568e+00 -4.9938941e-01 
1.9620007e-03 2.2549281e-01 3.0663958e-01 
1.3912009e+00 -4.0729809e+00 -5.6564885e-01 
1.9949724e-03 8.6910069e-02 5.9614003e-01 
1.0197165e+00 -1.4491504e+00 -1.0513660e+00 
1.3100069e+00 -2.5253663e+00 -5.6237590e-01 
-2.8282440e+00 4.8577003e+00 1.2402567e+00 
1.0652152e-01 1.5651527e-01 6.2869346e-01 
1.5621985e-01 -1.7904397e-02 5.6926173e-01 
1.0637071e+00 -7.5677981e+00 1.1089789e+00 
-1.0512608e+00 5.9755454e+00 -1.5142273e+00 
4.2153680e-01 -5.5523896e+00 2.0601599e+00 
1.4824875e-01 3.2832295e-02 9.3356341e-01 
2.2432518e-01 2.7852049e-01 6.0103351e-01 
9.5536923e-03 1.5489725e+00 -4.2308277e-01 
-1.5022452e+00 8.0997648e+00 -1.0981342e+00 
-1.3900386e+00 4.1132307e+00 5.5964804e-01 
7.1473575e-01 -4.5229445e+00 4.8458442e-01 
-1.8573816e-01 1.1774344e-01 4.4528839e-01 
3.5479325e-01 1.5681730e-01 5.4409897e-01 
-1.8966282e-02 2.0377767e+00 -4.2826208e-01 
-7.4946731e-03 2.4813578e+00 -5.0701463e-01 
2.6266688e-01 -5.6883202e+00 1.9703377e+00 
-2.1118733e-01 2.6902099e+00 -4.4882095e-01 
1.0403901e-01 3.1896159e-01 2.3520620e+00 
1.0876224e+00 -1.4485792e+01 5.1060238e+00 
1.5929641e+00 2.8471556e+00 -2.4051483e+00 
-1.3168670e-01 3.4962294e-01 3.6860455e-02 
1.2647837e-02 5.5445302e-02 2.8156856e-01 
1.0376822e+00 -9.0065372e-01 -7.8399152e-01 
7.2907525e-01 -2.0175555e+00 -4.2162940e-01 
3.6261894e-02 2.1742976e-01 3.9977947e-01 
9.5434064e-01 -3.2582421e+00 -2.7886841e-01 
-5.2435088e-01 3.1682322e+00 -9.6007893e-03 
1.2240313e+00 -2.1367176e+01 6.6671562e+00 
3.6349958e-01 -3.1374981e+00 1.2142072e-01 
1.1547569e-01 2.2584012e-01 1.7607228e+00 
-4.5826886e-02 6.4445078e-02 8.1543708e-01 
-1.0127860e+00 3.9942775e+00 4.4011956e-01 
-2.9237974e+00 1.4489423e+01 3.2253985e+00 
3.2176089e-02 3.0192038e-01 1.4484997e+00 
2.0277509e-01 1.2281781e-01 8.0985701e-01 
-3.8517195e-01 6.2569790e+00 -1.6884629e+00 
-3.9416619e-02 -5.6392360e+00 2.0494554e+00 
2.4144237e-01 2.5393162e+00 -5.7710528e-01 
3.5592687e-01 -5.2145214e+00 5.6537914e-01 
-6.0934711e-02 5.6205656e-02 6.4545596e-01 
1.1843226e-01 2.0243239e-01 4.4870946e-01 
8.5085042e-02 2.5280774e+00 -5.2042997e-01 
1.1464508e-01 2.5153286e+00 -4.2349663e-01 
-3.5854466e-02 1.9375194e+00 -3.4174830e-01 
1.0270444e-01 -3.6136851e-02 9.3324095e-02 
-3.3302683e-01 3.1727988e-01 8.9383292e-01 
-4.6409839e-01 4.3786597e+00 2.6266810e-01 
2.3835550e-01 -4.6099114e+00 1.6784757e-01 
3.8281918e-01 -1.7205137e+00 -8.6551785e-01 
-3.4956196e-01 -8.9506102e+00 2.7729218e+00 
1.9741285e-01 -2.9745634e+00 -6.9865525e-01 
6.0214996e-01 -3.3384266e-01 -1.2604206e+00 
-3.9037406e-01 5.7742872e+00 -9.0166563e-01 
7.5208530e-02 1.3802917e-01 2.0710320e+00 
-4.3863261e-01 -1.7171610e+01 4.2488723e+00 
-6.2933892e-02 3.8482982e-01 1.6874824e-02 
2.3450246e-01 1.2369169e-01 5.7712203e-01 
-7.8537470e-01 1.8955532e+01 3.4706187e-01 
-2.2388401e-02 1.5425143e-01 6.5710849e-01 
3.7096250e-01 2.9887791e+00 -8.1846493e-01 
1.2529869e-01 2.0724680e-01 9.3593681e-01 
4.9964894e-02 4.0065084e+00 -1.2003792e-02 
1.2607616e-01 -4.8518686e+00 1.6187927e-01 
-2.0432292e-01 -6.2439840e-02 9.4143981e-01 
-7.6257968e-01 6.4581804e+00 1.4794980e+00 
-7.9005712e-01 -8.2676630e+00 1.8170607e+00 
3.0063686e-01 2.6926899e+00 -4.7296283e-01 
3.5369715e-01 6.4501424e+00 -1.6313608e+00 
2.0466949e-01 2.6730490e+00 -5.1883376e-01 
2.0768027e-01 2.9797740e+00 -2.7572408e-01 
2.3245610e-01 5.9569787e-02 8.0698770e-01 
-5.7448161e-01 -6.2582698e+00 2.2039924e+00 
-9.2698578e-03 3.3317694e-01 8.5041279e-01 
7.1140319e-02 -8.7930298e-01 -9.3326163e-01 
1.7727895e-02 -2.3174193e+00 -2.7174893e-01 
-2.2680919e-01 -2.7516465e+00 -5.3214860e-01 
3.5161829e-01 1.9405295e-01 1.3692441e+00 
9.9576920e-01 9.2160444e+00 -1.0008608e+00 
1.9478774e-01 4.7763577e+00 8.2516843e-01 
-4.8234016e-01 -5.3454494e+00 7.4058735e-01 
1.1702427e-01 1.9621549e-02 2.7247751e-01 
-6.5826513e-02 1.6980833e-01 5.1826406e-01 
9.1323692e-01 2.6618135e+00 -2.5500965e+00 
-8.8350654e-01 -6.4316516e+00 2.1808934e+00 
2.5020587e-01 1.6504353e-01 1.8458028e+00 
3.0328289e-02 4.2496946e-01 3.6100377e-03 
4.8587972e-01 3.2206519e+00 -5.8447075e-01 
5.1138240e-01 2.8855493e+00 -3.7883508e-01 
4.7516128e-01 2.7666016e+00 -4.7728753e-01 
-2.5297620e+00 -1.9829933e+01 6.2532473e+00 
4.0569517e-01 3.1481304e+00 -5.2485359e-01 
2.8460762e-01 3.2390153e+00 -1.6506385e-02 
-3.2547882e+00 -1.9357458e+01 5.6864772e+00 
-9.7728282e-01 -5.2395716e+00 -2.7623659e-01 
2.9792735e-01 6.1609697e-01 8.2199186e-01 
5.7320976e-01 4.3984966e+00 1.8394509e-01 
-2.6053163e-01 -1.8745701e+00 -1.0322697e+00 
1.2050353e+00 7.2286110e+00 -1.8739628e+00 
-5.1818794e-01 -3.3404241e+00 -4.0131053e-01 
1.9139403e-01 2.7701929e-01 7.7179807e-01 
2.2540672e+00 1.9762409e+01 2.9178674e+00 
-1.1352887e+00 -6.4602923e+00 2.1832206e+00 
-8.6815786e-01 -5.9604249e+00 7.8662783e-01 
8.0680899e-02 5.7781786e-02 4.9062300e-01 
2.2814006e-01 3.4701046e-01 1.3683075e+00 
2.1839377e-02 3.2937425e-01 7.7733761e-01 
1.0411447e-01 2.7844971e-01 1.9212345e+00 
7.7227759e-01 4.9205904e+00 3.1793218e-02 
2.6655310e-01 1.5530755e-02 1.5886708e+00 
-9.8700178e-01 -5.1510487e+00 4.9791709e-01 
-2.1817014e+00 -1.0209969e+01 2.9198339e+00 
1.2942934e+00 6.7090282e+00 -1.1434078e+00 
-1.0630485e-01 1.8974465e-01 6.7895281e-01 
6.5810728e-01 3.2323003e+00 -7.2597295e-01 
6.1486983e-01 2.9428360e+00 -5.2655983e-01 
6.3444376e-01 2.9917989e+00 -4.6065372e-01 
6.7947245e-01 3.2152607e+00 -4.3154851e-01 
-3.6759670e+00 -1.8901337e+01 4.3054776e+00 
1.2377407e-01 4.6689790e-01 -1.2255658e-02 
5.5750952e+00 2.2560047e+01 -4.6072713e-01 
-5.5909646e-01 -1.2028501e+00 -1.2451876e+00 
7.7037647e-02 3.7004244e-02 3.2033277e-01 
-8.7138551e-01 -2.6272554e+00 -6.0377872e-01 
-1.2446580e+00 -4.3076887e+00 -1.0489932e-01 
9.9383092e-01 4.6385779e+00 -2.2908913e-01 
-9.6316826e-01 -3.9781992e+00 2.1072198e-01 
1.8047516e+00 7.9301534e+00 1.3366170e+00 
-2.3204975e+00 -9.2681751e+00 1.5272452e+00 
1.9003812e+00 7.4240913e+00 -1.8274561e+00 
-6.2620230e-02 1.0184935e-01 3.3844504e-01 
-1.7533385e+00 -7.1486382e+00 2.3138056e+00 
1.8032202e-01 7.0283398e-02 2.1532409e-01 
-3.6406390e-02 1.3327998e-01 2.1995156e-01 
1.1482306e-01 1.6832492e-01 7.4007636e-01 
8.0607003e-01 3.4947302e+00 -3.5115838e-01 
7.6766288e-01 3.0773904e+00 -4.6454409e-01 
7.7816111e-01 3.0725141e+00 -3.9433706e-01 
7.0250875e-01 2.6411827e+00 -3.4353510e-01 
1.0745845e-01 2.1323752e-02 3.9655909e-01 
3.4055426e+00 1.0366477e+01 -1.2986788e+00 
1.4470576e+00 5.2350349e+00 2.8012303e-01 
1.4539239e-01 2.1427290e-01 1.2801098e+00 
6.4221337e-02 2.8776023e+00 -2.4167435e+00 
-1.6869466e+00 -5.8609891e+00 2.6256201e-01 
-1.0167437e+00 -2.0729959e+00 -8.5557383e-01 
-1.4126413e+00 -3.5994055e+00 -4.1157827e-01 
-2.0840869e+00 -7.1888757e+00 2.2666287e+00 
-1.2327544e-01 3.1728795e-01 2.0210767e+00 
2.1549588e-01 5.0409794e-01 -2.6647175e-02 
8.0058366e-02 2.5848243e-01 4.5208973e-01 
1.0247176e-02 5.2725233e-02 4.0520206e-01 
-6.1782632e+00 -2.1119139e+01 6.1603470e+00 
1.6092849e-01 2.2068737e-01 5.8940303e-01 
-4.2002078e-02 -2.6446864e-02 8.8959619e-02 
1.6040109e+00 4.9985094e+00 -6.1724413e-02 
-6.9217663e+00 -2.2098055e+01 6.0054116e+00 
-2.0758514e+00 -5.8942142e+00 -3.5359627e-01 
-1.5857919e-01 3.3894715e-01 1.6180607e+00 
4.8003640e-02 1.4464256e-02 7.1392536e-01 
2.8189723e+00 8.1889639e+00 -2.0705943e+00 
1.9439546e+00 4.9055762e+00 1.0853815e+00 
-2.2847915e+00 -7.2870183e+00 2.2844391e+00 
8.9111346e-01 3.1515572e+00 -4.7536001e-01 
9.0674734e-01 3.1911328e+00 -4.4882500e-01 
-1.8308097e+00 -6.3161693e+00 6.0709918e-01 
1.0620430e+00 3.5693645e+00 -3.3385822e-01 
4.3233562e-02 2.0981915e-01 9.9784839e-01 
8.5787100e-01 3.5286927e+00 -7.4712372e-01 
-1.3459779e+00 -1.2763927e+00 -1.3597513e+00 
-1.4227741e+00 -2.7515452e+00 -4.2071939e-01 
6.6604018e-02 7.2721757e-02 4.6395260e-01 
-1.5195646e+00 -3.6029723e+00 -3.2120052e-01 
1.9383801e+00 5.4211950e+00 -8.1704810e-02 
-1.8903099e+00 -5.7682219e+00 5.2186179e-01 
-3.8775871e+00 -1.1200156e+01 3.0135410e+00 
2.9119480e+00 7.4402509e+00 -1.3182336e+00 
7.6145363e+00 2.0395096e+01 1.8338608e+00 
1.1406764e-01 2.3478313e-01 1.3164135e+00 
-6.8682718e+00 -2.0192715e+01 4.0964518e+00 
3.7263412e-02 -9.1767326e-02 4.1136274e-01 
4.0850587e-02 9.3383729e-02 4.1144651e-01 
2.9706791e-01 5.3260463e-01 -4.4497821e-02 
-8.2107186e-03 -8.9595178e-03 5.8266185e-02 
1.0342552e+01 2.2739212e+01 -9.1702521e-01 
9.6109295e-01 3.4599907e+00 -5.5469245e-01 
1.0365241e+00 3.4021859e+00 -3.6761057e-01 
1.1630045e+00 3.3443255e+00 -4.4392747e-01 
5.8701310e-02 4.5491565e-02 3.4604344e-01 
1.3644449e+00 3.8904955e+00 -4.5308062e-01 
1.5191879e+00 3.8279545e+00 -1.2518919e-01 
-2.9718339e+00 -6.1710324e+00 1.5826045e-01 
2.8220922e-01 1.5672916e-01 1.2526939e+00 
2.7750286e-01 1.5172118e-01 1.0261010e+00 
3.4358003e+00 6.7607198e+00 1.5006652e-01 
-3.8871686e+00 -9.8633833e+00 1.9549284e+00 
3.2215450e+00 8.0836048e+00 -1.9562167e+00 
-2.7410131e+00 -7.7590547e+00 2.3531668e+00 
-1.8278195e+00 -2.0509133e+00 -8.5524112e-01 
-2.0911362e+00 -3.9157627e+00 -1.6621993e-01 
4.1693829e-02 2.0549297e-01 8.1759542e-01 
9.2314549e-02 4.4604633e-02 4.9178401e-01 
5.8269557e-02 -9.8777182e-02 4.7313923e-01 
-9.6039265e-02 1.6461313e-01 2.7083251e-01 
-6.1914843e-01 3.3818629e+00 -2.3190384e+00 
5.5349398e+00 1.1222269e+01 -1.5385360e+00 
2.7826979e+00 5.5025487e+00 3.9488927e-01 
-2.6271925e+00 -6.1904469e+00 4.5715371e-01 
-2.1134052e-01 3.9406091e-01 9.6905810e-01 
-1.1481224e-01 1.2405072e-01 1.2239180e+00 
-3.0961668e+00 -7.7815914e+00 2.3223825e+00 
1.1080375e+00 3.2498043e+00 -3.9667159e-01 
1.2497452e+00 3.3929365e+00 -4.6515733e-01 
3.6181483e-01 5.5175096e-01 -4.6970297e-02 
1.4155316e+00 3.8870237e+00 -3.7333351e-01 
-1.0078298e+01 -2.4113344e+01 6.3037848e+00 
7.9916376e-01 2.5238490e+00 -3.5351738e-01 
1.4893292e-01 1.1303972e-01 3.8334903e-01 
-1.3754294e+00 -1.2379618e+00 -5.8739549e-01 
2.5469284e+00 5.5869355e+00 -3.2448021e-01 
-1.0498388e+01 -2.4588957e+01 6.3228827e+00 
-2.3861637e+00 -4.5176792e+00 -1.3935275e-01 
-2.1519966e+00 -3.0245607e+00 -6.7266542e-01 
6.5293722e-02 1.5950857e-01 6.2520748e-01 
-3.0184193e+00 -5.1106048e+00 -4.9436349e-01 
3.3715847e-01 3.2741991e-01 1.5652796e+00 
3.2633574e+00 5.5031071e+00 9.4156104e-01 
4.1409965e+00 8.8298082e+00 -2.1493826e+00 
1.2750783e+01 2.1533768e+01 1.6798152e+00 
-3.1995411e+00 -7.8441043e+00 2.3317597e+00 
-2.9377475e+00 -6.7857080e+00 8.4336877e-01 
2.4583211e-02 5.0017960e-02 9.7737513e-02 
6.9050795e-01 2.7461267e+00 -5.2682292e-01 
-8.9741163e-02 1.9774203e-01 9.9469674e-01 
2.4607390e-02 2.7672687e-01 7.3947519e-01 
1.0657556e+00 2.9415171e+00 -3.5853252e-01 
-3.5066909e-01 3.3053675e-01 8.7488508e-01 
1.3540939e+00 3.5556047e+00 -4.3124422e-01 
1.4263861e+00 3.4951129e+00 -3.7218851e-01 
4.3392476e-02 4.5869336e-02 4.9986396e-02 
3.3081777e+00 5.9792290e+00 6.8616934e-02 
1.3744277e+00 3.2143281e+00 -3.5107884e-01 
-3.0685306e+00 -6.0851803e+00 3.8646039e-01 
-5.3706560e+00 -1.2002480e+01 3.0840364e+00 
4.3286419e+00 8.0103331e+00 -1.4350979e+00 
1.3987155e-01 3.6769652e-01 7.7560925e-01 
-1.4232262e+00 -3.9477706e-01 -9.4704610e-01 
1.7223578e-03 1.8351560e-02 3.5137910e-01 
-9.7026987e+00 -2.1662567e+01 4.2997708e+00 
4.5012879e-01 5.7525408e-01 -5.6867294e-02 
-2.1951914e-02 8.9810021e-02 6.1841470e-01 
8.0581143e-02 1.2696329e-01 6.1501557e-01 
-2.1147339e+00 -2.3075874e+00 -5.4564953e-01 
-2.8971665e+00 -4.2407575e+00 -3.3500606e-01 
1.6627264e+01 2.6609371e+01 -1.5345035e+00 
-2.8772457e-02 3.9366379e-02 2.1125492e-01 
3.0414529e+00 5.8375964e+00 -3.4644791e-01 
-4.2192864e+00 -6.8240771e+00 1.0434108e-01 
5.7543344e+00 9.1082449e+00 5.7534254e-01 
-4.9466114e+00 -1.0468864e+01 1.6144116e+00 
4.4763966e+00 8.6812325e+00 -2.0228345e+00 
-3.6901138e+00 -8.3312721e+00 2.3820214e+00 
2.1361303e-02 1.2076315e-01 3.0988625e-01 
1.3556594e+00 3.4932764e+00 -4.3088138e-01 
1.4003203e+00 3.7081099e+00 -3.5566786e-01 
1.8315749e+00 4.0836077e+00 -3.8544548e-01 
1.0571084e+00 3.1077473e+00 -4.7701442e-01 
-2.9445612e-03 2.3902988e-02 4.9007648e-01 
-8.2430017e-01 2.7325275e+00 -1.6002719e+00 
-3.6162462e-03 -8.0856986e-02 3.2283828e-01 
7.4639869e+00 1.1904078e+01 -1.6879430e+00 
1.7681834e-01 -9.8439060e-02 9.9762297e-01 
3.7744234e+00 5.8680000e+00 1.6771074e-01 
2.6875359e-03 2.2112143e-01 2.7416489e-01 
-3.5505810e+00 -6.5006399e+00 6.4856434e-01 
-2.0861869e+00 -1.2899810e+00 -7.5356400e-01 
-2.6674333e+00 -3.1112361e+00 -4.5818788e-01 
1.4461744e-02 -7.0315604e-03 4.4947997e-02 
-3.0746739e+00 -4.2501717e+00 9.8302193e-02 
-4.0530138e+00 -8.2779589e+00 2.3289249e+00 
1.3816808e-01 3.8982886e-01 1.5085481e+00 
9.9353507e-02 3.9107516e-01 9.8535544e-01 
5.0856531e-01 5.8322579e-01 -5.7178069e-02 
-5.1088236e-02 1.1718147e-01 3.7962613e-01 
1.1644775e-01 4.9638648e-02 3.0323398e-01 
-1.3437848e+01 -2.5745672e+01 6.3220930e+00 
2.6059754e+00 4.3583736e+00 -2.4153525e-01 
-1.3518669e+01 -2.5985321e+01 6.2908320e+00 
-3.2344861e+00 -5.0658922e+00 1.3862412e-01 
1.3572479e+00 3.1997490e+00 -3.1549874e-01 
1.2174684e-01 2.5662267e-01 1.0468303e+00 
1.5541769e+00 3.6667895e+00 -4.0273896e-01 
1.6683004e+00 3.7055602e+00 -4.3002051e-01 
2.2778041e+00 4.5814033e+00 -4.8654160e-01 
7.8831285e-02 1.9401014e-01 2.7161929e-01 
5.3636918e+00 9.3363295e+00 -2.1778440e+00 
7.1939713e-01 2.7085454e+00 -4.9134469e-01 
4.3680930e+00 5.3413763e+00 1.1769693e-01 
-4.0462632e+00 -8.3094482e+00 2.3197505e+00 
-3.7731888e+00 -7.1213503e+00 6.7337477e-01 
-1.4392330e-01 4.2505510e-02 1.9670586e-01 
-1.7988763e+00 -3.6651084e-01 -8.9632100e-01 
-2.5788414e+00 -2.2944396e+00 -5.7494658e-01 
-3.2452834e+00 -3.7620943e+00 -4.9104929e-01 
2.3929288e-03 3.8113698e-02 1.5823103e-01 
-2.4673285e+00 -3.2380416e+00 -2.0886487e-01 
1.0237483e-01 3.0879411e-01 8.7214196e-01 
4.0752940e+00 5.9376044e+00 7.4771573e-03 
-3.6460800e+00 -6.2285233e+00 3.4036911e-01 
2.9403361e-02 4.0252078e-03 2.3028423e-01 
-6.6781349e+00 -1.2569626e+01 3.0738184e+00 
5.5645046e+00 8.3937216e+00 -1.5009978e+00 
-4.3464714e-01 1.9802655e-01 5.0863928e-01 
1.6756546e+01 2.3307785e+01 3.0345505e-01 
-1.1833591e+01 -2.2540829e+01 3.7987013e+00 
5.8753127e-01 5.9177274e-01 -6.1913881e-02 
9.8837698e-01 2.8151920e+00 -4.7674331e-01 
1.5913724e+00 3.8314452e+00 -3.2979617e-01 
1.7359773e+00 3.7538068e+00 -3.9512441e-01 
2.1016335e+00 4.2171340e+00 -2.7799326e-01 
-1.1934235e-01 2.2314912e-01 7.9524505e-01 
1.9182840e+01 2.5436337e+01 -1.7658343e+00 
1.2523668e-01 2.2762559e-01 4.4318733e-01 
-2.9917377e-01 4.9364313e-01 3.5623813e-01 
3.7675414e+00 6.1493883e+00 -2.7391869e-01 
-3.4237628e+00 -5.0097456e+00 1.6579863e-01 
-3.5053134e-02 4.1101273e-02 2.6947886e-01 
-2.6173560e-02 -5.9317917e-02 7.6320535e-01 
6.8334026e+00 7.3346510e+00 1.1074195e+00 
1.3037017e-01 -2.9149514e-02 3.7371990e-01 
-6.1349726e+00 -1.0620637e+01 1.7059216e+00 
-2.1255877e+00 -1.0247171e+00 -8.2331026e-01 
5.5538583e+00 9.0715284e+00 -2.0165858e+00 
-3.3393676e+00 -3.4302874e+00 -4.0889871e-01 
-4.4893980e+00 -8.7362366e+00 2.3484657e+00 
-3.8611333e+00 -4.6882319e+00 -2.6556385e-01 
-1.6754758e+00 3.7214298e+00 -1.9984002e+00 
-2.4190458e-02 -6.1590333e-02 5.5614227e-01 
9.0823469e+00 1.2327994e+01 -1.7783663e+00 
4.8165717e+00 6.3289557e+00 -5.0366987e-02 
-4.2543283e+00 -6.5602298e+00 4.4904673e-01 
1.9293025e+00 3.5112219e+00 -2.9115820e-01 
1.6801634e+00 4.1319623e+00 -4.9822205e-01 
1.8103316e+00 3.8556254e+00 -4.1311243e-01 
1.8756338e+00 3.7661576e+00 -3.5344276e-01 
-2.5438613e-01 1.6984907e-01 1.9306175e-01 
-4.8558035e+00 -8.6452732e+00 2.2745671e+00 
6.3182354e-01 5.8383608e-01 -5.9314217e-02 
-1.6050249e+01 -2.6518652e+01 5.8257246e+00 
3.8796425e-02 5.4193258e-02 4.3743303e-01 
-9.1687240e-02 1.2128913e-01 2.9294851e-01 
-3.1572707e+00 -2.0992126e+00 -7.4213189e-01 
-4.0989470e+00 -4.5687900e+00 -2.2482912e-01 
-1.3052450e-02 -1.9057253e-02 3.5694075e-01 
4.2493153e+00 6.4354486e+00 -3.6636519e-01 
-1.6344416e+01 -2.7475986e+01 6.3084898e+00 
-5.4958954e+00 -6.9387078e+00 -1.0949896e-01 
2.3283659e-02 3.5641181e-01 5.2639300e-01 
5.2357721e+00 5.9475756e+00 1.7193630e-01 
6.2652030e+00 9.5500345e+00 -2.1662707e+00 
-1.4499183e-01 1.1313801e-01 1.5344135e-01 
2.0367931e+01 2.3214378e+01 9.0226203e-01 
-4.6444669e+00 -8.5369682e+00 2.2504246e+00 
-4.4655685e+00 -7.1499786e+00 8.1143439e-01 
2.4856720e+00 4.5533867e+00 -3.9891756e-01 
-1.5279814e-02 4.4241399e-02 1.1028986e-01 
3.6464915e-02 7.1312621e-02 5.8756196e-01 
1.4871866e+00 4.2533813e+00 -5.4718721e-01 
1.8251644e+00 3.8893070e+00 -3.8931471e-01 
1.9491529e+00 4.0048833e+00 -3.6459804e-01 
2.4960652e-02 4.2694318e-01 6.2559223e-01 
-8.0907857e-03 6.1838355e-02 3.2084060e-01 
-3.3593364e+00 -1.1969664e+00 -9.0430105e-01 
-4.6139304e-02 1.5221553e-01 2.7612919e-01 
5.1400194e+00 6.2836199e+00 9.1464542e-02 
-4.4000344e+00 -6.2871771e+00 3.4388331e-01 
-7.5383596e+00 -1.2745681e+01 2.9816234e+00 
6.4273448e+00 8.4440174e+00 -1.4868501e+00 
-5.2081954e-02 -1.5923232e-02 1.7457020e-01 
8.5727789e-02 1.3135706e-01 4.0960029e-01 
-1.3581566e+01 -2.2497938e+01 3.3895245e+00 
-3.4786994e+00 -3.0452933e+00 -5.3765643e-01 
-4.2239523e+00 -4.7827792e+00 2.0649822e-02 
6.8150091e-01 5.7063365e-01 -5.7691976e-02 
-8.1291996e-02 1.6090420e-01 7.3393427e-02 
2.4502405e+01 2.8282591e+01 -2.2672822e+00 
3.4091322e+00 4.6788740e+00 -1.8448867e-01 
7.7496439e-02 2.3184305e-02 2.9623753e-01 
-4.2931457e+00 -5.3639030e+00 3.2585883e-01 
-7.5595267e-02 8.5080013e-02 4.5108414e-01 
9.2181435e+00 9.4703951e+00 4.3580571e-01 
-7.0546913e+00 -1.0630794e+01 1.2751293e+00 
6.2978802e+00 9.1528893e+00 -1.9225904e+00 
1.8256392e+00 4.3332415e+00 -4.7203606e-01 
1.9223331e+00 3.9000187e+00 -3.7162775e-01 
2.1389177e+00 4.0592866e+00 -3.1514141e-01 
2.9827263e+00 5.0286446e+00 -3.8846138e-01 
-5.0345955e+00 -8.8782835e+00 2.2723649e+00 
-1.9331849e+00 3.9185843e+00 -1.8090632e+00 
-1.8302996e-01 4.2912968e-02 7.0867375e-02 
3.9653052e-03 4.1543324e-02 1.5574789e-01 
-3.8419552e+00 -2.2687583e+00 -6.0016775e-01 
1.0242148e+01 1.2359746e+01 -1.7270020e+00 
-4.1385832e+00 -3.8549345e+00 -3.7265578e-01 
5.4304085e+00 6.1912694e+00 3.4411612e-01 
-3.2113826e+00 -3.4526570e+00 -1.7074576e-01 
-3.8029753e-02 1.5311475e-01 4.3467316e-01 
-4.7656851e+00 -6.5562472e+00 5.3113174e-01 
-2.6145059e-01 3.5594708e-01 7.0697832e-01 
7.2516821e-02 2.9505441e-02 4.0106010e-01 
-1.5150634e-02 6.0218148e-04 2.8722474e-01 
-5.4207649e+00 -8.7434492e+00 2.1959987e+00 
7.2458506e-01 5.5037886e-01 -4.7182638e-02 
-2.0613573e+01 -3.0923433e+01 6.7752423e+00 
-3.3674380e-01 3.8401005e-01 9.6847326e-01 
-4.4094279e-01 -1.5087444e-01 2.6195839e-01 
1.9649707e+00 3.9184470e+00 -3.4818548e-01 
2.1320252e+00 4.0279379e+00 -3.8622570e-01 
2.7505057e+00 4.7050796e+00 -3.3417663e-01 
-1.2331544e-02 1.7506003e-01 2.8983346e-01 
4.8116412e+00 6.5663958e+00 -2.6750675e-01 
-1.9391428e+01 -2.9412737e+01 6.3698277e+00 
-4.1600103e+00 -4.9519815e+00 1.4448893e-01 
1.6882523e+00 4.4798150e+00 -5.3909093e-01 
5.7544447e-02 7.0644528e-02 1.8325946e-01 
7.0292616e+00 9.5970144e+00 -2.0106761e+00 
6.0349827e+00 5.6686316e+00 2.5043780e-01 
-5.1635141e+00 -8.6700869e+00 2.1511185e+00 
-7.9265147e-02 3.6433708e-02 1.8532546e-01 
-5.0017958e+00 -7.1047559e+00 7.7281165e-01 
-3.6600020e+00 -1.0070193e+00 -9.8032653e-01 
-4.3823266e+00 -3.5966136e+00 -5.8332497e-01 
-6.9849335e-02 1.7557500e-01 2.0178500e-01 
1.1126890e-02 1.1355878e-01 1.3996518e-01 
-4.8748960e+00 -4.8530931e+00 -1.9248141e-01 
3.3949524e-02 9.7305715e-02 3.6887392e-02 
5.3701305e+00 6.0793843e+00 -4.6936460e-02 
-8.5444055e-02 -2.1693029e-02 -6.8961225e-02 
-4.7101827e+00 -6.3242164e+00 5.1420742e-01 
-1.4325887e-01 8.3257608e-02 2.0631048e-01 
-7.3332891e+00 -1.1319744e+01 2.5752618e+00 
1.2981855e-02 1.6069281e-01 9.1176212e-02 
7.2885261e+00 8.5731611e+00 -1.4252341e+00 
2.5899206e+01 2.5738802e+01 -5.8246386e-01 
-1.8328661e+01 -2.6374952e+01 3.9108324e+00 
2.0730031e+00 3.8980355e+00 -3.3795702e-01 
2.2896159e+00 4.1123962e+00 -2.9280841e-01 
7.8803349e-01 5.3019130e-01 -4.2729598e-02 
2.7087221e+00 4.2354054e+00 -2.3995799e-01 
1.7875627e+00 4.0461745e+00 -4.1995528e-01 
-1.0633087e-01 1.0775529e-01 1.1009304e-02 
2.6287495e+01 2.7184372e+01 -1.9157859e+00 
-1.0147354e-03 5.0120875e-02 4.7727630e-02 
3.8255472e+00 4.7742033e+00 -1.2309347e-01 
-2.2688393e-01 4.6536940e-01 4.8431861e-01 
-4.1501884e+00 -4.8317261e+00 1.8892516e-01 
-3.9835005e+00 -2.0739925e+00 -7.4757564e-01 
8.9703150e+00 8.2914190e+00 3.8525793e-01 
-4.1572170e+00 -3.6680646e+00 -1.9771419e-01 
-7.3738513e+00 -1.0607648e+01 1.4778267e+00 
-5.6773312e-02 -3.0062977e-02 8.0930315e-02 
-3.2564979e+00 -3.2351570e+00 -1.6362038e-01 
7.0930772e+00 9.2497387e+00 -1.8285339e+00 
-1.9883177e+00 4.1835275e+00 -1.6586322e+00 
-5.7572012e+00 -9.2852564e+00 2.2256594e+00 
-7.9017349e-02 1.3139004e-02 8.8269867e-02 
-4.2664845e-02 4.1165508e-02 2.5667915e-02 
5.5272989e-03 1.6270855e-01 7.0721544e-02 
-4.7702402e-02 1.8871042e-01 1.6806307e-01 
1.8315642e+00 3.4663129e+00 -2.8719959e-01 
2.1655264e+00 3.8555005e+00 -2.8484115e-01 
2.2794971e+00 3.8838623e+00 -2.8891328e-01 
1.1121410e+01 1.2171082e+01 -1.6444868e+00 
1.8072357e+00 2.6306105e+00 -1.4345911e-01 
5.8172231e+00 6.2083540e+00 -3.7115101e-02 
-5.1050053e+00 -6.3780165e+00 4.2931506e-01 
1.2018064e+00 2.7806754e+00 -1.8639897e-01 
-4.6937957e+00 -7.0148702e+00 1.6887379e+00 
-9.9633023e-02 1.8964645e-01 2.5532952e-01 
8.2846999e-01 4.9889827e-01 -3.6909711e-02 
-3.1829208e-02 6.8686604e-02 1.4016788e-01 
-3.8901367e+00 -2.8880863e+00 -4.2133096e-01 
-4.5211129e+00 -4.1511612e+00 -1.6714188e-01 
-3.8689880e-03 -3.0680276e-02 7.1426831e-02 
-3.7058942e+00 -8.9469606e-01 -8.8408208e-01 
4.3251435e-03 -9.5905149e-03 5.4708589e-02 
3.5534188e-02 -1.0569205e-02 5.5009320e-02 
-1.2106960e-01 2.2689556e-01 9.0641007e-02 
3.9662020e+00 4.7195215e+00 -7.0943534e-02 
-5.5193577e+00 -5.9025164e+00 4.0185619e-02 
-8.5481487e-02 1.7178221e-01 3.9013363e-02 
-1.5543509e+01 -2.1834303e+01 4.7588692e+00 
7.6871667e+00 9.5909300e+00 -1.9078196e+00 
6.4542562e-02 1.2963250e-01 4.9377471e-02 
6.2640305e+00 5.5702662e+00 1.5883012e-01 
-5.5954933e+00 -8.8006811e+00 2.0769370e+00 
-5.2971053e+00 -6.9187927e+00 7.6508421e-01 
9.9012744e-01 2.9358766e+00 -3.4933671e-01 
2.8877292e+00 4.3848104e+00 -3.3626586e-01 
1.7553631e+00 3.3713131e+00 -2.7856368e-01 
2.0575161e+00 3.8225963e+00 -2.8541809e-01 
2.3856294e+00 3.9783618e+00 -2.6132959e-01 
-2.7803288e+01 -3.7791405e+01 7.1162767e+00 
-6.8980553e-03 1.0704005e-01 -1.9389017e-02 
-4.7828975e+00 -7.0009131e+00 1.5851978e+00 
-1.1563615e-01 1.0231609e-01 -9.6875541e-02 
-3.0773744e-01 3.5073233e-01 -1.2740006e-01 
5.7570000e+00 5.8582811e+00 3.3134058e-02 
-5.0869417e+00 -5.9688144e+00 3.3304742e-01 
-3.2998022e-02 2.8174076e-02 -3.5202270e-03 
-6.8391286e-02 1.2278094e-01 1.4517733e-01 
7.9149194e+00 8.4537420e+00 -1.3712579e+00 
-4.1186228e+00 -1.9104739e+00 -7.4923033e-01 
-1.4019254e-01 2.4875332e-01 -9.5873944e-02 
-2.8537275e-02 2.6950637e-01 -2.5856584e-01 
2.7258829e+01 2.4837475e+01 -9.5896326e-02 
-4.4398761e+00 -3.7010002e+00 -2.4583767e-01 
-1.6267948e+01 -2.2483770e+01 3.3058836e+00 
-7.1823172e-02 1.2141090e-01 -4.9560708e-03 
-7.5899944e-02 -1.4743153e-02 -1.7195040e-02 
-4.7572465e+00 -4.2301555e+00 -2.0560589e-01 
8.7819397e-01 4.6638042e-01 -2.9954148e-02 
2.4960262e+01 2.3558512e+01 -1.7591650e+00 
-3.2456401e-01 4.0360503e-02 4.8856750e-01 
5.4012079e+00 6.6540408e+00 -1.8802787e-01 
-4.4060349e+00 -4.7173762e+00 1.3835132e-01 
1.4746364e+00 3.3233418e+00 -3.5119596e-01 
2.0308356e+00 3.8353710e+00 -2.9822016e-01 
2.1882553e+00 3.8218157e+00 -2.9217720e-01 
3.1581299e+00 4.8436542e+00 -3.1397223e-01 
6.9734707e+00 5.9890976e+00 1.0159711e-01 
-2.9948521e+00 2.5016100e+00 -1.4151825e+00 
-6.7818718e+00 -8.7715778e+00 9.7014141e-01 
7.6641202e+00 9.2805166e+00 -1.7956818e+00 
-5.9689856e+00 -9.1243267e+00 2.0551150e+00 
-1.5781280e-01 1.3322142e-01 -6.8940088e-02 
-8.0703922e-02 -2.2813607e-02 -2.4085719e-02 
-4.2257190e-02 2.3279801e-02 -4.3288149e-02 
1.0675780e-02 9.8453714e-03 2.5528725e-02 
-9.4040346e+00 -1.3212381e+01 2.8369336e+00 
-2.5540285e+00 -1.6281421e+00 -3.6590391e-01 
1.2352052e+01 1.2456753e+01 -1.6916244e+00 
6.9351454e+00 6.6942205e+00 3.0427756e-02 
4.4927850e-02 1.2601885e-01 -5.1258363e-02 
-5.4833088e+00 -6.3212562e+00 4.4530219e-01 
1.9801056e-03 -2.6675040e-02 -5.5825305e-03 
-5.0591327e-02 7.9833269e-02 -2.0116729e-01 
-3.4845655e+00 -3.2155516e+00 -1.3512115e-01 
-4.3868326e-02 3.0023262e-02 -2.0417551e-02 
-3.7367254e-01 4.4251668e-01 -3.9255166e-01 
8.9538312e-01 4.1988626e-01 -3.4029540e-02 
-4.4812407e+00 -1.9422723e+00 -7.2934991e-01 
1.7806157e+00 3.3196521e+00 -2.3037553e-01 
2.1107647e+00 3.7808659e+00 -2.5369945e-01 
2.3941672e+00 3.9010348e+00 -2.1469815e-01 
3.0274267e+00 4.3481107e+00 -1.1401430e-01 
-7.0981649e-03 1.5720519e-01 -1.9621766e-01 
-4.7904771e-02 7.4675776e-02 -7.2955407e-02 
-5.4644227e+00 -4.3246689e+00 -4.2181244e-01 
-2.8729963e-01 1.8887611e-01 1.7321752e-02 
9.7313571e-01 2.8974774e+00 -3.9053878e-01 
-1.4330001e+01 -1.8539850e+01 3.3560266e+00 
4.2122488e+00 4.7469025e+00 2.7217653e-02 
-4.8765187e+00 -4.9598999e+00 1.7962087e-02 
8.2239565e-03 1.2312401e-01 -2.0048438e-01 
-5.6785879e+00 -7.2261229e+00 7.9984844e-01 
-1.5755184e-01 1.4038152e-01 -7.9082400e-02 
-3.6425609e-02 7.9128901e-03 1.4541714e-02 
8.6539717e+00 1.0001873e+01 -1.8109280e+00 
-1.6826391e+00 1.3790368e-02 -4.4070700e-01 
-5.8709830e-02 5.1445179e-03 3.1962462e-03 
-6.4351692e+00 -9.6436176e+00 2.1048715e+00 
-9.4027176e+00 -1.2406297e+01 1.6690348e+00 
-2.0203279e+01 -2.6785276e+01 5.4983468e+00 
-7.0144057e-02 3.8038064e-02 -4.6706859e-02 
1.4145886e+01 1.1395000e+01 3.0138540e-01 
-6.0230261e-01 2.7989694e-01 -1.6455947e-01 
1.8743481e+01 1.6285582e+01 -9.4007474e-01 
-4.3086652e-02 7.4053749e-02 -4.9073745e-02 
5.7160625e+00 5.4087934e+00 1.4672416e-01 
-5.5378747e+00 -4.7021604e+00 -1.0610007e-01 
2.0750780e+00 2.8127546e+00 -1.2737215e-01 
-8.1121521e+00 -1.1214197e+01 2.4596426e+00 
1.9455258e+00 3.4816334e+00 -2.7371666e-01 
1.2432164e+00 2.7951071e+00 -3.9908937e-01 
2.1072874e+00 3.5541680e+00 -2.3473196e-01 
-5.5355449e+00 -6.1036177e+00 3.0022353e-01 
2.3052311e+00 3.6378651e+00 -2.1570329e-01 
-1.2683560e-01 1.6401172e-01 -1.8800499e-01 
1.5724339e+01 1.3980186e+01 -1.4814832e+00 
-4.7534180e+00 -3.1689043e+00 -3.7049231e-01 
-2.7217948e+00 -8.3233714e-01 -6.4354968e-01 
-1.9002901e-01 6.7069031e-02 -7.3378816e-02 
-3.0789426e-01 1.9656417e-01 -3.8154328e-01 
8.0815214e-01 2.2933812e-01 8.0199204e-03 
-4.6474847e-01 9.1996901e-03 -1.4099884e-01 
-3.0978864e-01 3.0727479e-01 2.8981965e-02 
6.3164262e-03 3.2158628e-02 -3.0219901e-02 
-3.3276096e-02 -3.0600384e-02 -1.1470702e-01 
-6.8308957e-02 5.3953087e-01 -1.0088266e-01 
1.1493571e+01 1.1302164e+01 -1.7044053e+00 
-1.1200630e-01 2.0346564e-01 -3.1170937e-01 
6.3375959e+00 6.8505063e+00 -4.7887713e-02 
-5.0323868e+00 -5.1080499e+00 2.0996241e-01 
-1.9589561e+00 4.4400520e+00 -1.5420840e+00 
6.7579231e+00 7.6818833e+00 -1.2071027e+00 
-7.2495207e-02 -1.1108983e-01 -8.9745708e-02 
-4.2892151e+00 -5.0788560e+00 4.7022799e-01 
-5.2844620e+00 -6.4771810e+00 7.5879288e-01 
-6.3284783e+00 -9.3099527e+00 1.9509138e+00 
-4.1844268e+00 -5.2993674e+00 8.5673791e-01 
-6.4559879e+00 -8.0924931e+00 1.2321119e+00 
-7.8487415e+00 -9.7976465e+00 1.7124546e+00 
2.0145273e+00 3.5057497e+00 -1.8036923e-01 
2.1807866e+00 3.4171784e+00 -1.2226824e-01 
6.5456996e+00 5.6967463e+00 1.6549830e-01 
-7.2905257e-02 -3.1364881e-02 -1.8875478e-01 
2.6203980e+00 3.6668563e+00 -1.1858242e-01 
1.8132678e+00 3.7303162e+00 -3.7065533e-01 
6.9643226e+00 5.3957877e+00 -1.8826339e-01 
-4.0095596e+00 -1.7824115e+00 -6.5305543e-01 
-4.3948002e+00 -3.2895074e+00 -2.9669845e-01 
-3.4599898e+00 -3.0064192e+00 -1.0533185e-01 
-7.0167055e+00 -9.1523523e+00 1.9101857e+00 
9.7295120e-03 5.0047323e-02 -9.6083157e-02 
-1.3069196e-01 1.8785556e-01 -1.8460438e-01 
6.9459581e+00 5.7952471e+00 -3.6719090e-01 
4.1924686e+00 3.0417066e+00 1.6862001e-01 
-4.9256048e+00 -6.3227792e+00 1.1174523e+00 
-3.0942389e-01 3.3866975e-01 -2.4943624e-01 
-5.0179248e+00 -6.9605289e+00 1.4303998e+00 
-1.0916368e-01 9.6577592e-02 -2.1159475e-01 
-2.0508571e-02 5.9282936e-02 -4.4970788e-02 
-1.0434012e-02 -2.8270090e-02 5.9902672e-02 
-6.7327291e-02 2.1522122e-02 -1.1384304e-01 
4.4609413e+00 3.6796427e+00 -7.1840107e-02 
3.9822608e-03 4.1270163e-02 -7.4630104e-02 
-4.9195590e+00 -6.2564101e+00 1.2336532e+00 
6.5253706e+00 5.8889513e+00 -8.1662863e-01 
-2.4576971e-02 2.1639578e-01 -1.9558169e-01 
2.7249653e+00 2.0128295e+00 -2.9308423e-01 
-6.5767877e-02 2.2059749e-01 -3.9393774e-01 
4.7048850e+00 3.7945340e+00 -3.0780914e-01 
7.6897359e+00 8.1995420e+00 -1.3605852e+00 
-2.9085329e-01 2.7709484e-01 -3.0763811e-01 
-6.8940654e+00 -7.4749908e+00 5.7625878e-01 
-9.4097227e-02 2.3009792e-02 -8.1912421e-02 
-2.5835821e-01 -7.2811730e-02 -1.6196609e-01 
-2.0435702e-02 -1.5278042e-02 -9.5647149e-02 
-1.1240797e-01 -3.9955400e-02 -1.7202735e-01 
4.7072244e+00 4.3275094e+00 -5.9543389e-01 
-1.7269865e-01 3.4752116e-01 -2.8286895e-01 
3.5020549e+00 3.6724694e+00 7.0435673e-02 
-5.7193246e+00 -5.4000173e+00 1.0066998e-01 
-1.1597992e-01 1.4842613e-01 -3.9955458e-01 
2.0017722e+00 4.6526313e+00 -5.3370333e-01 
2.2344036e+00 3.7619631e+00 -2.7123213e-01 
-3.9413979e+00 -8.5486215e-01 -8.0031008e-01 
1.5945754e+00 2.7772126e+00 -1.7348771e-01 
2.4992127e+00 3.7439241e+00 -1.7398335e-01 
5.7707067e+00 5.3980145e+00 1.6849178e-01 
2.8859739e+00 3.7925262e+00 -1.3990355e-01 
-2.3578194e-01 1.5098453e-01 -4.5117325e-01 
-5.0829916e+00 -5.9578710e+00 6.3448292e-01 
-3.7727950e+00 -2.4321830e+00 -3.5380143e-01 
-4.1485171e+00 -3.3329375e+00 -1.5083840e-01 
-4.6804729e+00 -5.6207314e+00 7.1827364e-01 
-3.7607275e-02 -1.5595173e-02 -1.1237359e-01 
-4.7689915e+00 -5.8903556e+00 7.9819822e-01 
4.3251696e+00 3.2993257e+00 1.7071864e-01 
-4.9952331e+00 -6.0107236e+00 9.2280912e-01 
4.0884361e+00 2.9420669e+00 8.7507896e-02 
-1.3146907e-01 -5.0228830e-02 -3.2773599e-01 
-1.6716329e-02 2.6856109e-02 -1.0767525e-01 
4.3527985e+00 3.3691745e+00 6.2037848e-02 
-3.6993500e-02 9.1896512e-02 -3.1013504e-01 
-4.9389834e+00 -6.0031676e+00 9.5649207e-01 
-8.1024160e+00 -1.1602759e+01 2.2655053e+00 
4.3974452e+00 3.5344396e+00 -1.7480712e-01 
-4.5366039e+00 -5.7713327e+00 1.1242521e+00 
4.7566419e+00 3.8508945e+00 -2.7901527e-01 
-2.9278686e-02 2.9287113e-02 -3.9565679e-02 
-5.1578546e+00 -6.4746356e+00 1.1438314e+00 
-4.9198732e-02 9.7664312e-02 -4.0406302e-01 
-1.4332673e-01 4.4202749e-02 -2.9119331e-01 
4.6613331e+00 3.8857121e+00 -3.8479784e-01 
-5.9746032e+00 -7.9385238e+00 1.5880529e+00 
-8.0872707e-02 -2.4136852e-02 -4.0395655e-02 
4.9380360e+00 4.4643340e+00 -5.6430274e-01 
-2.1599413e-01 2.2644255e-01 -2.4962717e-01 
7.6727562e+00 8.4149113e+00 -1.6874002e+00 
3.1908578e-01 -6.7749035e-01 1.2967040e-01 
-2.9261953e-01 1.4907271e-01 -2.3049745e-01 
5.3845859e+00 5.1755471e+00 -8.6907452e-01 
-4.0558763e-02 1.3846993e-01 -2.4452761e-01 
-1.0594598e-01 -6.3092537e-02 -4.1777145e-02 
-1.1776847e-01 1.3258791e-01 -1.6061956e-01 
-1.7239353e-01 1.4511441e-01 -1.7839620e-01 
-2.1580002e-01 2.0256571e-01 -5.4433495e-01 
-1.4915928e-01 2.3833238e-01 -2.4887206e-01 
-1.8825619e+00 5.1524367e+00 -1.4530573e+00 
-4.1028891e+00 -1.6757432e+00 -6.0779136e-01 
3.3349800e+00 6.2583461e+00 -5.4074234e-01 
2.5540695e+00 4.0126028e+00 -1.7265673e-01 
-3.5652468e+00 -2.5785279e+00 -2.3700079e-01 
2.8552151e+00 3.9098134e+00 -7.3590837e-02 
-4.1707711e+00 -3.4545784e+00 -4.4228312e-02 
3.3809090e+00 3.7637174e+00 2.0134706e-02 
-2.8395698e+00 -2.6963539e+00 5.3354140e-02 
4.7127366e+00 4.4472933e+00 8.6842068e-02 
-5.5218110e+00 -5.5867310e+00 2.9867685e-01 
4.3893943e+00 3.5777938e+00 1.7362228e-01 
-5.0764790e+00 -5.5818877e+00 3.2167667e-01 
3.7801809e+00 2.6707289e+00 1.1522114e-01 
-4.0911393e+00 -4.8727841e+00 6.4241260e-01 
-1.9231254e-01 6.0953610e-02 -2.4581181e-01 
5.3033056e-03 -4.4320185e-02 -1.3096753e-01 
3.9060123e+00 2.8652129e+00 2.7669352e-02 
-4.1329761e+00 -4.9839177e+00 7.2304422e-01 
4.0639977e+00 3.0892303e+00 -2.2478202e-02 
-4.2857537e+00 -5.1887932e+00 7.9383212e-01 
4.2507949e+00 3.2850237e+00 -1.4039327e-01 
-4.4482126e+00 -5.2604389e+00 9.1223347e-01 
9.0710307e-03 1.8104743e-02 -5.0512083e-02 
-1.5490574e-01 -6.0657156e-03 -2.9277045e-01 
-6.5404326e-02 4.6252932e-02 -2.9258999e-01 
4.3899240e+00 3.4417734e+00 -2.4894783e-01 
-4.4605122e+00 -5.4899588e+00 9.9780297e-01 
4.5827751e+00 3.7570848e+00 -3.5024187e-01 
-4.7583866e+00 -5.7874303e+00 1.0104711e+00 
4.6624947e+00 4.0102735e+00 -5.4302496e-01 
-4.8136802e+00 -5.9937139e+00 1.0462357e+00 
-2.2096558e-01 2.1143341e-01 -4.3973094e-01 
-1.7433781e-02 7.3757142e-02 -1.6787827e-01 
-1.1654042e-01 2.1300271e-01 -5.0506610e-01 
-2.9231191e-01 5.2716516e-02 -4.8614761e-01 
-7.3909839e-03 4.0685046e-03 -5.5702161e-03 
5.5990357e+00 5.3501034e+00 -8.2504976e-01 
-6.1195512e+00 -8.1219025e+00 1.4509677e+00 
-2.5148997e-01 6.6308469e-02 -3.3780682e-01 
-3.5601008e-01 1.4875051e-01 -3.7044859e-01 
6.3674464e+00 7.0846028e+00 -1.2043674e+00 
-6.4548607e+00 -9.3252230e+00 1.6588025e+00 
1.7872747e+00 2.9095914e+00 -1.1663038e-01 
-1.3901356e-01 3.2220143e-01 -4.1646248e-01 
-2.5064796e-01 -1.4267051e-02 -3.3525133e-01 
1.6753317e+00 3.2355089e+00 -2.0827722e-02 
2.0654957e+00 2.6038585e+00 -1.6666004e-02 
2.9199710e-01 -2.3838782e-01 3.6335964e-02 
-3.7600331e+00 -2.3403156e+00 -3.2274023e-01 
-4.0103230e+00 -3.0472400e+00 -1.3184005e-01 
2.6921386e-02 7.1093723e-02 -8.7761000e-02 
-3.7962110e+00 -6.8011951e-01 -7.4351287e-01 
-5.7501681e-03 4.2808283e-02 -8.0559604e-02 
-1.5511720e-01 1.4855382e-01 -7.4823803e-01 
4.2457762e+00 3.0800769e+00 1.3562296e-01 
2.8474574e+00 4.1811295e+00 -1.9035888e-01 
4.0272698e+00 2.7674108e+00 1.5511963e-01 
4.2174778e+00 3.0998533e+00 -2.6118046e-02 
5.4934416e+00 4.9069576e+00 1.2199288e-01 
-4.8118982e+00 -5.3735461e+00 4.8950118e-01 
4.2135234e+00 3.1657879e+00 -1.0099415e-01 
3.7998955e+00 3.9266090e+00 2.2224965e-02 
-5.5598679e+00 -4.9207535e+00 -9.0250418e-02 
-4.3776374e+00 -5.1116343e+00 6.1206377e-01 
1.0143610e+00 2.6137764e+00 -2.7414262e-01 
4.4925714e+00 3.5101459e+00 -3.5182318e-01 
-2.4226125e-02 5.0654430e-03 -2.1988814e-01 
-3.9665096e+00 -4.6938677e+00 6.9038022e-01 
2.1250482e+00 3.6365788e+00 -2.2354701e-01 
-3.9193850e-02 -4.2939526e-03 -6.3392110e-02 
1.0177938e-02 1.9995356e-02 -1.3985357e-01 
4.5328135e+00 3.5369430e+00 -3.3091760e-01 
-4.5093617e+00 -5.2114873e+00 7.4400711e-01 
4.6822600e+00 3.9978809e+00 -6.2039024e-01 
-4.8438816e+00 -5.7212882e+00 9.3284678e-01 
-5.7468910e-02 8.3063290e-02 -1.8303698e-01 
-1.2830813e-01 1.7311142e-01 -3.5679048e-01 
-2.9834431e-01 9.4058193e-02 -6.4259416e-01 
-6.4890318e+00 -6.6963162e+00 4.5715269e-01 
-4.7674236e+00 -5.8608699e+00 1.0590225e+00 
5.1954794e+00 4.6812606e+00 -7.4797267e-01 
-1.6885595e-01 -2.8875371e-02 -4.6708152e-01 
-4.8347759e+00 -5.8249516e+00 8.1381160e-01 
-5.4528128e-02 2.0234173e-02 -1.9590747e-01 
-5.6379843e+00 -7.2446370e+00 1.2031626e+00 
-1.0162507e-01 1.7788221e-01 -4.5891067e-01 
-1.8372023e-02 5.1873755e-02 -1.6992640e-01 
-2.4977545e-01 4.1310746e-02 -5.1927501e-01 
6.9063525e+00 7.1485481e+00 -1.0948044e+00 
-3.9580140e+00 -2.6676252e+00 -3.0647504e-01 
2.4971089e+00 3.2345636e+00 -3.9857492e-02 
-3.0920780e+00 -2.4519112e+00 -4.4673987e-02 
2.1162415e+00 3.3396404e+00 -2.0602185e-01 
-1.8563801e-02 2.7382853e-02 -1.1644710e-01 
1.7544487e+00 3.5167527e+00 -3.8210595e-01 
-3.6230981e+00 -1.3583626e+00 -5.4550773e-01 
3.9083724e+00 2.6793203e+00 1.2918857e-01 
-2.9684374e-01 1.9794432e-02 -3.5681310e-01 
2.9620337e-01 -7.4000716e-01 1.3724340e-01 
-1.7035104e-01 2.7136040e-01 -4.0043178e-01 
4.1325545e+00 2.9731576e+00 3.1859554e-02 
-7.5296168e+00 -1.0548905e+01 1.7670227e+00 
6.0317059e+00 4.9157505e+00 4.0188991e-02 
6.3015990e+00 4.3970909e+00 1.5344231e-01 
4.2869148e+00 3.3361857e+00 -2.2845250e-01 
-3.7375185e+00 -4.3772688e+00 6.8032289e-01 
-9.1596700e-02 -4.2040814e-02 -6.4647102e-01 
-1.9505184e+00 4.0519538e+00 -1.1821084e+00 
2.2888296e+00 3.3255346e+00 -6.2811941e-02 
4.5181665e+00 3.9798968e+00 -7.7872032e-01 
-8.6886063e-02 2.0846565e-01 -6.3887542e-01 
6.0730824e+00 4.5327911e+00 -2.3309048e-01 
-3.6878710e+00 -4.2266459e+00 6.2921572e-01 
-1.1670526e-01 5.4116562e-02 -2.8680709e-01 
-3.2217667e-02 1.0005689e-02 -1.3098542e-01 
2.4747362e-03 -5.3258672e-02 -9.9283345e-02 
1.9178146e+00 3.1862783e+00 -1.2681107e-01 
5.3797975e+00 5.3101320e+00 1.3841242e-01 
-4.6543574e+00 -4.1525965e+00 5.7005089e-02 
-8.1539728e-02 1.2515220e-01 -4.2802733e-01 
-3.9524536e+00 -4.2275133e+00 5.2413088e-01 
5.8153915e+00 4.6623015e+00 -6.0235840e-01 
-5.6881266e+00 -6.3632340e+00 7.0020586e-01 
-1.9461749e-02 2.0820493e-01 -5.6134003e-01 
-2.9493374e-01 1.2946875e-01 -7.4065155e-01 
-4.3750911e+00 -5.3158450e+00 8.0787313e-01 
-4.5351562e+00 -3.4227285e+00 -1.6797133e-01 
-6.6041570e+00 -7.7282147e+00 1.3128666e+00 
6.6021895e+00 6.4024172e+00 -1.1167166e+00 
-2.3299758e+00 -5.7107663e-01 -2.8464577e-01 
-9.0711646e-02 8.4653653e-02 -5.4615170e-01 
-3.8108599e+00 -2.2233126e+00 -3.8503200e-01 
-6.5455008e+00 -7.8105063e+00 1.2125998e+00 
-7.7087423e-03 9.9393297e-03 3.5706614e-03 
2.3972497e+00 3.0103481e+00 1.9024629e-02 
-5.4374304e+00 -6.6804180e+00 1.0366197e+00 
2.0401387e+00 3.1455991e+00 -8.3380789e-02 
-6.2978543e-02 4.0773977e-02 -5.9042186e-01 
-1.3505888e-01 3.3347008e-01 -5.4053134e-01 
1.7370273e+00 3.4266632e+00 -1.5648223e-01 
6.5032048e-03 5.2879598e-02 -4.0187186e-01 
-3.1165043e-01 1.9931531e-02 -8.1742632e-01 
-4.4758208e-02 -9.2431912e-03 -2.1574745e-01 
-7.8433007e-02 3.5608184e-02 -5.6390351e-01 
-4.9876618e+00 -4.8016505e+00 1.8817776e-01 
-5.0187107e-02 -4.2056963e-02 -3.0214760e-01 
-4.4463944e+00 -5.9329915e+00 1.0400571e+00 
-1.2414411e-01 -1.2949592e-02 -1.7118607e-01 
5.1907163e+00 4.3539820e+00 2.5194171e-01 
1.8753173e+00 8.6005050e-01 -1.7431891e-01 
-1.1643145e-01 1.6194507e-01 -4.1709864e-01 
2.0885777e+00 2.9898231e+00 -2.9459005e-02 
-1.1170366e-01 6.4892848e-03 -2.9070339e-01 
-5.5582471e-02 7.0386901e-02 -9.2291594e-02 
1.2646599e+01 8.8854208e+00 5.2657318e-01 
1.7946435e+00 3.0885224e+00 -2.4536584e-01 
-3.0886328e-02 9.7589634e-02 -1.5476534e-01 
1.0152680e+00 2.5651536e+00 -2.4093190e-01 
-7.7642448e-02 -6.4693734e-02 -1.0896838e-01 
-9.2085190e-02 1.1844309e-01 -3.6351302e-01 
1.6176697e+01 1.1571484e+01 -3.8020790e-01 
9.7838163e+00 8.2347927e+00 -1.0272231e+00 
-5.3283191e+00 -7.6253233e+00 1.1875476e+00 
-6.0632634e+00 -5.0153446e+00 2.1599619e-02 
3.8194077e+00 3.9006293e+00 5.8210071e-02 
1.2920505e+01 9.9717875e+00 -1.2491764e+00 
-2.2296646e+00 4.0810555e-02 -5.1869911e-01 
-3.0876045e+00 -1.4120301e+00 -3.1751278e-01 
-8.2488070e+00 -8.9130421e+00 7.7890486e-01 
-4.8901463e+00 -3.2721016e+00 -4.4229734e-01 
-1.3983797e+01 -1.5814855e+01 2.1601663e+00 
5.3050113e+00 5.3671384e+00 -8.8876015e-01 
-2.8379658e-01 -1.1707476e-01 -3.9658251e-01 
-3.1305450e-01 2.6952443e-01 -7.1125478e-01 
2.3304703e+00 2.8965206e+00 1.3001185e-02 
-8.3356000e-02 9.1728382e-03 -2.1228030e-01 
1.9014612e+00 2.9656613e+00 -7.9474777e-02 
1.6911819e+00 3.3453994e+00 -3.2473359e-01 
-1.1538615e+01 -1.3999878e+01 1.8104739e+00 
-6.5259494e-02 2.3547605e-01 -4.3140110e-01 
-5.7185545e+00 -7.3570542e+00 8.7749696e-01 
6.1678753e+00 5.0498986e+00 2.8423607e-01 
-4.5738759e+00 -4.3592176e+00 3.8714242e-01 
-7.2321929e-02 -7.2779186e-02 -3.7525192e-01 
-2.5606886e-02 -1.1198807e-01 -3.6432195e-01 
-1.6588174e-02 -5.4825682e-02 -2.3432299e-02 
-4.8276490e-01 5.0628483e-01 -1.2449611e+00 
-1.2843281e-01 -7.7116802e-02 -2.6311281e-01 
5.0574046e-01 -3.8217083e-01 3.5595447e-02 
-1.3065180e+01 -1.5298197e+01 2.0981622e+00 
-1.3572279e-01 1.0205454e-01 -7.7340782e-01 
-5.6388685e-03 1.8229872e-02 -2.3589049e-01 
1.9921846e+00 2.8671231e+00 -1.0613958e-01 
1.7604094e+00 2.9141548e+00 -7.3155917e-02 
-4.3685596e-02 -1.3648381e-02 -2.9567969e-01 
-2.0147520e-01 -9.5554806e-02 -4.7574073e-01 
-2.2684541e-02 3.1785067e-02 -1.1821178e-01 
-1.0169081e-01 1.7590015e-01 -6.2113708e-01 
-3.5331841e+00 -1.9964350e+00 -2.9827532e-01 
-2.6530445e+00 -4.7351640e-01 -5.2811021e-01 
-4.3499789e+00 -3.0852075e+00 -1.3510934e-01 
-1.1034728e-01 -3.5681147e-02 -3.1590480e-01 
-7.6652563e-01 4.1514878e+00 -9.3236059e-01 
6.7195458e+00 6.5258393e+00 -1.1426529e+00 
-3.9711227e+00 -3.3043914e+00 7.9742029e-02 
3.7090304e+00 3.7326393e+00 6.9919728e-02 
-4.7334824e+00 -6.7907543e+00 1.0976920e+00 
6.1277604e+00 4.2665968e+00 1.5138319e-01 
-2.9676052e-02 1.3267585e-02 -3.5104251e-01 
-3.8347430e+00 -3.9403369e+00 4.6003637e-01 
-4.7786810e-02 -5.9003737e-02 -2.7949533e-01 
2.2446244e+00 2.7773113e+00 2.9730810e-02 
2.6123155e-02 -1.4476057e-02 -1.2151221e-01 
1.8874092e+00 2.8884053e+00 -5.8869395e-02 
1.6717116e+00 3.3181393e+00 -1.4282270e-01 
9.4435091e+00 7.8601551e+00 -1.2875607e+00 
-4.5057315e-02 -2.5078945e-03 -2.7147907e-01 
-7.3486400e+00 -9.5564785e+00 1.6295655e+00 
5.0716748e+00 4.2564178e+00 2.0308803e-01 
-4.2178450e+00 -3.8623610e+00 1.8741940e-01 
-5.7608705e-02 -5.9798490e-02 -5.7631367e-01 
-1.0399265e-01 1.1726492e-02 -5.7174808e-01 
7.3844695e-01 -9.9461205e-02 -2.8089378e-02 
-2.7346301e+00 -2.0214746e+00 -3.4363482e-02 
2.4916826e+01 1.7026012e+01 -8.1995261e-01 
-2.6412029e+00 -1.1258795e+00 -3.0258936e-01 
1.9564445e+00 2.7304218e+00 8.7133888e-03 
-3.5723383e+00 -2.2380581e+00 -3.2959715e-01 
-4.9384914e-02 4.4893213e-03 -2.1463872e-01 
1.7231556e+00 2.9208767e+00 -2.1107562e-01 
-3.3869618e-01 -1.1636376e-01 -5.1144379e-01 
-5.1213689e-02 4.8385199e-02 -2.7539384e-01 
-4.4440400e-02 -2.0846963e-02 -4.1125116e-01 
-1.2130798e+01 -1.3341815e+01 1.8306086e+00 
1.9985376e+01 1.4947064e+01 -2.0454733e+00 
-2.0928025e+00 5.2035622e-02 -4.6809039e-01 
-7.9280674e-02 7.1154416e-02 -2.3715548e-01 
9.5035481e-01 2.4302046e+00 -2.0412700e-01 
-8.0758609e-02 -3.5091938e-04 -6.8668813e-01 
-4.5988676e-01 1.0769329e-01 -1.1746525e+00 
-1.7146494e+01 -1.9034327e+01 2.1064129e+00 
5.3807573e+00 3.8029354e+00 2.6608959e-01 
5.5468369e+00 5.3646216e+00 -8.2773226e-01 
-4.2121997e+00 -6.1209898e+00 8.9071375e-01 
-3.7806971e+00 -3.1087513e+00 1.0450641e-01 
3.5369189e+00 3.5399497e+00 1.6166088e-01 
-1.8379970e-01 5.7289872e-02 -9.6576405e-01 
-1.8752573e-01 1.0242050e-01 -7.2116941e-01 
-3.5841389e+00 -3.5423455e+00 2.1941453e-01 
2.1748068e+00 2.6356528e+00 5.4750618e-02 
-1.0438134e-02 -4.5821223e-02 -1.8028320e-01 
1.7944477e+00 2.7743576e+00 -4.1471627e-02 
-1.0198150e-01 1.9821040e-02 -4.1510257e-01 
1.6295602e+00 3.2395523e+00 -2.9646519e-01 
5.9318223e+00 4.8032680e+00 -7.1618772e-01 
-1.1203621e-01 -1.4948701e-02 -1.4551641e-01 
-1.0717909e-02 4.4547383e-02 -2.7867371e-01 
-2.0638783e+00 -3.0806273e-01 -4.5927837e-01 
-3.2145090e+00 -1.7663782e+00 -2.4495603e-01 
-2.4092321e-03 -7.9642601e-02 -8.9828961e-02 
-4.1498108e+00 -2.8266406e+00 -9.9677846e-02 
5.0040326e+00 4.1495519e+00 1.3030376e-01 
-4.2179546e+00 -3.8495088e+00 1.8413141e-01 
-4.2153697e+00 -5.6179128e+00 7.4270964e-01 
1.8761929e+00 2.6350799e+00 -4.7292374e-02 
7.0650893e-01 -1.6212413e-01 -2.5843818e-02 
1.6810845e+00 2.8476195e+00 -1.3071030e-01 
-7.1855307e-02 5.6377403e-02 -2.8035188e-01 
-5.5658370e-03 1.5251064e-02 -1.6837269e-01 
-2.2252893e-01 -5.0365064e-02 -1.3248924e+00 
-3.0553037e-01 1.9695374e-01 -7.5131291e-01 
-8.5065961e-02 -1.8153846e-02 -6.9456601e-01 
-6.1992217e-02 3.8426016e-02 -4.8523256e-01 
-7.5615915e-03 7.5753003e-02 -3.2948574e-01 
-2.3069697e-02 7.4874461e-02 -3.7648124e-01 
-1.8574360e+01 -2.2397322e+01 2.9603970e+00 
-1.4866835e+00 3.8696773e+00 -9.7021991e-01 
5.4465275e+00 5.0999169e+00 -7.8637177e-01 
-3.5455725e+00 -5.2389035e+00 7.2033823e-01 
1.6763487e+00 2.0984626e+00 5.5353615e-02 
1.6875967e+00 2.5808210e+00 -5.9863996e-02 
-7.0486315e-02 2.1785682e-02 -3.2533008e-01 
-3.5584149e+00 -2.8207843e+00 1.6760120e-02 
3.6951635e+00 3.6925070e+00 1.8731865e-01 
8.6728230e+00 5.7975702e+00 2.5569704e-01 
-5.3233399e+00 -5.2908807e+00 4.5173994e-01 
4.4936489e-02 -8.9063086e-02 -1.4908010e-01 
1.4892632e+00 3.0040212e+00 -1.3858773e-01 
-2.9806662e+00 -8.4058756e-01 -4.2572066e-01 
-3.2471337e+00 -1.9588958e+00 -3.0847174e-01 
-2.6563108e+00 -1.7905767e+00 -1.9022383e-01 
-1.1168613e-01 1.2196565e-01 -3.7829626e-01 
8.2155132e+00 6.4796910e+00 -9.5552236e-01 
-3.9699681e+00 -5.2160025e+00 6.7811590e-01 
-2.0370306e-02 3.3877764e-02 -8.4715255e-02 
-5.6937438e-01 2.2325240e-01 -1.7554636e+00 
1.7883968e+00 2.5045180e+00 1.9217450e-02 
-5.6568526e-02 2.5910307e-02 -2.6015601e-01 
1.5404315e+00 2.5767214e+00 -5.7921391e-02 
-1.1243781e-01 -7.3667079e-02 -6.5965813e-01 
-2.3260755e-02 -2.1848358e-02 -1.0557262e-01 
-3.3608783e-02 7.2747067e-02 -1.3641238e+00 
-8.5298747e-02 1.1367086e-02 -5.1648837e-01 
6.6936857e-01 -2.1597154e-01 -3.1587832e-02 
4.9738150e+00 4.0065775e+00 4.2302266e-01 
-3.7921336e+00 -3.3755198e+00 1.7178738e-01 
2.8106371e-02 2.8384868e-02 -6.8819046e-02 
-9.0562500e-02 -3.7761223e-02 -8.9797914e-01 
-2.4589833e-02 -3.2553241e-02 -1.0917318e-01 
-1.4627510e+01 -1.5949619e+01 1.5920167e+00 
-1.1839205e-01 2.1955419e-02 -2.9121003e-01 
2.1333931e+01 1.4968517e+01 -1.1972876e+00 
-1.6761889e+01 -1.8698011e+01 1.8858036e+00 
-1.4251034e-02 6.7094445e-02 -4.8539191e-01 
8.4286368e-01 2.2658136e+00 -1.3613483e-01 
1.9808174e+00 2.3821740e+00 5.6382369e-02 
1.6627228e+00 2.5250692e+00 1.4725282e-02 
1.7537815e-02 3.8000026e-03 -1.1763702e-01 
1.0765369e+00 1.9574480e+00 -8.9193180e-02 
4.9031029e+00 4.5291014e+00 -7.0899719e-01 
-3.6273122e+00 -5.3885679e+00 7.1505219e-01 
-3.9118521e+00 -3.8746121e+00 4.5801696e-01 
-2.6426370e+00 -1.3475235e-01 -5.4932755e-01 
-2.9162521e+00 -1.3948275e+00 -3.0918676e-01 
-4.0302892e+00 -3.0247605e+00 4.5729645e-02 
3.1774654e+00 3.0957987e+00 1.0378768e-01 
-3.2278657e+00 -2.1335704e+00 -1.1240236e-01 
-1.0743193e-01 6.0496625e-02 -8.2517463e-01 
5.2765555e+00 3.3870850e+00 3.3372179e-01 
-2.2086035e-02 6.5279431e-03 -1.3868038e-01 
1.9283339e+01 1.2396272e+01 1.8660522e-01 
5.1773753e+00 3.9835846e+00 -6.3930738e-01 
-7.9811774e-02 -3.6908571e-02 -2.4888583e-01 
-4.4801834e-01 -1.3325208e-01 -9.3641877e-01 
1.7665664e+00 2.4334633e+00 -1.1560462e-02 
-3.0558181e-01 2.1595670e-02 -1.0190001e+00 
1.5877420e+00 2.7124317e+00 -9.4809279e-02 
-5.7660437e+00 -7.4869113e+00 9.8972064e-01 
-2.4665659e-02 1.4366229e-02 -2.5924990e-01 
5.8799028e-01 1.4023927e+00 -1.1280926e-01 
-1.2452891e-01 1.4081892e-02 -4.3501061e-01 
6.3672078e-01 -2.7027273e-01 -3.5023004e-02 
4.6086049e+00 3.7189460e+00 1.5151654e-01 
-2.9973218e-01 -5.7554066e-02 -1.0992991e+00 
-3.7089357e+00 -3.2150850e+00 2.5869435e-01 
-4.6708725e-02 5.9693482e-02 -3.6913022e-01 
-8.8859715e-02 -1.1073551e-03 -4.6454179e-01 
-2.2396676e-01 6.2657714e-02 -1.1217583e+00 
8.9208388e-01 1.6093235e+00 -5.9346907e-02 
1.9122728e+00 2.3073447e+00 9.0808302e-02 
-1.3059846e-01 1.2990245e-01 -9.5835894e-01 
-7.0530167e-03 -3.1072434e-02 -7.8631818e-02 
-2.7367756e+00 -6.8296242e-01 -4.0071949e-01 
1.8941362e+00 2.9688375e+00 -8.4147945e-02 
-1.1220447e+01 -1.3738489e+01 2.1646230e+00 
-2.8068945e+00 -1.5886426e+00 -2.2982138e-01 
1.4335183e-02 -4.2435564e-02 -6.0266423e-01 
-3.2213569e+00 -2.1655238e+00 -1.6843483e-01 
4.7230515e+00 4.2484899e+00 -6.9409215e-01 
-3.9637902e-01 3.0349001e-01 -1.8091940e+00 
-1.6776154e+00 2.5890262e+00 -7.8232712e-01 
-3.2778087e+00 -4.9249516e+00 6.1104244e-01 
-4.6888147e-02 4.8338335e-02 -4.9071893e-01 
-2.6246562e+00 -2.0132835e+00 5.9996307e-02 
3.0325682e+00 2.8753891e+00 2.7647611e-01 
6.2603817e+00 4.2098432e+00 6.9667682e-02 
-5.4782629e+00 -5.3705435e+00 5.0288671e-01 
-2.1203894e-02 -4.0828038e-02 -2.1450427e-01 
1.7281675e+00 2.4006217e+00 4.8562400e-02 
8.2502735e-01 1.8910751e+00 -1.1342412e-01 
-3.5709178e+00 -4.7942019e+00 5.5978715e-01 
7.1621733e+00 5.3523822e+00 -7.3990315e-01 
-8.9953646e-02 -6.7747109e-02 -5.6547976e-01 
-6.5957159e-02 -2.3943510e-02 -2.7294552e-01 
-2.1311264e-02 1.9737603e-02 -1.6691268e-03 
-5.2496132e-02 -5.2882981e-02 -3.2667646e-01 
5.9539318e-01 -3.1326678e-01 -4.5488432e-02 
2.0881231e+00 3.6255045e+00 -1.5486217e-01 
-4.4342097e-02 -5.6333899e-02 -2.7760944e-01 
4.0551682e+00 3.2211483e+00 3.5774410e-01 
-3.3719718e+00 -2.8641298e+00 1.3349345e-01 
-4.2195257e-02 3.6649898e-02 -5.4275739e-01 
-2.4495802e+00 -1.1199267e+00 -2.7507052e-01 
-1.3411969e-01 -1.2514879e-01 -8.1168193e-01 
-2.9561381e+00 -1.8163046e+00 -8.0546677e-02 
1.6847086e+01 1.0631511e+01 -6.7721866e-02 
-1.6977802e+01 -1.8023169e+01 2.8555510e+00 
-4.7477078e-02 2.7791806e-02 -2.6292819e-01 
1.6567860e+01 1.1355312e+01 -2.1827605e+00 
1.8255407e+00 2.2075818e+00 6.3846298e-02 
-4.0545394e-03 -6.0075410e-03 -3.2761309e-02 
-1.2046682e+01 -1.3675956e+01 1.1350050e+00 
-2.3190548e+00 -3.5427473e-02 -4.8176178e-01 
-3.7760172e-02 2.6381658e-02 -2.0920399e-01 
1.6709934e+00 2.6263804e+00 3.1775672e-03 
4.0193054e-01 1.3525368e+00 -1.5216036e-01 
-6.3928746e-02 -1.1379460e-02 -1.3008391e+00 
-4.0378265e-02 1.0283558e-01 -5.5527675e-01 
4.2058334e+00 3.7152057e+00 -5.9799838e-01 
-3.1216080e+00 -4.7595906e+00 5.6283504e-01 
1.8173584e-04 2.1947518e-02 -4.0303192e-01 
-7.7863862e-03 1.3427942e-03 -9.3818590e-02 
-1.4402381e-01 -1.3396496e-01 -8.7279952e-01 
-1.8127611e-01 1.0288076e-02 -1.7606170e+00 
4.3894868e+00 2.9256718e+00 4.2032444e-01 
-3.4734828e+00 -3.3054512e+00 4.3105268e-01 
-4.4635043e-02 3.5719327e-03 -2.3135592e-01 
-3.6252792e+00 -2.6047447e+00 3.1339236e-02 
2.8245983e+00 2.7262800e+00 1.2206253e-01 
-7.1710721e-02 6.0219452e-02 -6.4493084e-01 
9.2970169e-01 2.0844038e+00 -1.6531469e-01 
1.6090363e+00 2.2517920e+00 -1.7837975e-02 
-2.0516939e-02 -1.7874917e-03 -3.1999189e-01 
4.4634414e+00 3.3052106e+00 -5.0891536e-01 
-3.1291571e-02 -1.1717926e-01 -3.1387985e-01 
-1.7172192e-01 -8.1888393e-02 -9.9815583e-01 
1.0104034e+00 1.6968424e+00 -1.1214128e-02 
-4.9292622e+00 -6.6006322e+00 8.5569489e-01 
-2.0768905e+00 -4.1991800e-01 -5.3968447e-01 
9.5182043e-03 -2.0485220e-02 -2.1871222e-02 
-2.4487355e+00 -1.3105252e+00 -2.1349609e-01 
-2.2599847e+00 -1.4517462e+00 -1.4920530e-01 
5.6280780e-01 -3.5774258e-01 -4.5361038e-02 
-2.5904139e-03 1.5529667e-01 -1.4849484e+00 
2.3067569e-02 -2.0701909e-02 -3.5952514e-01 
4.0520701e+00 3.2321260e+00 1.3865818e-01 
-3.2682621e+00 -2.7174141e+00 1.2503608e-01 
1.0736043e+00 1.9464802e+00 -5.8505416e-02 
1.7089092e+00 2.0348747e+00 1.3205720e-01 
-2.4804404e-02 -3.1456169e-02 -2.0106712e-01 
1.3503294e+00 2.0226204e+00 1.1407463e-02 
-3.1643014e-02 9.2255240e-03 -2.3597339e-01 
-6.7943990e-02 1.5966464e-02 -2.7578881e-01 
-3.4641333e-02 -2.9111406e-02 -1.9907323e-01 
-1.0022393e+01 -1.2175541e+01 1.2470493e+00 
4.0487876e+00 3.4571571e+00 -5.7400221e-01 
-1.8521369e-01 8.2434095e-02 -7.6447344e-01 
-2.7676787e+00 -4.2965074e+00 4.7097567e-01 
-1.8056849e-02 4.7871791e-02 -2.6818109e-01 
-2.4118323e+00 2.5395277e+00 -9.5776123e-01 
2.6808953e+00 2.5241303e+00 1.4615649e-01 
-3.3954003e+00 -2.3891296e+00 -3.7827700e-02 
1.5042113e+00 2.0830562e+00 7.2341926e-02 
7.1495765e-01 1.7543391e+00 -1.2102602e-01 
-3.2645337e-02 -2.4178314e-03 -1.5579034e-01 
-4.9928572e-02 1.8889720e-02 -3.4122238e-01 
1.1498179e+00 1.9629371e+00 -3.0707514e-02 
6.8486857e+00 4.3456445e+00 3.0832005e-01 
-4.8976369e+00 -4.6134892e+00 4.7932783e-01 
-8.6610079e-02 -5.7607424e-02 -6.3417321e-01 
-2.6686902e+00 -8.2294536e-01 -3.5460809e-01 
-2.6464562e+00 -1.5815614e+00 -7.5264655e-02 
-3.0662677e+00 -4.1826673e+00 3.8985747e-01 
6.1448917e+00 4.3742003e+00 -7.9215562e-01 
3.2274614e-03 5.0687198e-02 -4.5756730e-01 
5.2441806e-01 -3.9292067e-01 -5.5272076e-02 
-1.4876789e-01 -1.0939457e-01 -1.4045527e+00 
1.6107365e+00 1.9181854e+00 5.9103273e-02 
1.3149344e+00 2.0568247e+00 -7.2188698e-02 
-2.4270859e-02 1.6693911e-02 -2.5400320e-01 
1.0333796e+00 1.9248526e+00 -1.0263704e-01 
-3.0595329e-02 2.1540128e-02 -3.7630513e-01 
3.8253534e+00 3.0141466e+00 3.7629610e-01 
-2.9374244e+00 -2.3864739e+00 1.8953931e-01 
-4.3319103e-01 -3.4072388e-02 -1.4294118e+00 
-1.6227961e-02 -1.7386284e-02 -2.9457352e-01 
1.6076603e+01 1.0361856e+01 -9.2568427e-01 
-1.2719122e-01 1.8448008e-02 -1.1604230e+00 
-1.2302969e+01 -1.2729700e+01 1.5415305e+00 
-2.7719441e-01 -2.1380724e-02 -1.3851091e+00 
-1.3034592e+01 -1.4798061e+01 2.7398963e+00 
-7.4766693e-03 1.2398431e-01 -6.5045500e-01 
-2.1070691e-02 -1.2072952e-02 -4.0354472e-01 
3.5730882e+00 2.9949932e+00 -5.1127648e-01 
-2.6172168e+00 -4.1329112e+00 4.2947066e-01 
6.5161097e-03 -4.4618115e-02 -4.1998473e-01 
-2.4569410e-01 -1.1148922e-01 -1.5572450e+00 
-2.6760685e+00 -2.3440756e-01 -5.0975597e-01 
1.4013989e+00 1.9269217e+00 2.7288519e-02 
-2.2666018e+00 -1.1178312e+00 -2.1450530e-01 
1.1682850e+00 1.9573386e+00 -1.2987642e-02 
-3.0610182e+00 -2.7980525e+00 2.8376126e-01 
-2.6886897e+00 -1.6491938e+00 -6.0554612e-02 
-6.3890629e-02 1.1516399e-02 -4.1618484e-01 
8.2824379e-01 2.3032005e+00 -1.8239123e-01 
2.4975662e+00 2.3924472e+00 2.3034544e-01 
-2.1581070e+00 -1.5049685e+00 6.2110737e-02 
4.0102711e+00 2.5882833e+00 3.9113569e-01 
1.5777100e+01 9.4955273e+00 1.9109297e-01 
8.9348378e-03 -4.0992104e-02 -2.0403530e-01 
3.8145335e+00 2.6872420e+00 -4.5538330e-01 
-9.3363956e-02 -1.0972249e-01 -1.0850354e+00 
-4.2193198e+00 -5.7615089e+00 6.2849271e-01 
5.0930954e-03 -3.5802934e-03 -6.4836913e-01 
1.2439306e-02 -3.5361700e-02 -8.4741145e-02 
-4.2059489e-02 2.7499916e-03 -4.9232009e-01 
4.9279812e-01 -4.2791015e-01 -5.3002495e-02 
1.5068436e+00 1.7956098e+00 8.5549526e-02 
-1.2965852e-01 -2.3948196e-02 -8.2517767e-01 
1.2437191e+00 1.9173802e+00 4.1952062e-02 
-2.2943685e-02 -3.7123676e-02 -1.7915022e-01 
1.0526178e+00 2.0096893e+00 -7.2489113e-02 
5.1657683e-03 -1.8282583e-02 -1.1203624e-01 
-3.8179453e-02 -1.1118123e-02 -3.1107378e-01 
3.6239641e+00 2.8363452e+00 3.3201429e-01 
-2.8770676e+00 -2.2731836e+00 1.7419900e-01 
-2.4268962e-02 -3.9888479e-02 -2.8676510e-01 
-1.7193097e-01 -2.3684897e-01 -1.4190207e+00 
-8.6746607e+00 -1.0770551e+01 1.3556222e+00 
-2.3332705e+00 -6.1225522e-01 -3.6777812e-01 
-2.3308728e+00 -1.3246976e+00 -1.7746098e-01 
3.4316800e+00 2.7835879e+00 -4.6584788e-01 
-1.5097944e-02 6.5686386e-03 -2.3264498e-01 
-2.3202484e+00 -3.7329965e+00 3.6004087e-01 
1.3442147e+00 1.8407573e+00 7.0900746e-02 
1.0862650e+00 1.8567616e+00 -1.0325442e-02 
-1.4166667e-01 -8.4892690e-02 -1.0472156e+00 
-2.4752939e-01 4.5235515e-02 -1.1815325e+00 
5.9495968e-01 1.5032448e+00 -1.1113815e-01 
-2.1505029e+00 1.9489670e+00 -6.9296455e-01 
2.2987916e+00 2.2080934e+00 1.5178771e-01 
-2.9772220e+00 -1.9526628e+00 -8.2347840e-02 
5.3516893e+00 3.4229982e+00 6.8322949e-02 
-4.2482285e+00 -3.8937964e+00 2.4035150e-01 
-3.1285703e-01 5.0770696e-02 -1.1927099e+00 
-9.4255477e-02 -4.9341913e-02 -7.9933840e-01 
-2.6181550e+00 -3.6819849e+00 3.3798110e-01 
5.3583302e+00 3.5072029e+00 -4.3729845e-01 
-4.0088233e-01 -1.4924046e-03 -1.9246241e+00 
-4.4232965e-02 4.4267699e-02 -2.7327681e-01 
9.6157482e-03 -2.1551324e-02 -3.3283377e-01 
-3.1789061e-02 -6.7555271e-02 -1.2148903e-01 
1.4185654e+00 1.6601017e+00 1.4279279e-01 
-7.0221521e-02 -2.0474829e-02 -3.5742939e-01 
1.2228816e+00 1.9069655e+00 -1.5446814e-02 
-1.5144133e-02 -5.7545286e-03 -4.2063576e-01 
4.6156600e-01 -4.5852065e-01 -6.5763973e-02 
6.4335945e-03 -1.6512480e-02 -2.7767223e-01 
1.0652559e+00 2.1084132e+00 -1.5009011e-01 
-1.6365384e-01 9.7572096e-02 -1.1778342e+00 
-1.5593878e+00 -2.5329700e-01 -1.3099352e-01 
-1.8692271e+00 -8.7488550e-01 -1.6251157e-01 
3.3084724e+00 2.5993755e+00 4.1763440e-01 
-1.7955043e+00 -1.0631046e+00 -2.0389815e-03 
-2.5193596e+00 -1.9409387e+00 1.4020029e-01 
1.3062094e+01 7.9033117e+00 -2.1843681e-02 
8.4081417e-01 1.4887953e+00 -3.6199286e-03 
-1.1537527e+01 -1.2920620e+01 1.1595768e+00 
1.0743247e-02 6.4218313e-02 -5.7338279e-01 
-1.0676159e+01 -1.1062799e+01 1.6732044e+00 
1.3356433e+00 1.8899056e+00 7.4133672e-02 
4.8780710e-01 1.5766827e+00 -1.5676291e-01 
3.0694883e+00 2.3687503e+00 -3.9546263e-01 
-2.2161489e+00 -3.5889025e+00 2.7821228e-01 
-2.2975883e-02 4.7697105e-02 -1.9645725e-01 
3.0002479e-02 2.7994080e-02 -3.3262628e-01 
-1.5785195e-02 -2.4536438e-03 -1.2827401e-01 
-1.4608781e-01 -1.9573550e-01 -1.1737795e+00 
-2.6546993e+00 -2.3376608e+00 2.3117886e-01 
-4.5789726e-02 -5.2089097e-05 -8.0776078e-01 
2.1402397e+00 2.0337157e+00 2.4695586e-01 
-2.7114124e+00 -1.7557760e+00 8.1390344e-02 
-4.7035024e-02 -4.7501646e-02 -1.8509503e-01 
3.2482896e+00 2.1733646e+00 -4.5449871e-01 
3.4903407e+00 2.3023751e+00 3.4613279e-01 
-1.1981315e-02 -3.2913659e-02 -2.7323774e-01 
-1.6391344e-02 -8.9251287e-03 -7.8863525e-01 
1.2435655e+01 7.3075581e+00 -2.3064686e-01 
-1.5195746e+00 1.4089940e-01 -3.3003548e-01 
1.3372732e+00 1.6018922e+00 4.5363199e-02 
-1.3114744e-01 -3.9366283e-02 -5.6605953e-01 
-3.5677876e+00 -4.9932981e+00 4.7327942e-01 
1.4910450e+00 2.3853321e+00 1.4093968e-02 
-3.2764471e-01 -9.6481957e-02 -9.7753108e-01 
-1.6562990e+00 -5.9077144e-01 -2.1924943e-01 
4.2946517e-01 -4.8248798e-01 -7.3139727e-02 
-4.0458217e-03 -5.8785152e-02 -9.0190232e-01 
-2.0916638e+00 -1.0898068e+00 -1.3730316e-01 
9.6314365e-01 1.8428518e+00 -6.2353138e-02 
-4.0850166e-02 -3.7976243e-02 -2.6802552e-01 
-2.9176395e-02 -4.1381083e-02 -2.8308290e-01 
5.9854633e-01 1.4561237e+00 -1.3264561e-01 
1.5430388e-04 -2.0905811e-02 -2.8595579e-01 
3.0534451e+00 2.3810108e+00 3.0563173e-01 
-2.4604232e+00 -1.8664199e+00 1.6899733e-01 
-6.6922493e-02 -9.4682261e-02 -6.3986194e-01 
1.1801115e+00 1.6396601e+00 1.0764091e-01 
2.1948734e-02 -1.3364913e-03 -3.2667267e-01 
-7.3346729e+00 -9.2914724e+00 1.0043091e+00 
-1.2284708e-01 -1.0924057e-01 -7.9236394e-01 
2.8756669e+00 2.1779726e+00 -4.2717391e-01 
-1.9126068e+00 -3.2193985e+00 2.5979584e-01 
-5.1099338e-02 4.9910948e-02 -1.4646857e+00 
-1.6410829e-02 4.1050710e-02 -2.1629891e-01 
-7.1789908e-01 2.5871837e+00 -6.1744970e-01 
-2.6353521e-02 3.1179502e-03 -3.3676410e-01 
1.8453162e-02 1.9308209e-01 -5.9786022e-01 
2.2415459e+00 2.1978335e+00 1.6395248e-01 
-1.7201960e+00 -1.1329416e+00 -6.6202045e-03 
1.0129343e+00 1.2364205e+00 1.2064823e-01 
4.6115394e+00 2.7949729e+00 1.6069393e-01 
-3.7077034e+00 -3.2520916e+00 1.4041671e-01 
-1.5514798e+00 -1.1517084e-01 -3.2875904e-01 
8.8365567e-01 1.4012810e+00 2.8535951e-02 
7.7568288e-03 -6.1587565e-02 -2.4137551e-01 
-1.6722380e+00 -7.1868348e-01 -1.5849189e-01 
-1.5281183e-02 -6.2263466e-02 -5.2063435e-01 
7.8281546e-01 1.8383627e+00 -1.3120016e-01 
-2.1955686e+00 -3.1831212e+00 2.1757314e-01 
9.8009479e-01 1.7274960e+00 4.6259044e-03 
-2.1166558e+00 -1.1746467e+00 -5.8409024e-02 
4.4728503e+00 2.8005869e+00 -4.7308061e-01 
3.9858499e-01 -5.0096172e-01 -7.4785545e-02 
-3.8513470e-02 2.3430791e-02 -3.3680618e-01 
-1.7059439e-01 1.2377918e-01 -1.4880884e+00 
-7.9701905e-04 1.4724905e-02 -1.4620624e-01 
-3.3255562e-02 -1.1037848e-01 -4.0881068e-01 
2.4551277e-03 3.7036400e-02 -1.3404712e-01 
-1.1842427e-01 -8.8527009e-02 -8.5358101e-01 
5.4401193e-02 7.1719490e-02 -3.3421612e-01 
-1.5196571e-01 -6.8210833e-02 -7.5541884e-01 
1.0842360e+01 6.1668587e+00 -5.6335765e-01 
-3.0619612e-01 -6.4827055e-02 -1.1182048e+00 
1.3527400e+00 1.9511822e+00 3.8436022e-02 
2.8764164e+00 2.2226255e+00 3.1887889e-01 
-2.1560967e+00 -1.5926569e+00 1.4221284e-01 
-9.9084139e+00 -1.1317812e+01 1.5122516e+00 
-1.7806370e-02 -1.9678141e-01 -1.0647740e+00 
-9.1959820e+00 -9.3425055e+00 1.1826030e+00 
-1.8640056e-01 -1.0380380e-02 -1.1194410e+00 
2.5460432e+00 1.8257742e+00 -3.4257805e-01 
-1.8106769e+00 -3.0724387e+00 2.1351862e-01 
1.0169733e+00 1.6507581e+00 3.2838989e-02 
-1.4264715e+00 -4.3952602e-01 -1.9247684e-01 
-1.2003684e+00 2.0930083e-01 -2.8119653e-01 
-1.7857083e+00 -9.2489505e-01 -1.6638926e-01 
8.1896025e-01 1.5973727e+00 -3.8108535e-02 
-7.1012832e-02 -1.3779536e-01 -6.9453090e-01 
1.1995667e+00 1.4239285e+00 1.0976926e-01 
7.0075345e-01 2.0170014e+00 -1.4547028e-01 
-2.2479389e+00 -1.9629753e+00 1.3733776e-01 
2.7542048e+00 1.7368163e+00 -4.5886886e-01 
1.8572209e+00 1.7809782e+00 2.0588230e-01 
-2.3272634e+00 -1.3891343e+00 -8.8329382e-02 
1.4104539e-02 7.1665302e-02 -2.4187362e-01 
-1.5674998e-01 -3.9603978e-02 -1.3399302e+00 
2.9665117e+00 1.8706371e+00 3.9028671e-01 
2.0437442e-02 2.3119196e-02 -2.3555218e-01 
1.0417913e+01 5.8764849e+00 4.9624380e-01 
-4.3660905e-02 -5.1340163e-02 -2.2637220e-01 
-2.9881687e+00 -4.3758841e+00 5.0186545e-01 
2.3359058e-02 -4.6375706e-03 -1.1297220e-01 
3.7165669e-01 -5.1920736e-01 -8.1736706e-02 
-9.8093599e-02 5.4141926e-03 -4.1076005e-01 
7.8699674e-04 8.1265820e-03 -2.7432492e-01 
4.7880444e-03 -8.5555576e-03 -1.8633597e-01 
-3.7285963e-01 -1.6383861e-01 -1.4516950e+00 
2.6747334e+00 2.0968890e+00 1.5624747e-01 
-2.0713868e+00 -1.4991494e+00 6.7270450e-02 
8.9603460e-01 1.2181778e+00 6.6176735e-02 
1.0699886e+00 1.6338029e+00 7.8218304e-02 
-6.2219291e+00 -8.2331018e+00 1.1942837e+00 
-1.9805735e-01 3.7147418e-02 -8.5860038e-01 
9.3289521e-03 -4.1692080e-03 -2.2148827e-01 
-1.2709543e+00 -4.1375168e-02 -2.3783357e-01 
8.3146214e-01 1.4975783e+00 1.3504276e-03 
-1.5360066e+00 -5.4637742e-01 -2.4973829e-01 
2.3958452e+00 1.6440817e+00 -2.9204941e-01 
-1.3634130e+00 -7.2978038e-01 -1.6083121e-02 
-3.0459495e-02 -7.7278577e-02 -5.7644933e-01 
-1.5743350e+00 -2.7482889e+00 7.2139114e-02 
-1.3782538e-01 -1.6476105e-01 -8.0229521e-01 
7.2121751e-01 1.7337502e+00 -1.1845967e-01 
-1.4756215e-01 4.3991067e-02 -7.7443546e-01 
-5.1438791e-01 2.3220742e+00 -4.3716323e-01 
-1.4542319e-01 8.8368550e-02 -1.0259372e+00 
5.1265895e-02 -5.2065314e-03 -1.1542964e+00 
-5.0647318e-02 -1.2148436e-01 -5.3086299e-01 
-3.2439262e-02 1.2661208e-03 -1.3111417e-01 
1.4854685e+00 1.7495971e+00 1.3404165e-01 
1.4913132e+00 1.4048488e+00 1.9653721e-01 
-1.7896559e+00 -1.0748811e+00 -4.4567607e-02 
-1.7943835e+00 -2.6974878e+00 1.5001570e-01 
3.7618098e+00 2.1465523e+00 -2.3292708e-01 
3.9372306e+00 2.4090822e+00 1.3663651e-02 
-3.1074204e+00 -2.6511242e+00 4.0776682e-01 
-3.9641969e-02 -3.5571940e-02 -3.0432418e-01 
-2.1779897e-02 -1.6259240e-02 -1.0512817e-01 
3.3871166e-02 2.5037201e-02 -1.8619873e-01 
3.3809495e-01 -5.2371478e-01 -8.4569730e-02 
-7.7521637e-02 5.8200043e-03 -6.4128608e-01 
-2.2166430e-03 -7.5371526e-03 -1.7787836e-01 
-1.1929493e-01 -2.4905715e-02 -6.4211041e-01 
-1.0951875e-02 4.5249321e-02 -1.1562000e-01 
-2.3888429e-01 -2.0812996e-02 -1.5506765e+00 
9.8137212e-01 1.3996701e+00 9.3625672e-02 
4.8968669e-02 -5.0419336e-03 -3.8437116e-01 
8.0595541e-01 1.3587862e+00 2.4018137e-02 
-1.3099654e+00 -3.6545116e-01 -1.3444735e-01 
7.0759064e-01 1.3642884e+00 -2.2373591e-04 
8.9990768e+00 5.0189052e+00 -6.7142367e-01 
-1.8477104e+00 -8.6314756e-01 -8.3619155e-02 
-5.0116420e-02 -2.7774638e-02 -2.8432438e-01 
-8.8600963e-02 -1.7671758e-01 -5.5289167e-01 
5.3353661e-01 1.3653386e+00 -2.5940055e-03 
-8.7857533e+00 -9.9281034e+00 1.2154530e+00 
2.4803846e+00 1.9315877e+00 1.4222512e-01 
-1.8071237e+00 -1.2764032e+00 5.8091689e-02 
-1.0243503e+00 2.2789092e-01 -2.5700480e-01 
-7.6874886e+00 -7.9642000e+00 1.0855657e+00 
-7.6576859e-02 -4.8463579e-02 -4.7756580e-01 
2.0714145e+00 1.3574306e+00 -3.0571392e-01 
-1.4556248e+00 -2.6120756e+00 1.3032918e-01 
-6.0712494e-02 -1.3758396e-01 -5.2849549e-01 
-4.1116990e-02 -4.0919304e-02 -2.5682920e-01 
1.7447406e-01 7.5795352e-01 -4.2255629e-02 
1.1110874e-02 6.0912635e-04 -4.1799586e-02 
-2.1929231e-02 -1.0984822e-02 -8.5741356e-02 
7.8629246e-03 -4.1956171e-02 -1.5830959e-01 
2.2610993e+00 1.2852200e+00 -4.4047689e-01 
2.0070190e-02 -4.5389064e-02 -2.9247001e-01 
-4.7426522e-02 -8.2433403e-02 -3.9705479e-01 
-1.8919302e+00 -1.5636235e+00 2.5725538e-01 
-6.9367923e-02 6.4940229e-02 -2.9719362e-01 
1.9288116e+00 1.9210236e+00 2.0593391e-01 
-1.6289394e+00 -9.6948260e-01 6.0172245e-02 
2.4566824e+00 1.5354910e+00 3.3302021e-01 
-3.3952355e-02 -1.0224736e-01 -6.2804073e-01 
1.2365147e-02 -1.2722512e-01 -1.2153471e-01 
6.7764004e-03 -1.0995608e-01 -7.7006024e-01 
1.2131605e+00 1.5498819e+00 1.0636199e-01 
8.5095148e+00 4.5448613e+00 2.6145849e-01 
-2.5385084e+00 -3.8339350e+00 2.9322913e-01 
8.1545830e-01 1.2741073e+00 1.5872773e-02 
-2.0487025e-02 -1.1844375e-02 -1.2865363e-01 
3.1468210e-01 -5.3535444e-01 -8.1166029e-02 
7.1372664e-01 1.2886126e+00 2.3556827e-04 
-9.3372548e-01 1.4044481e-02 -2.4821232e-01 
-1.2570107e+00 -4.4007471e-01 -1.6554387e-01 
-1.1889404e+00 -5.6367540e-01 -5.4152437e-02 
5.9438729e-01 1.2702191e+00 -4.9601845e-02 
3.0716601e-01 9.0468222e-01 -9.7987153e-02 
1.3523126e-02 -4.1540368e-03 -2.0366010e-01 
-1.4073440e-01 -1.8109117e-02 -1.0584285e+00 
-7.8512151e-03 -2.9312223e-02 -1.1028535e-01 
2.2711012e+00 1.7998512e+00 2.8883606e-01 
-1.7251142e+00 -1.1854483e+00 1.3241558e-01 
-2.0839388e-03 -2.3284571e-02 -4.5176482e-01 
-6.0947217e-02 -7.4827284e-02 -3.7789893e-01 
1.9861695e+00 1.2280598e+00 -2.5421622e-01 
8.0826562e-03 -7.6018558e-03 -1.3214749e-01 
-2.2251071e-02 -4.6078324e-02 -2.7711785e-01 
-2.9967004e-01 -5.5719197e-02 -9.6905321e-01 
-1.3605286e+00 -2.5224080e+00 1.0379604e-01 
1.5934439e-02 5.3848457e-03 -5.9642151e-02 
-1.5295163e-01 7.4082829e-02 -1.2395605e+00 
-7.5417762e-03 -3.1996973e-02 -1.5826346e-01 
-7.2961800e-02 2.1254841e-02 -4.0344921e-01 
-5.1553838e-02 -1.2239324e-01 -1.2740165e+00 
-7.9577882e-03 1.1978454e-02 -2.4686089e-01 
5.3318874e-03 8.1950448e-02 -7.2772807e-01 
-5.3065753e+00 -7.1321006e+00 8.1299210e-01 
8.3496952e-01 9.9073964e-01 1.2886278e-01 
-9.7966886e-01 1.7664391e+00 -5.3484744e-01 
3.3947323e-02 -1.0179574e-02 -2.1129188e-01 
-5.1288173e-02 -8.4092375e-03 -1.4406726e+00 
8.4638047e-01 1.2323681e+00 5.9631284e-02 
-1.9412689e-01 -4.5043167e-01 -1.3802848e+00 
7.2222674e-01 1.2097839e+00 1.4316101e-02 
-1.2013290e+00 -9.1666140e-02 -2.1346024e-01 
6.1116165e-01 1.2053251e+00 -3.8953274e-02 
-1.3798261e+00 -5.8427858e-01 -9.9450558e-02 
3.1676760e+00 1.6830828e+00 -2.5995648e-01 
1.5021135e+00 1.4361950e+00 2.1358196e-01 
-1.8386508e+00 -9.8570812e-01 -7.7866018e-02 
4.9396685e-01 1.2858957e+00 -6.9702148e-02 
3.2407308e+00 1.9623375e+00 4.2028420e-02 
-2.6376138e+00 -2.1821761e+00 2.5716415e-01 
-1.3872782e+00 -2.2355595e+00 1.4133319e-01 
2.9182395e-01 -5.4403424e-01 -9.0051174e-02 
-3.7988015e-02 1.5011021e-02 -1.6438682e-01 
6.5991488e+00 3.3662701e+00 -4.9027243e-01 
8.2501337e-02 1.0446819e-02 -4.9851736e-01 
-9.8487358e+00 -1.1204650e+01 1.6294649e+00 
-2.4545398e-02 -8.8284416e-03 -1.1518363e-01 
1.1177674e-03 -3.5866957e-02 -2.0510344e-01 
-1.1749842e-02 -1.8238273e-02 -1.0404084e-01 
-1.9149004e-02 2.3464609e-02 -2.6181075e-01 
2.0534990e+00 1.5880859e+00 3.1249103e-01 
-1.5500202e+00 -1.0295724e+00 -3.6669090e-02 
1.8096380e+00 1.0730599e+00 -3.6869168e-01 
9.2234515e-02 1.1748604e-01 -2.3844206e-01 
-1.1996846e+00 -2.2941720e+00 1.3870177e-01 
-2.8067484e-01 -1.6091172e-01 -9.1867387e-01 
1.0960907e+00 1.3959016e+00 1.0447295e-01 
-5.2349124e+00 -5.2269940e+00 8.5256183e-01 
-1.6554583e-02 -3.4223210e-02 -5.2630335e-01 
-2.6149746e-02 -7.1744107e-02 -6.2912041e-01 
7.9161912e-01 1.2007787e+00 8.2857803e-02 
-4.3522108e-02 -2.1099674e-02 -3.3617252e-01 
6.3129163e-01 1.1385297e+00 4.9114153e-02 
-2.4422652e-03 4.8243593e-02 -2.1884464e-01 
-1.1340964e+00 1.8997362e-01 -2.7933818e-01 
-1.0882739e+00 -3.3026028e-01 -1.4677407e-01 
5.1247913e-01 1.1182400e+00 2.7319291e-03 
-1.0490587e+00 -4.7943047e-01 -3.7740972e-02 
3.8098013e-01 1.3845732e+00 -1.2285937e-01 
-1.2146139e-01 -1.7461100e-01 -9.0341705e-01 
8.2014045e-03 -1.9721197e-02 -1.6179699e-01 
2.5318407e-02 -2.8249701e-02 -3.0421674e-01 
7.5475350e-02 1.0294233e-01 -2.8602839e-01 
-1.6232563e+00 -1.2770680e+00 2.2150563e-01 
1.9568603e+00 9.7143191e-01 -2.3299949e-01 
5.7263913e+00 3.1093605e+00 -9.3084134e-02 
1.3655391e+00 1.3411057e+00 1.7286287e-01 
-1.3748673e+00 -7.2783971e-01 1.2357266e-03 
-2.5696087e-01 -6.2809177e-02 -1.1965883e+00 
-1.8426330e+00 -2.9453089e+00 2.8523877e-01 
1.9449244e+00 1.2160792e+00 2.7156487e-01 
2.5834452e-02 -3.6846444e-02 -2.1092515e-01 
1.7477171e-02 -1.6084197e-03 -1.5913881e-01 
-9.6054427e-02 -2.6763889e-01 -1.0928674e+00 
2.6875910e-01 -5.4368454e-01 -9.1399498e-02 
-2.1466976e-02 -1.8555652e-02 -1.3164423e-01 
2.7060341e-02 -7.8173287e-02 -2.6926044e-01 
7.8819579e-01 1.1233821e+00 1.0082716e-01 
6.8151248e-01 8.2000774e-01 1.0890982e-01 
6.4520085e-01 1.0826434e+00 4.9561068e-02 
-7.8151166e-02 5.9761088e-02 -6.6996652e-01 
5.2983320e-01 1.0717244e+00 -3.2422263e-02 
-1.1123886e+00 -5.2235674e-02 -1.7186351e-01 
1.8473556e+00 1.4197071e+00 2.0950364e-01 
1.7789720e+00 9.4809866e-01 -1.9806720e-01 
-1.3667936e+00 -5.5036628e-01 -1.8525696e-01 
-1.4464942e+00 -9.1231811e-01 1.1350530e-01 
-4.0368468e-02 4.2855300e-02 -5.2003372e-01 
-2.8707737e-02 -9.3105651e-02 -2.8119317e-01 
-1.0730802e+00 -2.0957322e+00 1.9416662e-03 
4.3361422e-01 1.2111989e+00 -6.4032353e-02 
-6.0282256e-02 -9.6373439e-02 -4.0151963e-01 
6.3687496e-02 -5.5302452e-02 -4.6814987e-01 
4.1783543e+00 2.0783696e+00 -3.4931606e-01 
-6.6226520e-02 1.0023916e-02 -2.7604645e-01 
9.5799426e-03 -1.4914582e-02 -8.6242877e-02 
-1.9935824e-03 -3.9468497e-02 -1.0832310e-01 
1.2732024e-01 -1.8396261e-01 -5.0666648e-01 
-6.3376212e-01 1.8587414e+00 -4.1833141e-01 
-2.2359388e-02 -2.4639335e-02 -2.6020268e-01 
3.4140663e+00 1.5554185e+00 -2.8771234e-01 
-5.4391735e-04 -1.5578103e-02 -1.7786156e-01 
3.0509330e-02 -2.4035770e-02 -2.4291813e-01 
3.4897443e-02 -9.0958960e-02 -2.8323385e-01 
-4.5845079e+00 -6.3801565e+00 8.8232386e-01 
1.2496353e+00 1.2182019e+00 1.5161359e-01 
-1.1145967e+00 -1.8804007e+00 1.8545061e-02 
-1.2356799e+00 -6.2975466e-01 -1.1394605e-02 
2.5456102e+00 1.5679712e+00 3.6453441e-01 
-2.3015995e+00 -1.8384076e+00 2.4710278e-01 
2.4461822e-01 -5.4063755e-01 -8.8286944e-02 
-1.5543650e-01 -1.4322734e-01 -6.0862058e-01 
-1.1467323e-01 1.6709385e-02 -3.5958573e-01 
-6.3424121e-04 -1.1479190e-01 -1.7121917e-01 
9.1786593e-01 1.1591682e+00 8.6790636e-02 
6.8592107e-01 1.0540787e+00 5.4057453e-02 
5.5121094e-01 1.0179855e+00 6.2436117e-03 
-6.2682939e-01 9.0639859e-02 -1.0433109e-01 
4.4035295e-01 9.6777672e-01 -9.6841883e-03 
-9.5321345e-01 -2.1284102e-01 -1.2856887e-01 
-8.9331299e-01 -3.6073375e-01 -3.3854119e-02 
2.6560786e-01 8.4116405e-01 -1.7185446e-02 
-2.5110791e-02 -6.7105241e-02 -7.7472126e-01 
-4.9591195e-03 1.6566204e-02 -3.5230059e-02 
1.6123043e+00 8.0634433e-01 -2.5596759e-01 
1.7159380e+00 1.3441285e+00 1.3289323e-01 
-9.5299435e-01 -1.9457214e+00 1.9232245e-02 
-1.3510935e+00 -8.4553593e-01 -3.5933189e-03 
-3.7379451e-02 -2.2792062e-02 -1.8417041e-01 
4.7065926e+00 2.3366833e+00 4.1465923e-01 
-6.1560783e+00 -6.1697640e+00 8.6276710e-01 
-4.2958878e-02 -9.8389210e-03 -2.4491230e-01 
-2.1111774e-01 -1.5058050e-01 -5.7901782e-01 
-1.0207514e-03 -4.8533082e-02 -2.9857063e-01 
1.8052202e-02 -1.5340237e-02 -2.2306353e-01 
-1.3187844e-01 -1.4888580e-01 -7.5145394e-01 
6.6438480e-03 7.6153972e-03 -1.0127387e-01 
-1.7821463e-02 -2.9708669e-02 -1.2591641e-01 
1.3441092e-01 -4.2711198e-03 -1.3258418e+00 
1.3158664e-02 2.5520880e-02 -5.4375833e-01 
-9.7324096e-02 -1.9817203e-01 -5.4144317e-01 
1.6412482e+00 6.9574398e-01 -1.0774531e-01 
-5.0105602e-03 -2.7847270e-02 -1.9677535e-01 
8.3223695e-01 1.1314423e+00 1.3217103e-01 
-5.3592384e-01 2.5013557e-01 -1.4823589e-01 
2.1765813e-01 9.3983907e-01 -6.1569743e-02 
-6.5426059e-02 -2.7234949e-02 -3.1439871e-01 
-8.3397046e-02 5.6202323e-03 -1.1217918e+00 
-1.4724320e+00 -2.4809630e+00 2.1280628e-01 
5.5513895e-01 9.4524485e-01 6.0711790e-02 
1.4674808e+00 1.5121014e+00 2.4536167e-01 
-1.3703400e+00 -6.3262409e-01 3.1932589e-02 
2.2477278e-01 -5.3561336e-01 -8.9012593e-02 
4.7346017e-01 9.5094806e-01 -1.2112047e-03 
2.3874938e+00 1.4368695e+00 1.5983242e-01 
-1.9840250e+00 -1.5550251e+00 1.6310722e-01 
-2.1277949e-01 -5.2429389e-02 -1.1213304e+00 
6.3074075e-02 3.6046520e-02 -5.4525858e-01 
-7.2912627e-01 -6.2461477e-02 -1.2804183e-01 
-9.8506165e-01 -3.0884537e-01 -8.7086894e-02 
-9.7220808e-02 -9.0942428e-02 -6.5245277e-01 
3.6711872e-01 8.6883700e-01 -2.7368365e-02 
-1.2224198e-01 -1.8561174e-01 -6.5838462e-01 
-4.2720944e-02 -3.7923317e-02 -1.7146616e-01 
-1.3274844e-02 8.5999310e-02 -5.6239325e-01 
5.4350309e+00 2.5325668e+00 -2.2260131e-01 
5.1391087e-03 -6.9406764e-03 -6.2327817e-02 
-6.5757961e+00 -7.8372974e+00 1.2398961e+00 
-4.2706616e-02 -4.5410357e-02 -3.2175753e-01 
-8.9603990e-02 -1.9960063e-02 -6.2658161e-01 
1.3046678e+00 5.8980596e-01 -2.3180106e-01 
3.5398066e-02 -2.0473173e-02 -2.6077634e-01 
-8.4199381e-01 -1.7737148e+00 9.0063056e-03 
6.3458099e-03 -1.8064602e-03 -8.3819598e-02 
1.5486293e+00 1.2100364e+00 1.4625163e-01 
-1.2025152e+00 -7.3421633e-01 3.6137197e-02 
4.2117094e-03 -3.3776760e-02 -6.5670989e-02 
2.3950927e-03 -3.6138792e-02 -2.1118625e-01 
-2.8383980e-02 -1.4748639e-01 -2.4765018e-01 
7.7637637e-01 9.5938551e-01 1.0670463e-01 
-3.0381683e-01 1.2117028e+00 -2.5594395e-01 
5.6429452e-01 8.9879376e-01 7.0689492e-02 
4.8956782e-01 8.9388388e-01 2.7685218e-02 
1.4691018e-02 -5.5325136e-02 -1.5010388e-01 
3.8706380e-01 8.8778132e-01 4.2180056e-03 
-6.0445637e-01 1.4239766e-01 -1.4863056e-01 
-7.7316314e-01 -1.3987273e-01 -1.1599307e-01 
-1.0442494e+00 -3.6054108e-01 -5.3830564e-02 
2.0646937e+00 8.1408519e-01 -2.0407170e-01 
2.8576618e-01 9.4768673e-01 -6.2534302e-02 
-5.5576701e-02 -2.8520172e-02 -2.8457120e-01 
-1.8921691e-01 -6.1436143e-02 -8.4365553e-01 
-1.2620012e-01 -5.9735890e-02 -3.3281431e-01 
-8.3689970e-01 -1.5626031e+00 1.5348339e-01 
-4.4780470e-02 -4.1339554e-02 -2.1418029e-01 
2.0488536e-01 -5.2570957e-01 -9.0922095e-02 
1.0080155e+00 9.8391831e-01 1.7544743e-01 
-1.2770577e-02 -8.6429976e-02 -1.8257268e-01 
-8.6092824e-01 -4.1126502e-01 -1.6836870e-02 
1.3813225e+00 9.1177768e-01 1.3364512e-01 
-2.0051146e-01 -2.5798708e-01 -7.5442380e-01 
-2.5314750e-02 -4.9003564e-02 -2.2529869e-01 
8.3926297e-04 -7.2684116e-04 -2.2274321e-01 
-3.2741311e+00 -4.7303610e+00 5.3087866e-01 
5.0664362e-02 -5.9713207e-02 -7.6660234e-01 
-1.1945977e+00 -8.9826506e-01 6.9197290e-02 
-3.1785667e-02 7.5590732e-03 -1.6131186e-01 
-1.1117441e-01 -1.9443518e-01 -7.7348906e-01 
2.4698403e-02 2.2891140e-02 -1.0399278e-01 
-8.3316183e-03 -7.9032324e-02 -7.7865340e-02 
-2.2819708e-01 -1.5152547e-01 -1.1541469e+00 
-2.7843032e-02 7.9275789e-03 -1.7298612e-01 
1.1210783e+00 4.5004347e-01 -2.3893556e-01 
4.9647224e-01 5.8757681e-01 9.3644880e-02 
-3.4117568e-02 -1.4567590e-02 -1.7545222e-01 
-7.3870665e-01 -1.6171122e+00 -1.1512090e-02 
5.6011324e+00 2.6830516e+00 6.6165440e-02 
5.6856018e-01 8.0809343e-01 6.6532373e-02 
8.9662969e-02 9.9022657e-02 -3.7894288e-01 
-7.2143115e-03 -3.4253858e-02 -7.6088384e-02 
1.3174880e+00 1.0310961e+00 2.5962415e-01 
4.8346663e-01 8.4330440e-01 4.4741932e-02 
-1.0370594e+00 -5.9995449e-01 6.3168138e-02 
-1.1061990e-01 -1.2233420e-01 -7.9079860e-01 
7.8408360e-02 5.1566537e-02 -4.0226987e-01 
4.1374576e-01 8.4058553e-01 -2.5115558e-03 
-4.6018291e+00 -4.6072750e+00 9.7087610e-01 
-4.1844577e-01 2.3037253e-01 -1.1997379e-01 
-6.1856347e-01 1.0780327e-03 -1.0102681e-01 
3.1982660e-01 8.1378329e-01 -1.1917510e-02 
2.0044082e-01 8.6508679e-01 -8.1287950e-02 
-8.4746897e-01 -2.3201467e-01 -9.7395130e-02 
-1.5480883e-02 -2.0387176e-02 -4.2517241e-02 
3.4890894e-02 -4.4554107e-02 -2.7314985e-01 
-1.2375523e+00 -2.1975698e+00 1.3387236e-01 
1.3140197e+00 8.2421345e-01 1.9371003e-01 
-3.3536341e-02 -1.0724624e-01 -2.7200562e-01 
1.8541938e-01 -5.1201063e-01 -9.2189796e-02 
1.2186537e+00 4.2230016e-01 -1.2748368e-01 
9.3619025e-01 9.1282618e-01 1.6732557e-01 
-4.4225961e-02 -1.3202961e-01 -5.9715164e-01 
-1.1304027e+00 -4.6524137e-01 -4.2047963e-02 
-1.0791075e-01 -6.9279589e-02 -4.6569771e-01 
-1.5807576e+00 -1.2173035e+00 2.0169374e-01 
5.7131954e-02 -1.9182527e-02 -2.5046754e-01 
-3.4534372e-02 -5.3680073e-02 -1.7553861e-01 
-7.2986642e-03 -2.1822857e-02 -1.0655372e-01 
1.3382148e-02 -1.1360552e-02 -1.5233327e-01 
-1.1408564e-01 -2.1212026e-02 -8.8239700e-01 
-1.2343005e-02 -3.7039492e-02 -2.4531825e-01 
6.6620636e-01 8.5057169e-01 8.4695868e-02 
4.9327919e-01 7.7696985e-01 3.6917865e-02 
4.8044920e+00 1.9723346e+00 -2.1811599e-01 
-9.5934667e-02 -1.5913814e-01 -3.2200244e-01 
4.1596404e-01 7.8358704e-01 5.2298900e-02 
-6.9188431e-02 -3.1017834e-02 -3.2939619e-01 
-1.5053445e-01 -1.3650113e-01 -6.6392660e-01 
-4.5550303e+00 -5.4212208e+00 7.9904258e-01 
3.4844401e-01 7.7978641e-01 2.5066109e-02 
-4.7126731e-01 1.5167551e-01 -1.1805749e-01 
9.5043880e-01 3.2242015e-01 -2.0016928e-01 
-6.1658204e-01 -6.7651607e-02 -1.0890394e-01 
2.4149004e-01 8.1937253e-01 -2.7401794e-02 
-6.0968095e-01 -1.4338042e+00 5.2231592e-03 
-6.4268130e-01 -1.9879013e-01 -5.9564333e-02 
-3.0716417e-02 -5.2800355e-03 -2.1637815e-01 
-1.6701678e-02 -2.7154990e-02 -2.3480679e-01 
1.2828213e+00 9.9439520e-01 9.1668479e-02 
-9.8278457e-01 -5.3900880e-01 3.0106014e-02 
5.5853195e-02 -5.0960206e-03 -5.2655775e-02 
-2.1177803e-01 1.0561574e+00 -2.4794787e-01 
-6.8219043e-03 -1.4711449e-02 -1.2301293e-01 
-4.1182198e-02 -1.1764561e-01 -6.8103254e-01 
-3.2365329e-03 -1.4353780e-02 -4.3299514e-01 
-3.8467366e-03 1.4640089e-02 -1.8766725e-01 
3.1489857e-02 -3.6077604e-02 -9.7488815e-01 
1.3815297e-02 -1.6548220e-02 -5.8684438e-02 
5.8740610e-03 -2.1425169e-02 -1.4927378e-01 
-1.9674923e-02 -3.0482281e-02 -4.2204323e-01 
1.6005383e+00 4.9318472e-01 -1.5759389e-01 
1.6804484e-01 -5.0081635e-01 -8.5638650e-02 
-4.9917032e-03 -2.9462660e-02 -1.1129866e-01 
-7.0202088e-01 -1.3761078e+00 8.1733884e-03 
1.0761087e+00 1.1272638e+00 1.8663594e-01 
5.9733516e-01 8.2090968e-01 9.8163143e-02 
-9.9311787e-01 -3.7710932e-01 -5.4947235e-02 
1.9012601e+00 1.1274661e+00 2.2347303e-01 
4.6699741e-03 6.4146803e-03 -2.2702718e-01 
4.3585080e-01 7.3114020e-01 6.1372958e-02 
2.8884102e-02 -9.6217617e-02 -4.8702672e-01 
-1.0360874e-02 -1.4774871e-02 -1.3091412e-01 
3.5847637e-01 7.4156314e-01 1.6407786e-02 
-3.4902014e-02 -7.2212733e-02 -3.9010528e-01 
-9.7803348e-01 -6.7536980e-01 1.0592031e-01 
2.8128693e-01 7.3821908e-01 -2.3136932e-02 
-4.9249354e-01 4.6100214e-02 -8.5433573e-02 
-6.9357651e-01 -1.4546242e-01 -9.2823245e-02 
-6.6216767e-02 -1.2427022e-01 -6.7405921e-01 
-1.7950515e-03 -3.2997739e-02 -1.3170525e-01 
-2.9966991e-02 -4.6304751e-02 -1.4863038e-01 
1.8061762e-01 8.1087399e-01 -6.9418214e-02 
-9.6746860e-03 -2.3370529e-02 -2.2461691e-01 
-3.3612564e-01 2.2055312e-01 -1.0645861e-01 
9.1102608e-03 -9.7205890e-03 -1.1911328e-01 
2.7977217e-03 -1.2040198e-02 -1.4060223e-01 
4.3259528e-03 -4.7223023e-03 -1.0183316e-01 
-2.5834692e+00 -3.9249921e+00 3.6040559e-01 
8.7755901e-01 2.6864949e-01 -2.0080629e-01 
-8.9712486e-02 -1.3228194e-01 -5.6972528e-01 
-1.3525600e-03 -5.4682624e-03 -7.7742793e-02 
-5.2144730e-01 -1.2780403e+00 -3.8795095e-02 
5.2520693e-03 5.4051653e-03 -6.6001102e-02 
1.0992792e+00 8.8267171e-01 1.7855214e-01 
-8.2993138e-01 -4.2540526e-01 1.8490093e-02 
-2.6858081e-03 -8.4359951e-02 -2.8700072e-01 
-4.4776890e-02 -8.0312409e-02 -1.2003661e-01 
4.2710013e+00 1.9619337e+00 5.4876860e-02 
-3.8825905e+00 -3.9090431e+00 6.4356834e-01 
-1.2717967e-01 -9.2245020e-02 -8.0348265e-01 
8.5342757e-02 1.4286494e-02 -3.9343250e-01 
-2.1067534e-02 -4.0279627e-02 -2.6582849e-01 
3.6741749e-03 -1.9646147e-02 -6.8760455e-02 
-1.8225694e-02 -1.6562600e-02 -4.7820950e-01 
3.1795178e-02 -8.5760526e-02 -5.2979064e-01 
-1.0509837e-01 6.0032108e-03 -3.5053134e-01 
-8.0835875e-03 -1.0012164e-01 -2.1519895e-01 
6.4821160e-01 8.1858420e-01 1.2203355e-01 
3.5698444e-02 1.8072566e-02 -1.6040739e-01 
4.3346342e-01 6.7184281e-01 6.3925788e-02 
-1.2323041e-01 -6.4087175e-02 -6.3203025e-01 
3.6412075e-01 6.8799180e-01 4.9033761e-02 
-9.3617880e-01 -1.7470261e+00 1.5850678e-01 
-1.4847337e-01 -4.3734916e-02 -5.0645763e-01 
-4.2318810e-02 1.7723553e-03 -2.7550980e-01 
1.5315837e-01 -4.8898321e-01 -8.4593989e-02 
9.4466668e-01 2.6368347e-01 -1.1283448e-01 
2.9675117e-01 7.0317674e-01 1.4502035e-02 
1.1691784e+00 7.2091323e-01 1.8864240e-01 
-3.1570092e-01 1.2873916e-01 -1.1103811e-01 
1.8147043e-03 -9.0352679e-03 -1.7113759e-01 
-5.2181923e-01 -8.7324716e-03 -9.0917669e-02 
-7.3943406e-01 -1.9043930e-01 -5.4002743e-02 
-3.0173017e-03 -4.5156471e-02 -3.3678573e-01 
2.1721508e-01 7.5429535e-01 -3.5592373e-02 
6.9970179e-01 6.8852204e-01 1.2974592e-01 
-6.1620164e-01 -2.3634857e-01 9.9014519e-03 
-1.2913169e+00 -9.2083508e-01 1.1669534e-01 
-6.6855103e-03 9.6896887e-03 -2.5643328e-01 
5.7408460e-03 -3.0666914e-02 -1.3833614e-01 
-8.7319285e-02 -1.8334195e-01 -1.0877295e+00 
-1.1253434e-02 2.9527873e-03 -1.5754099e-01 
5.2641132e-03 -1.0085331e-02 -6.1303481e-02 
3.6548157e+00 1.3305473e+00 -2.7747440e-01 
-6.6888239e-03 -9.3130423e-03 -5.6486920e-02 
1.0745681e-02 -2.8673237e-02 -1.1819433e-01 
-2.6442629e-01 1.0906234e+00 -2.0546079e-01 
-2.2632910e-02 -2.0289043e-02 -1.1907215e-01 
-3.0123683e-02 7.6558301e-03 -1.4815940e-01 
-3.5870466e+00 -4.3316050e+00 7.4734366e-01 
7.2968370e-01 1.7469719e-01 -1.8110420e-01 
-4.5829841e-01 -1.2065703e+00 1.9920770e-02 
2.5125805e-02 1.0543140e-03 -6.8917111e-02 
-7.0142828e-02 -4.7271244e-02 -2.4959998e-01 
1.0224949e+00 8.1658310e-01 1.3846681e-01 
-7.9158616e-01 -4.1916120e-01 3.4313600e-03 
5.2259338e-01 7.1466821e-01 9.1144256e-02 
3.7926435e-01 6.3745683e-01 4.5809351e-02 
3.0694747e-01 6.5067148e-01 5.2024103e-03 
-4.7134975e-01 1.3300228e-01 -1.4740255e-01 
-1.0048584e-02 -6.4442761e-02 -3.3877358e-01 
-2.8115178e-02 -5.5043288e-02 -2.8419662e-01 
2.4174166e-01 6.2909395e-01 -1.4248553e-02 
-6.7381677e-03 -4.7192802e-03 -6.8759173e-02 
-1.1886058e-02 1.2168633e-02 -6.5034628e-02 
1.1533179e-01 4.8612237e-01 -1.7870668e-02 
1.2674562e+00 2.6926586e-01 -1.7151827e-01 
-5.8740264e-01 -7.6503433e-02 -7.2709456e-02 
7.6615117e-02 -6.2772185e-02 -6.7209417e-01 
-5.5344053e-02 -9.5166564e-02 -4.6306309e-01 
1.3935757e-01 -4.7367203e-01 -9.3199536e-02 
4.3110183e-04 8.1035784e-03 -2.3740737e-02 
9.3629874e-02 5.1580720e-02 -1.7498454e-01 
-5.4259032e-01 -1.1039250e+00 -5.4398039e-03 
1.1618348e-02 2.1721041e-02 -2.6782632e-01 
-1.1022014e-02 -2.2813251e-02 -1.5843554e-01 
8.6368334e-01 9.1029894e-01 1.8064317e-01 
-8.1205368e-01 -2.4889387e-01 -2.3085518e-02 
2.3339072e-02 3.3027558e-03 -9.9589474e-02 
1.5640048e+00 9.1131055e-01 1.2873888e-01 
1.8024135e-02 -6.2462322e-02 -1.8380494e-01 
2.1836301e-03 -2.2578189e-02 -1.4677893e-01 
-1.5018460e-01 -1.8454888e-01 -9.1530406e-01 
-7.7339536e-01 -5.1438320e-01 1.1687976e-01 
-1.3859061e-02 -9.4451278e-02 -1.3284889e-01 
-4.4225148e-04 -6.6678990e-03 -4.1210223e-02 
-1.1704289e-03 -1.8107688e-02 -1.6080000e-01 
-4.3546129e-02 -3.9046995e-02 -1.1367868e-01 
6.8463731e-01 1.0920183e-01 -1.2403828e-01 
-1.8772589e+00 -3.0189490e+00 4.5474717e-01 
7.1299420e-04 -1.0973350e-02 -1.2946714e-01 
-3.7453404e-01 -1.0416023e+00 1.6300508e-03 
8.1987038e-02 5.0783449e-01 -3.3296186e-02 
3.7172988e-01 5.7993728e-01 7.2675727e-02 
-6.4793184e-02 -1.4708191e-01 -6.5101063e-01 
3.1199747e-01 5.9338742e-01 5.6732256e-02 
4.0278685e-01 5.1423424e-01 8.0982007e-02 
2.5367886e-01 5.9059668e-01 3.0649215e-02 
1.3419094e-02 -2.4959635e-02 -2.7614617e-01 
1.7835253e-01 5.4435796e-01 1.2225630e-03 
1.4417978e-02 -4.1564494e-02 -1.7676437e-01 
-3.6097175e-01 2.2965270e-01 -1.1306380e-01 
9.4648165e-01 7.4964213e-01 1.4286642e-01 
-4.3678439e-01 2.4649074e-02 -8.4346771e-02 
-4.6510023e-01 -8.5986376e-02 -6.0322668e-02 
-6.7913949e-01 -3.2331127e-01 4.5138083e-02 
2.8911045e+00 1.1537291e+00 4.6626534e-02 
-3.2681143e+00 -3.1516125e+00 3.5358381e-01 
-1.2245571e-02 -7.8032049e-03 -2.2797930e-01 
3.3916507e-02 -8.0436707e-02 -6.6282845e-01 
-1.1768627e-02 -2.5693740e-04 -1.2589836e-01 
8.8935466e-03 -1.8367412e-02 -1.7908482e-01 
-2.9844686e-02 -2.4440831e-02 -1.7433500e-01 
-8.2364213e-03 2.5784678e-03 -5.2619442e-02 
1.6718707e-03 -4.6584569e-02 -4.3998355e-01 
1.0140372e-02 -3.2692108e-02 -1.0100543e-01 
5.0890027e-03 -9.3789950e-02 -3.9411587e-01 
-7.2748071e-01 -1.4564019e+00 9.1814972e-02 
-8.9589946e-02 4.6119563e-02 -6.1587411e-01 
-1.3405953e-01 -2.2594820e-01 -9.0034509e-01 
1.2429120e-01 -4.5484576e-01 -9.0318695e-02 
4.1270573e-03 -4.9302902e-04 -2.8293217e-02 
7.5603080e-01 1.3397256e-01 -8.3533086e-02 
-5.9427536e-04 -3.6361958e-03 -4.5285318e-02 
-2.2406989e-01 7.4701834e-01 -1.5549631e-01 
5.2128654e-02 4.9723621e-02 -1.5105490e-01 
-1.9850340e-02 -2.8324094e-02 -1.6937798e-01 
7.2490102e-01 7.6444995e-01 1.3251975e-01 
-7.0511585e-01 -1.8760437e-01 -2.9706586e-02 
1.2607152e+00 7.4508780e-01 1.3364995e-01 
-1.0436610e+00 -7.3895651e-01 8.4704548e-02 
2.5228558e-02 7.0416275e-03 -1.2634517e-01 
4.0527201e-01 5.5754095e-01 6.9582298e-02 
3.2553816e-01 5.4352635e-01 4.0630564e-02 
4.4975061e-02 -3.5900649e-02 -2.7423638e-01 
-1.7957801e-02 -3.4905601e-02 -7.6046623e-02 
2.8318617e+00 8.5127342e-01 4.3968451e-03 
-2.3815291e-02 -4.1389100e-02 -2.3707569e-01 
-4.8171645e-03 9.8054791e-03 -9.9886231e-02 
2.6495916e-01 5.5914408e-01 2.5675243e-02 
2.0129833e-01 5.3866947e-01 -6.0069640e-03 
-2.8939984e+00 -3.5362120e+00 7.5749081e-01 
5.6826323e-01 3.6239956e-02 -1.3995041e-01 
-3.3546859e-01 -9.7741902e-01 3.9042339e-03 
-3.6667451e-01 1.5493932e-01 -9.7653322e-02 
1.2352803e-01 5.2469689e-01 -3.6834050e-02 
-4.7981176e-01 -2.7266089e-02 -6.5353177e-02 
-5.9067242e-02 -4.4281706e-02 -4.4989586e-01 
-3.6208913e-02 -1.6725984e-01 -4.7901222e-01 
-1.5256458e-02 8.9754472e-03 -1.4361003e-01 
-4.9492577e-03 5.1158941e-03 -4.8805036e-02 
-2.8661205e-03 -1.1434016e-02 -1.2752859e-01 
-3.9650120e-02 -1.0808142e-01 -3.7258533e-01 
-9.2002101e-02 -1.1611938e-01 -6.4282554e-01 
-1.2559267e-02 -2.7860077e-02 -8.4316552e-02 
7.1721068e-03 -1.2025182e-03 -7.9806849e-02 
8.6345536e-01 6.7192417e-01 9.8618560e-02 
-6.2780005e-01 -2.7436006e-01 -1.0228500e-02 
7.5806896e-03 -3.1230628e-02 -2.7830514e-01 
-7.1259071e-03 -4.3682043e-02 -1.3762622e-01 
4.9451478e-03 9.5479805e-03 -3.5550371e-02 
-1.0043917e-01 -6.7621820e-02 -4.3436077e-01 
-1.8465854e-02 -2.1638991e-02 -1.3261943e-01 
2.9289249e-02 -9.2187984e-04 -1.2554404e-01 
-1.0557826e-01 -9.3353689e-02 -6.3460964e-01 
9.9293053e-01 1.2661557e-01 -1.0974799e-01 
1.9200169e-02 -2.4329850e-03 -7.1842708e-02 
1.1220829e-01 -4.3397513e-01 -8.7839834e-02 
3.2605615e-01 4.1574037e-01 8.5161574e-02 
-4.0108389e-01 -9.2143875e-01 3.9744716e-02 
3.2741478e-01 5.1278955e-01 7.4670598e-02 
7.1706153e-02 4.5668170e-01 -2.6232725e-02 
-1.2324612e-02 -1.3255276e-01 -3.7977040e-01 
-6.2070903e-03 -3.7895840e-02 -1.3743661e-01 
-1.1677802e-02 5.8393888e-02 -3.6877716e-01 
2.6527846e-01 5.0495291e-01 5.0028894e-02 
2.3271212e-02 -1.0777646e-02 -2.9633257e-01 
3.7850283e-02 4.6421032e-02 -3.5950592e-01 
-9.6963998e-03 -8.0458587e-03 -1.9398750e-01 
2.2250283e-01 5.0873524e-01 -2.3305551e-03 
5.6038570e-01 5.7057184e-01 1.2349273e-01 
-4.4545963e-01 -1.2789759e-01 -2.7972668e-02 
8.3584374e-01 5.1496023e-01 1.3097760e-01 
1.5089139e-01 4.6827927e-01 2.2481799e-03 
-2.7560407e-01 2.1388747e-01 -1.0734643e-01 
-3.3436865e-01 6.2489610e-02 -6.7509793e-02 
-5.2347630e-01 -6.6219337e-02 -6.3190326e-02 
-6.3443989e-01 -3.9657190e-01 4.8504125e-02 
-7.0400969e-03 -1.5112492e-02 -1.2462848e-01 
2.5421076e+00 1.0199319e+00 1.1280709e-01 
1.3050624e-02 -1.6537165e-02 -1.1374632e-01 
-1.2828791e-02 -4.3855533e-03 -6.8962142e-02 
-1.1752267e-01 -1.4570147e-01 -3.3477405e-01 
5.1334375e-01 -1.4498081e-03 -1.2607837e-01 
-1.4845532e+00 -2.5165370e+00 2.0500956e-01 
-2.6845622e-01 -8.4620577e-01 -7.6557756e-03 
2.0621307e-02 -4.7335583e-03 -2.6107952e-01 
1.1010774e-02 -3.7169658e-02 -2.3624393e-01 
9.6093528e-03 1.9825902e-03 -6.4552546e-02 
-1.1004260e-01 -4.4221640e-02 -6.0175467e-01 
5.4411162e-03 7.3412140e-03 -4.4682715e-02 
-1.5440391e-01 6.8180078e-01 -1.3125712e-01 
6.9123092e-03 -1.0292473e-02 -5.1716518e-02 
-7.1370658e-03 -8.6695403e-03 -6.6906527e-02 
7.6348275e-01 6.1269504e-01 1.2473162e-01 
-5.3211248e-01 -2.2111028e-01 7.5426418e-03 
-1.5001080e-03 4.5097020e-04 -7.7536374e-02 
4.5359731e-02 -1.1840755e-02 -4.6479446e-01 
-2.5271602e+00 -2.5425985e+00 5.9906548e-01 
-9.8362658e-04 -2.7989756e-02 -1.6802956e-01 
-9.5258644e-03 -8.7096579e-03 -1.0401171e-01 
4.2908171e-01 5.7314140e-01 8.5314646e-02 
-2.1082582e-02 -1.2200522e-02 -1.6420105e-01 
2.9499951e-01 5.0290221e-01 5.4565992e-02 
-5.4976714e-01 -1.1973349e+00 7.8479923e-02 
2.2341250e-01 4.7073048e-01 3.4270339e-02 
1.0053155e-01 -4.1489547e-01 -8.2996421e-02 
1.2005767e-01 5.1503718e-01 -3.3258975e-02 
5.4219090e-03 -2.1598885e-02 -2.4805345e-01 
5.7836217e-01 2.9436991e-02 -8.0138162e-02 
-1.9597741e-02 -9.4790660e-02 -2.3619454e-01 
1.7657496e-01 4.6949944e-01 1.4128533e-02 
-2.9176855e-01 1.6183211e-01 -7.7576838e-02 
-2.5026847e-02 -2.7426634e-02 -1.0248223e-01 
-3.8796061e-01 1.0531570e-02 -6.0765356e-02 
1.6298551e-02 9.5039485e-03 -9.1290683e-02 
1.6242835e-03 -1.5735533e-02 -7.1760677e-02 
-9.1908006e-03 9.7850002e-03 -2.3439074e-01 
9.0769008e-03 -3.6071490e-02 -1.9441070e-01 
-1.9189948e-01 -1.5026216e-01 -4.3588948e-01 
5.0840569e-01 5.1714724e-01 1.0983681e-01 
-5.7804441e-01 -1.0858221e-01 -1.3625929e-02 
1.5980259e-02 -6.5002367e-02 -4.4445941e-01 
-3.5046734e-02 -5.8029894e-02 -1.8987070e-01 
1.1012372e+00 6.4788079e-01 9.0459257e-02 
-8.3143586e-01 -5.4711336e-01 8.8012129e-02 
-3.3307674e-03 -9.3094604e-03 -6.8779714e-02 
2.3340979e+00 5.4573441e-01 -1.5889601e-01 
-2.9519578e-03 -1.1835742e-02 -5.4434594e-02 
1.5165257e-02 -5.0283391e-02 -4.3493572e-01 
1.6673879e-03 -8.7287603e-03 -9.0837814e-02 
4.2673510e-01 -5.1431388e-02 -1.1304111e-01 
-1.9345613e+00 -2.5171511e+00 4.0038088e-01 
-2.3813859e-01 -7.9370594e-01 -3.2467306e-02 
-6.1260566e-02 -4.3689616e-02 -4.7835535e-01 
-5.5907629e-02 -9.0231031e-02 -4.7801509e-01 
1.4340397e-02 -2.0874720e-02 -4.8956558e-01 
1.1206514e-02 -2.7326209e-02 -1.6463259e-01 
1.3047976e-02 -3.8163813e-03 -1.6151091e-02 
-3.6573512e-03 -2.5054349e-03 -9.3916818e-02 
2.9464123e-01 4.5258003e-01 5.7298243e-02 
-4.5053639e-02 -1.2952314e-01 -5.9645653e-01 
2.5900999e-01 3.3032390e-01 6.3684069e-02 
2.3048961e-01 4.3903306e-01 4.6264030e-02 
6.8378669e-01 5.4029697e-01 1.4380431e-01 
1.9055492e-01 4.3904814e-01 2.6034391e-02 
-4.9461439e-01 -1.9702515e-01 1.9013153e-02 
4.0456601e-03 -4.1923128e-02 -1.3457142e-01 
-1.5574637e-02 -1.2252982e-02 -6.8999924e-02 
1.2633659e-01 4.3521601e-01 -1.9600319e-03 
-5.5502327e-03 -1.7228555e-02 -5.0274581e-02 
1.1121270e-02 -3.3935126e-02 -1.5474063e-01 
7.7446723e-01 1.2075708e-02 -8.7368011e-02 
-2.0344540e-01 1.9789085e-01 -7.5248957e-02 
5.8000334e-02 4.2886519e-01 -3.7453584e-02 
-2.6558200e-01 7.7259392e-02 -5.5201571e-02 
-3.4965032e-01 -7.6415762e-04 -4.2702291e-02 
9.0062089e-02 -3.9178374e-01 -7.6800421e-02 
-5.3255234e-02 -2.9168984e-02 -4.5472798e-01 
8.1122052e-03 -1.3511446e-02 -7.4732415e-02 
-3.0109522e-01 -7.6763558e-01 2.9224863e-02 
-1.7742654e-02 7.9870075e-03 -1.6509451e-01 
-1.1864038e-02 -3.8155060e-02 -1.8113545e-01 
1.0372176e-03 -3.9478391e-03 -5.6066327e-02 
3.1987489e-03 -1.3904378e-02 -8.4366217e-02 
1.9875154e-04 -1.0510931e-02 -1.2161497e-01 
-1.0229322e-02 -1.8321427e-02 -1.5877955e-01 
-1.2457595e-03 -2.5385097e-02 -4.6673127e-02 
-3.1236175e-02 -3.1222589e-02 -5.3591192e-01 
-1.1283628e-01 5.8286530e-01 -1.0124580e-01 
-3.7039247e-01 -7.7453054e-02 -2.9373884e-02 
4.6411639e-01 4.7952536e-01 1.0579747e-01 
-1.8630141e-02 -1.2911834e-01 -5.4469794e-01 
6.7756552e-01 4.0649042e-01 1.1498424e-01 
-4.3610569e-02 5.5602263e-03 -2.7540213e-01 
-1.2045007e+00 -1.3631246e+00 3.7109903e-01 
2.2461903e+00 7.9633719e-01 8.7344728e-02 
-5.0519943e-01 -2.8417307e-01 4.0683720e-02 
7.5221118e-03 -3.9416112e-02 -2.1530525e-01 
3.9045289e-01 -8.4587201e-02 -1.1313325e-01 
-1.8374354e-02 -2.6296824e-02 -9.6878313e-02 
-1.1846930e+00 -2.0389624e+00 2.1096611e-01 
3.4128079e-01 4.7154307e-01 6.1393984e-02 
-1.8789107e-01 -6.9339269e-01 -3.4572039e-02 
-1.1316005e-02 -3.4606326e-02 -1.3426490e-01 
2.4945684e-01 4.1956675e-01 5.1808976e-02 
1.8713906e-01 4.0604335e-01 3.2880202e-02 
-3.5327848e-02 -3.5397884e-02 -3.8320816e-01 
9.2412025e-02 4.3040141e-01 -2.6140059e-03 
1.4678526e-01 4.1675568e-01 1.1290537e-02 
-4.5664407e-02 -5.9670869e-02 -3.2101125e-01 
5.7958113e-03 1.8200602e-03 -4.3253101e-02 
-2.0917125e-01 1.4198835e-01 -6.0877852e-02 
-2.7230421e-02 -1.9553287e-02 -2.2950579e-01 
-2.6705581e-01 4.5498304e-02 -5.4950353e-02 
-2.1313594e-01 -5.0634830e-03 -2.3044830e-02 
-1.1007259e-02 6.3229525e-03 -1.0095606e-01 
3.8645018e-03 -2.1690942e-02 -1.6584212e-01 
-4.2295861e-01 -1.5172063e-01 -1.3544291e-02 
6.1182487e-01 4.7998548e-01 5.4837488e-02 
-1.1907145e-02 -4.9475808e-02 -1.7040524e-01 
6.3447682e-03 -1.6913231e-02 -9.8765291e-02 
-1.2995752e+00 -1.0860959e+00 2.2486876e-01 
-7.0698634e-03 -1.0644014e-02 -1.9642967e-01 
1.9163918e-02 -2.3031762e-02 -1.0137744e-01 
-4.0483534e-01 -9.7057194e-01 3.4245968e-02 
7.8497671e-02 -3.7718222e-01 -7.9521462e-02 
2.8225314e-02 -2.0960474e-03 -1.7233598e-01 
4.3786544e-01 -3.7496727e-02 -9.8611258e-02 
-8.8392720e-02 -1.2485608e-01 -6.2979597e-01 
-4.9225017e-03 -3.2510716e-02 -1.8273354e-01 
-3.2535776e-02 -1.1456849e-01 -4.0733764e-01 
1.8674788e-03 -6.3911313e-03 -9.0840839e-02 
-3.4920819e-02 -6.0667314e-02 -2.1205643e-01 
-4.0948861e-03 2.0162698e-03 -8.0192558e-02 
-2.6320437e-02 -5.0760690e-02 -3.9530274e-01 
3.1897101e-01 4.6013683e-01 9.2667848e-02 
-1.5471815e-01 1.7656690e-01 -5.3788766e-02 
-3.0716506e-01 -4.8818864e-02 -1.3697664e-02 
1.9907729e-01 3.7433273e-01 4.0719375e-02 
5.3013080e-01 5.7784796e-01 1.0926433e-01 
1.8412614e+00 3.1949097e-01 -1.1255506e-01 
-6.6255254e-01 -4.0918568e-01 1.9070068e-02 
8.7438691e-01 4.9744987e-01 1.0558611e-01 
1.5162103e-01 3.7621361e-01 3.0266767e-02 
3.2571757e-01 -1.0444468e-01 -8.3849721e-02 
1.1891730e-01 3.8098770e-01 -7.6074144e-03 
-1.2676487e+00 -1.8091605e+00 3.1484601e-01 
-1.6972953e-01 -6.3970995e-01 -4.0328182e-02 
-5.0236557e-02 -9.9546589e-02 -6.9354159e-01 
5.9923451e-02 4.3687066e-01 -3.4738071e-02 
-2.2092520e-01 8.8434950e-02 -5.2880716e-02 
-1.2159556e-03 1.9162809e-02 -4.4421136e-01 
-4.9509767e-02 -9.3542069e-02 -3.6881164e-01 
3.5716007e-03 -2.5272703e-02 -1.4148206e-01 
-2.8984758e-01 1.5572480e-02 -5.6575831e-02 
-1.0050701e-01 -8.9298159e-02 -4.2978871e-01 
3.6385123e-02 -4.7360794e-03 -2.1449575e-01 
1.0638169e-03 -1.1227570e-02 -3.6042511e-02 
-2.6278959e-03 -6.3922435e-02 -3.5869333e-01 
3.2906409e-02 1.5894744e-03 -6.6200413e-02 
-1.0741128e-01 3.9715889e-01 -8.4320940e-02 
2.0609563e-03 -1.0032429e-02 -5.9395604e-02 
-2.2213107e-02 3.3264661e-03 -8.7406635e-02 
8.0605084e-03 -9.5248735e-03 -1.4747870e-01 
-3.8962805e-01 -1.2879142e-01 1.9265855e-02 
5.9147400e-04 4.0716063e-03 -8.4166311e-02 
5.4260778e-01 4.3690515e-01 1.2616998e-01 
-1.0894190e-02 -1.5690373e-02 -1.4034791e-01 
1.2868479e-03 -2.0203235e-02 -8.5401535e-02 
6.0928249e-01 -8.4905110e-02 -9.2379861e-02 
-1.3270053e-02 -2.5139179e-02 -8.5424528e-02 
-6.3345809e-03 -1.4853283e-02 -1.5982857e-01 
7.0701189e-02 -3.4931311e-01 -6.7486733e-02 
-2.1818420e-01 -5.8310431e-01 5.0862987e-02 
3.2651681e-02 -2.0023772e-02 -1.9060263e-01 
3.8530983e-03 -1.8833842e-02 -7.8028791e-02 
-1.1785851e-02 8.5964927e-04 -1.4570050e-01 
2.0713145e-01 3.5758105e-01 5.0968748e-02 
2.1368153e-03 -5.0082173e-02 -2.0179208e-01 
2.7563196e-01 3.6731502e-01 7.8386821e-02 
-2.1177193e-02 -1.0261463e-01 -1.8777569e-01 
1.6557804e-01 3.4780481e-01 3.1334102e-02 
-3.1513352e-02 -2.3068687e-02 -1.0599635e-01 
1.1461822e-02 -5.2461158e-02 -3.5437402e-01 
1.2435001e-01 3.5062474e-01 1.8936329e-02 
-7.1544215e-02 -4.2315118e-02 -4.2058700e-01 
7.0918560e-02 3.1186581e-01 -3.8055412e-03 
-2.0646901e-01 2.1122468e-01 -9.1703705e-02 
-2.5373688e-01 5.1633235e-02 -4.7450334e-02 
2.1266285e-02 2.5802916e-01 -2.5338469e-02 
-3.7157875e-01 -2.0422630e-02 -2.3987779e-02 
3.4413680e-01 3.5180137e-01 8.6364143e-02 
5.3782386e-01 3.1431150e-01 9.6926972e-02 
2.8680801e-01 -1.2593965e-01 -9.9266037e-02 
-1.1267377e+00 -1.2388446e+00 1.0316434e-01 
1.5158312e-03 -2.2074359e-02 -9.0753272e-02 
-8.4185833e-01 -1.5897436e+00 2.4009889e-01 
-3.3105514e-03 -7.9887979e-02 -3.9038953e-01 
-1.3014519e-01 -5.4815716e-01 -3.6276340e-02 
-1.0428532e-03 1.4858915e-03 -5.7658986e-03 
6.2860916e-03 -4.3846607e-02 -4.4333345e-01 
-3.8136116e-01 -2.0897931e-01 4.8939563e-02 
-7.0857499e-03 -2.8621206e-02 -1.9043422e-01 
-8.9996046e-04 6.5914320e-04 -4.9556006e-02 
1.8010763e+00 5.9293330e-01 -3.4431349e-03 
6.4535537e-03 -1.1603297e-02 -4.8703976e-02 
-5.8558711e-04 -2.9034691e-02 -6.6273227e-02 
1.3360241e-02 -1.2778288e-02 -5.9134733e-02 
5.1193186e-03 -4.8848286e-02 -2.2377628e-01 
-9.2702461e-03 -1.4251502e-02 -9.0110779e-02 
-2.6650583e-02 -7.3903754e-02 -5.0146157e-01 
-8.9004076e-05 -1.0665459e-02 -1.0814030e-01 
-4.5926679e-02 -1.0923866e-01 -1.6787222e-01 
1.6230778e-01 2.1299013e-01 4.5101244e-02 
1.9739419e-01 3.0212879e-01 4.9754702e-02 
-3.3643457e-01 -9.9225938e-02 -2.3395719e-02 
-3.3517219e-02 -1.0485389e-02 -1.2241428e-01 
4.9125239e-01 3.9622009e-01 1.1154802e-01 
1.6701648e-01 3.1460992e-01 2.7693832e-02 
-1.0241315e+00 -8.4636128e-01 1.5842941e-01 
6.2310915e-02 -3.3581817e-01 -6.6034295e-02 
-2.9785079e-01 -7.6452523e-01 1.4612565e-03 
1.3421255e-01 3.1896016e-01 2.9716467e-02 
3.4911320e-01 -8.3911665e-02 -6.2144134e-02 
9.2283517e-02 3.0817586e-01 4.7448496e-03 
-5.3999700e-02 -5.9671883e-02 -2.0630656e-01 
-2.3652039e-02 9.7664548e-03 -2.8681445e-01 
4.4986695e-02 2.9206714e-01 -1.0023587e-02 
-2.8328244e-03 -3.9179656e-03 -7.0637159e-02 
-1.2339634e-02 -2.1793485e-02 -7.0377879e-02 
5.1309136e-03 1.9546961e-03 -5.5186443e-02 
-1.8378811e-01 1.4229509e-01 -5.1938891e-02 
-2.3009013e-01 4.5670178e-02 -4.9357209e-02 
-1.4042753e-01 4.2850399e-01 -6.8226062e-02 
8.8255443e-03 1.2674901e-02 -1.1184622e-01 
-2.5582843e-02 -3.0290938e-03 -4.1211319e-01 
-5.9228046e-03 -9.9177388e-03 -2.2825268e-01 
-1.3155256e-02 -1.1237419e-02 -8.6442567e-02 
-1.8557703e-02 -4.6711224e-03 -8.7985419e-02 
1.5272148e+00 1.7019331e-01 -8.1531376e-02 
-2.6265046e-01 -2.3159347e-02 -2.7005553e-02 
3.0703408e-01 3.1649622e-01 5.4194946e-02 
2.4200532e-01 -1.4482664e-01 -7.9194091e-02 
-5.0839972e-01 -2.8201371e-01 4.4761028e-02 
6.5218031e-01 3.5795429e-01 4.5131326e-02 
-1.7938435e-02 1.1410579e-02 -1.3372101e-01 
-9.5049387e-01 -1.3907175e+00 1.9677016e-01 
-1.1533278e-01 -5.0804639e-01 -2.3270460e-02 
-3.2461211e-02 -4.8011709e-02 -2.6593664e-01 
-7.8991279e-02 -1.1822385e-01 -2.4911684e-01 
1.9125324e-02 5.2467091e-03 -2.8486440e-01 
-2.3277884e-03 -1.9374743e-02 -5.4843828e-02 
-5.5103046e-03 -5.8316682e-03 -3.2978505e-02 
2.1845518e-01 2.9728127e-01 6.0961094e-02 
3.8569857e-04 -7.8498591e-03 -9.5647380e-02 
1.6419068e-01 2.8127491e-01 5.0090536e-02 
1.3509461e-01 2.8748676e-01 3.5804942e-02 
-8.5009970e-02 -9.0912148e-02 -3.2836160e-01 
1.0229201e-01 2.8909165e-01 1.3213432e-02 
-3.4625575e-02 -1.9178197e-02 -1.3286476e-01 
1.3101521e-02 -2.7488971e-02 -2.1128589e-01 
6.6322163e-02 2.7991727e-01 8.7773753e-03 
-1.2678553e-02 -1.4662479e-02 -1.0462251e-01 
4.6814159e-01 -1.4212616e-01 -9.2558056e-02 
1.8335002e-02 -1.5889542e-02 -3.5439700e-01 
2.3779130e-02 2.3968811e-01 -1.7226402e-02 
-2.9751638e-01 -7.4181303e-02 -1.5256887e-03 
5.5465352e-02 -3.1432453e-01 -5.8974631e-02 
-1.3573493e-01 1.6081381e-01 -4.9846854e-02 
4.3279085e-01 3.4167737e-01 8.6176485e-02 
-1.6462764e-01 7.5330429e-02 -4.3930665e-02 
-1.4236119e-01 2.5494507e-02 -1.6685931e-02 
6.0352958e-03 -2.3610132e-02 -1.4627749e-01 
4.9192463e-03 -1.1293111e-02 -3.3730157e-02 
-1.3380744e-02 -1.7112348e-02 -2.7197772e-01 
-2.8133139e-02 -5.4922134e-02 -2.1904437e-01 
6.9045904e-03 -8.7213702e-03 -3.2441068e-02 
-1.5774590e-01 -4.6182594e-01 4.0515330e-02 
1.2975712e-03 -7.8143096e-03 -3.0075690e-02 
-3.5181779e-02 -9.4188005e-03 -1.1075579e-01 
1.0238918e-02 -2.4245227e-02 -7.9662688e-02 
-3.7411209e-02 -4.5667499e-02 -2.5093254e-01 
-3.3273110e-03 -1.9827092e-02 -1.7769268e-01 
-1.5384109e-02 -1.1359134e-02 -7.8654274e-02 
4.2137178e-03 -1.6276630e-02 -4.3328814e-02 
-7.8084178e-02 -1.3959372e-01 -3.5519156e-01 
2.1411002e-01 -1.6400748e-01 -9.7867005e-02 
-2.4239523e-03 -1.3536650e-02 -1.0216915e-01 
-2.0396997e-01 -1.1743311e-02 -1.6824309e-02 
-8.6942643e-01 -1.0067588e+00 1.8221368e-01 
-8.2261525e-02 -4.3383485e-01 -3.4253184e-02 
-6.1751705e-01 -1.2285693e+00 2.0075740e-01 
3.4722915e-01 3.8230363e-01 8.1284992e-02 
-1.2749724e-02 -1.1613053e-02 -7.5879686e-02 
3.8266462e-01 2.3498070e-01 -2.5454298e-02 
-5.8917464e-03 -4.3474343e-02 -4.0860260e-01 
1.9894612e-01 2.9020733e-01 4.9112912e-02 
1.4058846e-01 2.6540536e-01 4.1568641e-02 
-8.9977331e-02 3.6040619e-01 -6.1245255e-02 
-3.0072102e-01 -1.4570914e-01 3.1534016e-02 
-1.6707171e-03 -1.7571526e-02 -8.3622575e-02 
1.0626248e-01 2.6109365e-01 2.0642398e-02 
7.9705767e-02 2.5832462e-01 6.7534940e-03 
-1.0776063e-01 -8.2997039e-02 -4.4289419e-01 
3.7278548e-02 2.6540235e-01 -2.7782211e-02 
3.6232088e-02 -5.6939158e-03 -2.9936489e-01 
-2.0528187e-01 1.5774564e-01 -9.2832379e-02 
1.5319331e+00 4.6722078e-01 9.0284154e-02 
-1.7402385e-01 4.6020813e-02 -2.6129842e-02 
-2.1812735e-02 -3.9792001e-02 -1.7660800e-01 
5.5355607e-03 8.3284290e-04 -4.9598970e-02 
1.9800377e-03 -3.4427349e-02 -2.1190567e-01 
4.9637634e-02 -2.8978789e-01 -5.6554634e-02 
-2.1694194e-01 -6.0244614e-01 4.4109076e-02 
-2.4557070e-01 -5.2434143e-02 -9.8530587e-04 
2.3119787e-02 -3.3641566e-02 -1.3253693e-01 
8.4201796e-03 -2.6996825e-02 -3.0105019e-02 
1.2125607e-03 -4.7580078e-03 -5.4326233e-02 
3.5085011e-01 2.7390698e-01 6.9982305e-02 
2.7272028e-01 -1.0831447e-01 -6.0259540e-02 
-8.0843443e-01 -6.4189130e-01 1.2442431e-01 
1.8171960e-02 5.5002985e-03 -9.0193942e-02 
1.7015699e-02 -2.0003468e-02 -4.3438351e-01 
-1.8197129e-03 -1.9762060e-03 -4.7355846e-02 
-7.4774129e-03 -5.4907948e-03 -6.1505463e-02 
-2.0351199e-02 -3.6687959e-02 -4.1004902e-01 
5.1357979e-03 4.9095149e-03 -8.8125564e-02 
-7.1416544e-03 -8.5691055e-03 -3.4219187e-01 
-1.1877138e-02 -2.4796524e-03 -3.3736959e-02 
-4.4843913e-03 -5.6575541e-03 -8.0771752e-02 
-7.0575938e-02 1.2669474e-01 -3.4297213e-02 
-4.7933988e-02 -1.0685615e-02 -1.1542644e-01 
-3.6081071e-03 -2.0021975e-02 -7.7359170e-02 
-5.2389402e-02 -4.5850761e-02 -1.9752619e-01 
2.0446913e-01 2.7201274e-01 6.7510642e-02 
-1.7484818e-02 -2.9963437e-03 -1.0538746e-01 
1.4115298e-01 2.3967983e-01 3.9839156e-02 
-3.2454278e-02 -2.3974972e-02 -3.0708778e-01 
1.1249982e+00 2.0430209e-02 -8.7564774e-02 
1.1156885e-01 2.3375425e-01 2.9546034e-02 
1.7809573e-01 -1.6193968e-01 -7.6423876e-02 
8.9095190e-02 2.3492290e-01 2.2964234e-02 
3.5001361e-01 2.0660561e-01 6.7036912e-02 
2.1014223e-03 -3.0333575e-02 -4.0210404e-02 
1.8329298e-02 2.1442670e-02 -3.1463557e-01 
-7.1911320e-02 -4.0499827e-01 -2.9328922e-02 
-8.5844612e-01 -1.2756546e+00 1.3542415e-01 
4.8681423e-02 2.1822149e-01 9.8864548e-03 
-3.5827700e-03 -6.3094712e-04 -7.9073519e-02 
-1.8432342e-01 5.8167060e-03 -2.2328705e-02 
2.2525318e-01 2.3572606e-01 5.6839731e-02 
-3.9188918e-01 -2.0418714e-01 2.1385545e-02 
7.3725688e-03 -5.5895392e-03 -5.4926578e-02 
1.8766468e-02 2.0204659e-01 -7.2554247e-03 
7.8277625e-03 2.3899595e-03 -4.3264158e-02 
-3.6471933e-02 -5.3109627e-02 -1.6304834e-01 
-1.1538628e-02 -1.4649014e-02 -1.1398564e-01 
2.5184343e-02 -2.3004055e-02 -1.4789331e-01 
8.1205033e-03 -2.2089916e-05 -5.1111352e-02 
-1.5850718e-03 -7.6881787e-03 -7.2707117e-02 
-2.2853726e-01 8.9786440e-02 -4.4946849e-02 
-6.1374463e-02 3.1975842e-01 -7.0271060e-02 
-5.8393702e-02 -3.8079582e-02 -5.2016920e-01 
2.9740056e-01 -1.4197271e-01 -7.5028539e-02 
-2.8832795e-02 -9.1608316e-02 -1.0511458e-01 
4.4559367e-02 -2.7491778e-01 -5.0877798e-02 
-2.2868070e-01 -4.7378875e-02 -9.7380625e-03 
-1.0516797e-01 -3.5558879e-01 1.9638067e-02 
3.2031211e-01 2.6419935e-01 4.6649225e-02 
1.7486775e-03 -3.2364100e-02 -1.8059476e-01 
7.5618376e-04 -2.4033214e-03 -2.3728088e-02 
1.2381409e-02 -9.1441572e-03 -4.7408246e-02 
-4.7860123e-02 -6.8684697e-02 -2.0821320e-01 
-8.7674905e-04 -3.7947118e-03 -1.7611867e-01 
1.1287016e-01 2.1007361e-01 4.4464320e-02 
-1.3543212e-01 1.5222378e-01 -4.7687497e-02 
1.5452881e-01 2.2814515e-01 4.4267852e-02 
1.8489641e-03 4.0581310e-03 -3.3517826e-02 
8.8014044e-02 2.1321677e-01 2.9473314e-02 
9.0545695e-03 -1.4539445e-03 -3.2658763e-02 
-6.6868439e-03 -8.8420184e-03 -1.4207076e-01 
3.4020245e-02 2.2107540e-01 -3.0997051e-03 
-1.0771599e-02 -1.2734352e-02 -1.0239806e-01 
5.9429608e-02 2.1600485e-01 -2.7037587e-03 
3.5370201e-02 -3.0521250e-03 -1.7168558e-01 
1.3056417e-02 7.8549413e-03 -1.8327092e-01 
-2.8198574e-02 -1.8736081e-02 -1.3082857e-01 
6.7283097e-03 -7.4844531e-05 -1.2713648e-01 
1.6538587e-01 -1.7615883e-01 -8.5318036e-02 
-5.0676897e-02 -3.1903955e-01 -3.4415152e-02 
-5.5492866e-01 -1.1651422e+00 1.5137881e-01 
-7.7452296e-01 -9.0219533e-01 1.4428832e-01 
2.1770572e-02 1.3370845e-02 -3.0606824e-01 
3.8417361e-03 -2.0253507e-03 -1.0253089e-02 
-1.7924753e-01 1.4475481e-02 -3.1287253e-02 
7.6633068e-03 -7.0902216e-04 -7.5567633e-02 
4.9206614e-04 -1.8953511e-02 -1.2003942e-01 
2.5750908e-01 2.8183088e-01 7.2597854e-02 
5.2442062e-01 2.6868975e-01 4.2429768e-02 
-9.7503737e-03 1.1211070e-02 -4.9817659e-02 
-2.2509877e-01 -9.3984298e-02 1.9584200e-03 
-4.7171144e-03 -2.6047206e-02 -6.6737145e-02 
-1.1362757e-02 -8.3598867e-03 -3.6711231e-02 
-2.4606995e-02 -4.3600541e-02 -2.6874116e-01 
3.4774474e-03 2.9263042e-03 -2.8167481e-02 
-9.5128357e-02 6.5304905e-02 -2.7338378e-02 
8.2711512e-03 -2.1404576e-02 -1.5442716e-01 
-2.0012159e-02 -1.6041992e-02 -7.9269677e-02 
-1.5189325e-02 -4.9483362e-03 -3.5451090e-01 
-9.2406832e-02 -3.1191051e-01 1.2509704e-02 
-3.4199409e-02 -1.8307479e-02 -1.4427672e-01 
1.1460008e-01 1.5321383e-01 4.4618737e-02 
1.8753876e-01 -1.1568982e-01 -4.2753328e-02 
1.0942405e-01 1.8320154e-01 4.0503748e-02 
3.9689556e-02 -2.4789165e-01 -4.8420075e-02 
5.4832727e-01 -6.9074102e-02 -6.3629001e-02 
9.2581451e-02 1.9133031e-01 2.3695638e-02 
-4.6019394e-02 -6.9470644e-02 -9.6385986e-02 
6.4872555e-02 1.8925801e-01 1.2767830e-02 
1.7046144e-02 1.7912836e-04 -6.3380316e-02 
-1.8574531e-01 -3.5226747e-02 -1.3496630e-02 
4.3601431e-03 -8.1859315e-03 -7.2710656e-02 
4.6187121e-02 1.8773925e-01 1.3418476e-02 
2.9445118e-01 2.3513106e-01 5.2405491e-02 
-6.0019338e-01 -4.5576504e-01 1.0764416e-01 
-8.5156150e-02 1.4879370e-01 -3.3546608e-02 
1.0140605e+00 2.1681692e-01 5.0157934e-02 
-1.2644845e-01 4.7792170e-02 -2.8739734e-02 
-4.4477314e-02 1.9153227e-01 -2.3178160e-02 
2.2841427e-03 8.3504344e-04 -1.2889688e-02 
1.5842605e-02 2.5220379e-01 -1.5401390e-02 
-3.3595290e-02 -1.9876376e-02 -4.4262454e-01 
7.6514971e-03 -7.3959283e-03 -8.8178255e-02 
8.0670919e-03 -1.7831376e-02 -7.7182956e-02 
-1.2720996e-02 -4.9365009e-03 -5.0773613e-02 
-6.5994645e-03 5.0851554e-03 -9.1181397e-02 
-1.5689647e-03 -7.7204751e-03 -6.2450025e-02 
-2.3678498e-02 -2.0903395e-02 -2.2473080e-01 
-8.7778078e-04 -1.2600589e-02 -8.2375128e-03 
-1.4639465e-03 -3.5517178e-02 -1.3711913e-01 
1.1940077e-02 -6.2557119e-03 -4.4716224e-02 
1.4060996e-01 -1.7617372e-01 -6.6036485e-02 
-5.0219588e-02 -3.2781377e-01 -3.0368639e-02 
-8.3201174e-03 -2.4470375e-03 -1.1465246e-01 
-1.4262255e-01 1.7334659e-02 -2.6307514e-02 
2.4826068e-02 1.3861916e-03 -5.4336786e-02 
-2.6807162e-01 -1.1944097e-01 -1.4214953e-02 
2.1931762e-01 2.3750649e-01 5.8540910e-02 
3.4780157e-01 1.8778454e-01 5.2739918e-02 
-8.1144758e-02 6.5892234e-02 -2.5936546e-02 
6.4276285e-03 -3.2010600e-02 -1.0589330e-01 
8.4447525e-03 -1.1440551e-02 -7.0358016e-02 
-2.8669483e-03 1.5241860e-02 -1.5055855e-01 
6.3972645e-03 6.7738090e-03 -7.2394341e-02 
2.6906373e-03 -2.2659861e-03 -4.1899554e-02 
1.2275150e-01 1.7844355e-01 3.2866701e-02 
8.9205228e-02 1.6774109e-01 3.1607248e-02 
-1.7422878e-03 -1.0189819e-02 -1.5569623e-01 
7.2405778e-02 1.7314439e-01 2.6562154e-02 
-6.0988329e-03 4.2935428e-03 -2.4315403e-01 
-1.8956961e-02 -1.4216903e-02 -6.7117259e-02 
4.8981853e-02 1.7024761e-01 2.3398532e-02 
-3.8246971e-02 -2.0924170e-02 -2.6236621e-01 
2.5094178e-01 -1.4792086e-01 -7.9859659e-02 
3.7780236e-03 -3.0815192e-02 -2.4838099e-01 
2.3106596e-02 1.9554903e-01 1.6229089e-04 
-6.4633940e-03 -5.7707705e-02 -3.1732470e-01 
3.4832973e-02 -2.4626574e-01 -4.2971365e-02 
2.9559885e-03 -4.0199244e-03 -5.2407935e-02 
-1.4709347e-01 -4.9509060e-01 6.4506188e-02 
-3.5179324e-02 -5.6948502e-02 -5.1906371e-01 
1.4654056e-03 -1.7522803e-02 -1.3160491e-01 
-7.7340943e-03 -1.2861609e-02 -5.3750362e-02 
-7.0257470e-02 1.2993892e-01 -3.7334662e-02 
-2.7670074e-02 -4.8071660e-02 -1.7069288e-01 
8.7934872e-03 -1.0205093e-02 -2.2510338e-01 
-1.2087267e-02 -7.7963038e-03 -7.5991489e-02 
-7.2168753e-02 -5.5228952e-02 -2.0113342e-01 
-9.5451854e-02 4.7274850e-02 -1.8363381e-02 
-1.5810551e-01 -1.5215285e-02 -2.0526441e-02 
1.4322114e-02 -8.5689137e-03 -2.7610296e-02 
2.6313183e-01 2.1277755e-01 5.7619497e-02 
-1.0262226e-02 -2.6247645e-02 -8.0960386e-02 
2.0529297e-03 -3.6319043e-03 -4.3640815e-02 
-1.0671548e-02 1.9408083e-03 -6.8434536e-02 
-1.9996563e-02 1.6325751e-02 -1.2150466e-01 
1.0757576e-02 8.9341523e-03 -5.9179917e-02 
8.3064046e-03 6.4997654e-03 -3.7703697e-02 
1.5900899e-02 1.0020036e-03 -9.7877741e-02 
-2.5534121e-02 2.4063109e-01 -3.3241916e-02 
-4.0351618e-02 -6.0247127e-02 -3.9678824e-01 
-1.5322723e-02 -2.1866832e-02 -9.4721831e-02 
1.2980376e-01 -1.9180767e-01 -7.1685761e-02 
5.1676118e-01 -7.5731441e-02 -4.9366686e-02 
-1.1264395e-02 -2.6331155e-02 -1.1431330e-01 
1.2077240e-01 1.6270277e-01 4.6916991e-02 
5.5329027e-03 -1.3959665e-02 -5.5083591e-02 
-7.0356481e-02 6.7661040e-02 -2.6292961e-02 
9.5356219e-02 1.5370739e-01 3.4088910e-02 
3.1158337e-01 5.0108943e-02 -2.7417585e-03 
7.4460685e-02 1.5936692e-01 2.8653910e-02 
-5.6143898e-01 -8.5429609e-01 1.9999383e-01 
-5.5879232e-02 -3.4188244e-01 -3.3716742e-02 
3.1110299e-01 1.1774325e-01 3.3156302e-02 
-1.3874550e-01 1.6036104e-02 -1.9345855e-02 
-3.7926587e-01 -4.4438207e-01 1.4596090e-01 
-5.1961129e-04 -1.0651313e-02 -4.0602617e-02 
-7.1608182e-03 6.5448810e-03 -4.9426284e-02 
2.1791081e-01 1.2934440e-01 4.5665007e-02 
6.0489297e-02 1.6253769e-01 1.6949296e-02 
1.5841730e-01 1.5951285e-01 3.9941262e-02 
-2.4068326e-01 -1.4597712e-01 1.1003439e-02 
3.6029741e-02 1.6736148e-01 3.3309199e-03 
-4.1419542e-03 -2.0528711e-02 -1.5983304e-01 
-1.7673451e-01 -1.4263436e-01 3.7324570e-02 
-2.0999043e-01 -4.8192239e-01 9.5890559e-02 
8.9486632e-03 1.5197197e-01 -8.0392940e-04 
-1.4390018e-02 -3.3575702e-02 -1.2310219e-01 
2.8785687e-02 1.0291460e-02 -1.3006325e-01 
2.2017047e-01 -1.4656331e-01 -6.0055967e-02 
-5.2226968e-02 -4.8559524e-02 -1.9472808e-01 
1.0180140e-02 -2.3560224e-03 -1.3826586e-01 
4.3667711e-02 -2.4449709e-01 -5.3577214e-02 
4.4599869e-03 7.4498365e-03 -8.6488605e-02 
-5.2581616e-02 1.1539603e-01 -2.8251996e-02 
3.6964610e-03 -2.7715577e-02 -2.0136744e-02 
-1.0095868e-01 5.5513062e-02 -2.5016176e-02 
2.2599793e-03 1.1644155e-02 -1.2550108e-01 
-5.0450675e-04 -1.8386059e-03 -2.3032852e-02 
4.2867740e-03 -7.6690349e-03 -8.2892135e-02 
-2.7104750e-02 -1.6216038e-02 -1.5349466e-01 
2.0065568e-03 1.9007081e-02 -7.1395472e-02 
-1.1260862e-02 -2.3628458e-02 -1.4834929e-01 
8.4339874e-03 7.6140310e-03 -5.3004056e-02 
-2.7369824e-01 -5.4682400e-02 -2.2493498e-02 
-6.3574919e-03 -1.8966200e-02 -4.9572423e-02 
-7.7172290e-03 -3.3156220e-02 -8.4050573e-02 
-2.2563729e-02 -1.9546608e-02 -1.9474967e-01 
-3.9211527e-02 -1.7580096e-02 -1.0936143e-01 
-2.2549002e-04 -1.3906700e-02 -4.5409527e-02 
9.1641217e-02 1.3266432e-01 2.8731607e-02 
7.5373307e-02 1.7416826e-01 3.5684943e-02 
7.6708354e-02 1.4019558e-01 2.9027702e-02 
5.5366312e-03 6.7516430e-03 -7.2831057e-02 
1.0108969e-03 -7.8802193e-03 -2.5919775e-02 
-6.7834832e-02 8.0607422e-02 -2.7911259e-02 
2.9371411e-01 2.3686662e-01 4.9683481e-02 
-2.1608382e-02 2.1156551e-01 -3.3836633e-02 
-1.0029433e-01 -3.7712497e-01 2.5950391e-02 
-1.8762963e-02 -2.5798455e-02 -5.8163892e-02 
5.6320298e-02 1.7285523e-01 3.0835746e-03 
2.5099240e-02 1.8650366e-01 -9.5477712e-04 
-1.4654651e-01 3.2769594e-02 -2.6113976e-02 
-2.6472071e-02 -7.0656702e-02 -1.2466169e-01 
1.5128602e-01 -2.3678625e-01 -9.2055477e-02 
1.7747219e-01 1.8960755e-01 4.5725659e-02 
-2.7775543e-03 -4.3889103e-03 -3.9387736e-02 
-1.2916568e-01 -5.8317974e-02 1.0630039e-02 
-6.5005302e-02 -6.6660136e-02 -2.5587761e-01 
-1.2964016e-01 -9.5428102e-02 2.6475664e-02 
-3.1670701e-02 -2.7179167e-01 1.1226910e-03 
-1.2912701e-01 -1.2283215e-01 4.0180966e-02 
2.6456335e-01 1.6846899e-03 -3.0055273e-02 
2.2878103e-01 5.4822695e-02 6.8998816e-03 
2.3824297e-01 1.1902627e-01 1.5136017e-02 
-1.2047496e-01 -2.1122009e-01 5.4829389e-02 
-1.4150265e-01 -2.1488272e-01 9.0281904e-02 
-1.5584873e-02 5.9258705e-03 -1.3741347e-01 
-7.0581712e-02 -1.7752619e-01 3.4548249e-02 
2.2943018e-01 -7.1254298e-02 -2.8923944e-02 
1.2672782e-01 -1.0075439e-01 -5.0185990e-02 
-5.0103739e-03 -9.8749129e-03 -3.2839999e-02 
-3.6229238e-02 8.4534131e-02 -2.2750996e-02 
1.2085072e-03 -1.3296464e-02 -1.0692874e-01 
-4.8396137e-02 -2.1979362e-02 -2.6473394e-01 
4.1844301e-02 -1.9968536e-01 -6.1227866e-02 
-3.1357676e-02 -4.0028509e-02 -8.7668367e-02 
-1.0189306e-01 -1.2510349e-01 4.2765830e-02 
5.5241860e-03 1.0324018e-02 -1.3290875e-01 
7.9888869e-03 1.1010073e-02 -6.8614781e-02 
6.2199710e-03 -5.1840413e-03 -8.7942116e-02 
-4.6415227e-03 -1.0686931e-02 -3.3899505e-02 
-1.5572578e-02 -1.4484447e-02 -1.4798291e-01 
5.6333352e-02 7.7432975e-02 2.7592786e-02 
4.5472056e-02 7.3160917e-02 2.1357872e-02 
4.6127550e-03 -1.6505849e-02 -8.5432939e-02 
3.5523218e-03 -6.0379123e-03 -2.3580844e-02 
-4.6996009e-03 -1.2612809e-02 -5.1900487e-02 
-5.0369999e-03 2.9382979e-02 -1.9764851e-01 
3.0774228e-02 6.8983110e-03 -1.1395650e-01 
-5.1188478e-03 -9.3568545e-03 -2.1148022e-02 
5.3767366e-03 4.3740454e-03 -1.9893622e-02 
1.2424366e-02 1.2291163e-02 -5.1816199e-02 
-8.3610034e-03 -1.3990506e-02 -5.0667815e-02 
-2.7304308e-03 -2.1473325e-03 -2.1560602e-02 
-1.0036204e-02 -1.1201325e-02 -5.7206530e-02 
-8.3407769e-03 -8.5017039e-03 -9.5781364e-02 
-1.8222803e-02 -2.3388859e-02 -1.9610487e-01 
-2.1340992e-02 3.9170659e-03 -1.1606449e-01 
-2.7856566e-02 -4.0840127e-02 -1.4866118e-01 
-1.2479904e-02 -2.2518560e-02 -2.0669794e-01 
1.0591635e-02 -3.2096367e-02 -2.6931721e-01 
-7.6551065e-03 -4.2180523e-02 -2.2101678e-01 
-1.6975675e-02 1.1851174e-01 -1.5890624e-02 
1.2562368e-02 1.7429669e-01 -5.5585559e-03 
-5.8435157e-02 1.2398610e-01 -4.1503765e-02 
4.3229837e-02 1.7701977e-01 1.7392036e-02 
-1.3350332e-01 1.0366419e-01 -5.3141791e-02 
6.5554105e-02 1.7168543e-01 3.4190688e-02 
-7.0620924e-02 2.0483745e-02 -1.8860403e-02 
9.9955678e-02 1.8480860e-01 5.1569626e-02 
-1.4432998e-01 -2.0103478e-03 -3.2463338e-02 
8.6234473e-02 1.2396682e-01 3.2680031e-02 
-1.2990560e-01 -4.2806897e-02 -1.1119645e-02 
8.9322522e-02 9.4762020e-02 2.4685098e-02 
8.8199582e-03 -2.2764344e-02 -1.5845113e-01 
-1.1218177e-01 -5.8970660e-02 1.7393888e-03 
1.6757075e-01 1.4060304e-01 3.1697977e-02 
-1.1189836e-01 -8.9875102e-02 1.5377071e-02 
1.7518219e-01 1.0272653e-01 2.4221491e-02 
-1.0194997e-01 -1.0415556e-01 2.0432428e-02 
1.5635544e-01 6.3233316e-02 1.4615466e-02 
-9.7287372e-02 -1.2764016e-01 2.4499042e-02 
1.5922053e-01 1.7173318e-02 2.1031075e-04 
-8.5791729e-02 -1.4753623e-01 3.2761019e-02 
1.5314557e-01 -2.2275770e-02 -1.6877886e-02 
-7.4145794e-02 -1.5339167e-01 3.2542963e-02 
1.2224707e-01 -6.2870398e-02 -2.9980188e-02 
-6.3320421e-02 -1.7446022e-01 3.4897689e-02 
3.0895614e-03 -9.2505543e-03 -1.9269343e-01 
1.0495199e-01 -1.1555334e-01 -3.8963269e-02 
-3.8365573e-02 -1.8683927e-01 9.1612022e-03 
6.0756788e-02 -1.6213436e-01 -3.9161958e-02 
-1.3725957e-02 -1.7531367e-01 -6.5059960e-04 
1.7645404e-02 -9.8954514e-02 -1.3976472e-02 
4.9436176e-03 4.7936337e-03 -6.7297980e-02 
1.6569678e-02 1.2343785e-03 -1.0917151e-01 
-1.4956205e-03 -8.1451982e-03 -6.4417981e-02 
-3.9919131e-03 -1.0797607e-02 -4.6770290e-02 
-2.1752340e-03 -3.5286724e-04 -8.5755147e-02 
-5.8181146e-03 -3.6129863e-05 -1.4102356e-01 
4.1453131e-03 1.1718923e-02 -2.5514176e-02 
-7.8648124e-03 -2.3618303e-02 -6.3433096e-02 
2.5191787e-03 1.5603491e-02 -7.9349607e-02 
-4.8090496e-05 -2.2978273e-03 -3.8394831e-02 
-1.1785778e-02 7.6562655e-04 -6.0720168e-02 
-5.8782143e-03 -1.3263819e-02 -7.4340597e-02 
-1.2721244e-02 -2.4431564e-02 -6.0125194e-02 
-3.4978716e-03 -2.8177737e-03 -7.0861861e-02 
5.1794159e-03 -8.8279741e-03 -2.5330927e-02 
-6.6148364e-03 -1.8759692e-02 -6.3752025e-02 
-2.2539422e-02 -2.7420251e-02 -1.2798694e-01 
-1.9998088e-02 -1.4688336e-02 -2.1330364e-01 
-1.3901340e-03 -5.8572367e-03 -5.1031698e-02 
-4.7892425e-04 -4.0048724e-03 -1.7575609e-02 
-2.2696896e-02 -1.5812332e-02 -1.3278407e-01 
-3.9774883e-03 -1.3298620e-02 -4.0668473e-02 
7.0248957e-04 5.8639850e-03 -1.1673272e-01 
-3.4746118e-02 -3.1789977e-02 -2.3410556e-01 
-3.2124210e-03 -9.7860219e-03 -5.3385925e-02 
-1.3045125e-01 -8.3611356e-03 -3.6550403e-02 
5.6207731e-02 1.8789595e-01 1.9148231e-02 
-1.0936949e-01 -4.8077110e-02 -1.3720932e-02 
8.3174653e-02 1.7642368e-01 1.1786496e-02 
4.0245671e-03 -9.1591878e-03 -1.4934702e-01 
-2.3573866e-02 -3.4525160e-02 -1.5664479e-01 
-1.1234925e-01 -6.4843774e-02 -7.9725347e-03 
-1.0401008e-01 -1.0107161e-01 5.9658065e-03 
-9.4329156e-02 -1.0756189e-01 2.6612140e-02 
-1.3310596e-01 4.9844425e-02 -5.6760930e-02 
-2.8713830e-02 1.7927229e-01 -5.1338181e-02 
1.1614832e-01 6.6329420e-02 8.9243669e-03 
-7.9535902e-02 -1.1761127e-01 3.5671175e-02 
-7.8821369e-02 -1.4750275e-01 4.2766187e-02 
1.2153386e-01 4.4827078e-02 -1.8121319e-02 
1.2677930e-01 1.4279768e-01 1.2415749e-02 
-6.4696051e-02 -1.4805418e-01 4.3180630e-02 
1.2011900e-01 1.8255684e-01 4.4159841e-02 
-4.6988629e-02 -1.4022613e-01 2.5876610e-02 
1.4539175e-01 1.2200579e-01 1.2427081e-02 
7.6443724e-02 -6.3543513e-02 -1.6220629e-02 
-1.8382020e-02 -1.7892355e-01 2.2463806e-02 
2.3113344e-02 1.9598030e-01 -1.4330378e-02 
1.2070950e-01 2.7841975e-03 -2.2655966e-02 
9.5208615e-02 -3.7043393e-02 -3.8555842e-02 
5.2158486e-02 -1.2372388e-01 -3.2874770e-02 
2.9935669e-03 9.3265921e-03 -1.2200796e-01 
1.0988452e-02 -1.6383250e-01 -4.0761277e-02 
-2.0225444e-03 4.4123637e-05 -1.1137574e-01 
-3.1030895e-03 -7.9825465e-03 -2.8356908e-02 
-8.9471582e-03 -7.9135876e-03 -1.3731001e-01 
-1.1595213e-01 1.7897281e-01 -1.4692147e-01 
3.0035698e-03 2.4796417e-04 -6.9599174e-02 
-2.6565775e-02 -2.6193289e-02 -1.5680292e-01 
1.1021267e-02 -4.6346537e-03 -1.8605404e-01 
-8.7150931e-03 8.3761364e-03 -8.5865997e-02 
-1.0636606e-02 -9.1766492e-03 -7.1697786e-02 
-1.8132459e-02 -2.4745429e-02 -1.3555348e-01 
-1.4436768e-02 -1.7465569e-02 -2.6534182e-01 
-4.8141996e-03 -2.6774704e-03 -7.4301690e-02 
7.0899021e-04 -2.4297500e-02 -9.4450302e-02 
-1.0808547e-02 -9.5009124e-03 -2.9134265e-01 
9.4353044e-03 7.3831662e-04 -2.7454106e-02 
-1.0031749e-02 1.3699662e-03 -4.9063455e-02 
-2.4891367e-02 -2.7588822e-02 -1.2603328e-01 
5.4958374e-03 -1.1190940e-02 -9.0316504e-02 
-1.0315835e-02 -8.7314667e-03 -7.2531179e-02 
5.7791541e-03 -1.5276961e-02 -8.8566884e-02 
-1.0627808e-01 -5.8376461e-02 -1.4852981e-02 
9.6717253e-03 -1.8107142e-02 -1.0768036e-01 
-7.8173131e-02 -9.8772325e-02 2.2681227e-02 
9.1759011e-02 3.6839005e-02 -2.6001902e-03 
6.4969040e-02 1.5170088e-01 1.7395744e-02 
7.7894345e-02 -3.6312088e-02 -1.8014424e-02 
1.2201438e-01 9.4096601e-02 1.8274285e-03 
5.3804614e-02 -1.0656513e-01 -3.1358283e-02 
-1.2515120e-01 -8.9767620e-02 9.4259583e-04 
-1.1911443e-01 -1.2339417e-01 1.6722884e-02 
-3.8500071e-02 -1.2896588e-01 3.3502787e-02 
-6.7736603e-02 -1.0991456e-01 1.6123943e-02 
-1.6448084e-01 -2.1285970e-02 -4.7322925e-02 
1.6572564e-04 -7.6251524e-03 -1.0719661e-01 
1.1847368e-01 1.9640742e-01 2.4660520e-02 
1.3373743e-01 4.1205913e-02 -3.5739508e-02 
-1.4306094e-01 4.4065841e-02 -7.1579345e-02 
1.1805410e-02 -6.1804927e-03 -8.1495292e-02 
-2.8650044e-02 1.8376648e-01 -4.6943050e-02 
1.8920657e-01 2.0533796e-01 2.6883466e-02 
1.2394057e-01 -2.6101356e-02 -7.2350137e-02 
-1.4837782e-03 -1.2441869e-02 -4.4564217e-02 
-1.4697112e-02 -4.7433313e-02 -1.5496334e-01 
-3.3946685e-02 -1.8112411e-01 2.0966774e-02 
-1.8064568e-02 -2.3085976e-02 -2.4080504e-01 
3.6422033e-02 -1.9858547e-01 -3.6755066e-02 
5.9057239e-02 2.4982570e-01 -4.9190007e-02 
-8.7217009e-03 1.1021846e-02 -2.6336765e-01 
-2.0226592e-02 -5.5826519e-02 -1.8390054e-01 
-1.8046102e-02 -4.5423597e-02 -1.5872525e-01 
-5.8482848e-03 9.5667820e-03 -7.3709406e-02 
-1.1485093e-01 -2.1178748e-01 2.2445923e-02 
-1.0627230e-02 -1.4276681e-02 -1.2906279e-01 
-3.3471058e-04 6.6957297e-04 -6.4070269e-02 
4.6669780e-03 2.5327064e-03 -1.0981781e-01 
6.3432945e-04 -5.5527175e-03 -9.9520288e-02 
1.0382060e-02 3.0592179e-02 -9.7287625e-02 
-8.9183217e-03 -8.6213788e-03 -3.5261456e-02 
-1.2633167e-02 1.0447245e-02 -6.4466693e-02 
-1.5557706e-02 -2.0402748e-02 -6.7154922e-02 
-1.1309472e-02 6.7824740e-03 -1.1385433e-01 
-8.1792280e-02 1.1732691e-01 -7.4402310e-02 
-9.5114876e-03 5.2459016e-03 -8.9969061e-02 
5.5770176e-03 -1.0139549e-02 -1.3576700e-01 
5.2968133e-03 1.1929388e-02 -8.2685195e-02 
1.0439112e-02 2.1795284e-02 -1.6452523e-01 
-1.1010001e-02 -1.7352284e-04 -7.8744367e-02 
-6.7026360e-04 7.7022269e-04 -1.1931108e-01 
-1.7084600e-01 -8.0112822e-02 -3.6512051e-02 
2.0160958e-01 1.3233137e-01 -5.4029003e-03 
-1.3897938e-01 -1.3290401e-01 1.7809534e-02 
-1.9483389e-02 -1.8887369e-02 -8.6192258e-02 
-3.4705300e-03 -1.7549235e-03 -4.7937762e-02 
-1.5875129e-01 -2.2741985e-01 6.0203593e-02 
1.0197556e-01 2.0062852e-01 5.9453346e-02 
-4.8645161e-02 -1.6845958e-01 4.5430698e-04 
1.3609748e-01 -1.4873776e-01 -8.4491268e-02 
2.0333369e-01 2.1280015e-02 -1.2998684e-01 
-3.5316095e-02 -2.7785547e-02 -1.9041187e-01 
-1.4372566e-01 3.1020725e-02 -9.6578673e-02 
1.6646285e-01 1.9640756e-01 7.8770489e-02 
1.8688317e-02 2.9476304e-02 -1.3936365e-01 
-5.8184867e-03 1.4111684e-01 -4.2111751e-02 
2.0823492e-02 1.8525025e-02 -1.7716521e-01 
-7.0731109e-04 -2.2559941e-02 -1.1915862e-01 
-6.6390884e-04 -3.5833148e-03 -1.7918037e-02 
1.1314590e-02 1.4016430e-02 -2.1534678e-01 
-4.5955940e-03 -1.6517824e-03 -6.9813065e-02 
-1.8487366e-02 -1.7274808e-02 -1.1552510e-01 
1.9762792e-02 -1.9716357e-01 -4.2709745e-02 
-2.8191412e-02 -4.0956922e-02 -1.3841797e-01 
5.2342162e-04 3.8112320e-03 -1.0872016e-01 
-7.6437150e-03 -2.7283635e-02 -1.4970030e-01 
3.0823963e-02 1.2623219e-01 2.1937819e-02 
-2.1674912e-03 -1.0196057e-02 -1.1400784e-01 
-8.8841831e-03 -9.6924352e-03 -9.9395186e-02 
-1.8929537e-02 -2.2095289e-02 -1.0427187e-01 
-1.6684009e-02 -5.9260721e-03 -1.0986467e-01 
6.3877157e-03 -8.4955404e-03 -8.0707327e-02 
-5.4569781e-04 9.1239568e-03 -1.4250766e-02 
-6.7398087e-03 2.1306638e-02 -8.9126930e-02 
-5.9935387e-02 8.1917055e-02 -5.5844378e-02 
-8.1692450e-02 -1.4251468e-01 2.7985297e-02 
-8.6388044e-02 -1.6394053e-02 -2.5963882e-02 
-4.7344710e-03 -1.5689908e-02 -4.9917717e-02 
-9.3816342e-03 -9.0931790e-06 -1.0465440e-01 
-3.4005951e-02 -1.1761983e-01 -1.4786791e-02 
-8.3552398e-02 -7.6339364e-02 -1.1630774e-02 
3.6364738e-03 1.8136306e-02 -1.0148880e-01 
8.8318903e-03 1.4691521e-02 -1.0289147e-01 
-7.2015985e-03 -1.0127993e-02 -4.4441793e-02 
-4.2148898e-04 2.3323186e-02 -1.4278565e-01 
-6.0450197e-03 -1.4849644e-03 -6.7041107e-02 
-1.2634636e-02 -2.3655238e-02 -1.2851693e-01 
6.2382393e-02 1.0499606e-01 1.1032050e-02 
4.6337387e-03 -7.9620872e-03 -1.2322324e-01 
-3.0663207e-02 -3.5607345e-02 -1.0289949e-01 
1.5936564e-01 7.8786425e-02 -4.0522467e-02 
-2.6747696e-02 -2.1431141e-02 -1.1247113e-01 
1.5073156e-03 8.7860614e-02 -3.1001508e-02 
-1.3591150e-02 -2.3133080e-02 -1.1238838e-01 
-7.1872465e-02 1.2894005e-02 -3.5338327e-02 
6.6577412e-02 6.7717850e-02 1.0530096e-02 
-2.5600981e-05 -3.5606369e-03 -8.7116636e-02 
1.0986657e-01 -7.6469474e-02 -1.4515658e-01 
4.3528736e-02 9.5579915e-02 1.1215551e-02 
9.4753988e-03 -1.0059374e-01 -5.5070762e-02 
-7.1791746e-03 -1.1823302e-02 -8.7305441e-02 
4.3128809e-04 -1.0885578e-03 -7.1899191e-02 
-3.8874179e-02 -1.8041397e-02 -6.2738340e-03 
-7.7018961e-02 -9.0389423e-02 2.5673714e-02 
-3.9077327e-02 -6.5369777e-02 5.2358121e-02 
-2.6598493e-02 -4.9536712e-02 1.8941684e-02 
-6.6728075e-03 4.1016564e-03 -5.6009978e-02 
-4.1818339e-03 4.2248447e-03 -7.7322423e-02 
-1.4450738e-02 -1.0112314e-02 -9.3435004e-02 
-3.0732423e-03 -3.7796630e-03 -7.8530006e-02 
3.5073012e-03 1.1180693e-02 -9.1786467e-02 
1.0854455e-02 1.8758101e-02 -1.1815756e-01 
-5.6763943e-03 6.8839001e-03 -5.0869115e-02 
5.9101144e-03 1.3298779e-02 -5.8953565e-02 
-1.5535098e-02 3.1616673e-02 -1.8533802e-02 
-1.1179176e-02 -4.3978056e-04 -3.5933923e-02 
-4.8632142e-03 1.5277739e-02 -9.1438130e-02 
4.4080196e-03 7.3252614e-03 -6.1245915e-02 
-1.6237390e-03 1.1030022e-03 -4.4824447e-02 
-9.0331743e-03 -8.5640345e-03 -4.7123007e-02 
4.1814456e-03 -2.5867077e-04 -4.0627688e-02 
-4.4974131e-03 -7.9389708e-03 -3.5894051e-02 
1.5709059e-02 2.2614850e-02 -4.6832159e-02 
-1.3610004e-02 -1.0826682e-02 -4.8384983e-02 
-1.3001453e-02 -9.2808427e-03 -6.9882005e-02 
-1.0689296e-02 -2.5127515e-02 -5.1551070e-02 
-3.1012245e-03 -7.2390772e-03 -1.8103091e-02 
-1.4527825e-02 -1.7187737e-02 -6.3579530e-02 
-1.9338546e-02 -2.7972927e-02 1.5613923e-02 
-1.2788890e-02 -1.9853868e-02 -8.1618652e-02 
-2.5020860e-04 1.7511787e-02 -7.4285436e-03 
1.6302735e-02 2.5308456e-02 1.0027673e-02 
1.2165952e-02 2.8784540e-02 -1.9439866e-03 
-1.5706690e-02 2.6946524e-03 -1.6050356e-02 
1.5056695e-02 2.5626360e-02 1.9799812e-02 
3.0051803e-02 1.6188575e-03 -2.1954417e-02 
-1.8514171e-02 -8.6618252e-03 -9.9321725e-03 
1.4574567e-02 1.8231353e-02 2.1560738e-02 
1.3555741e-02 -2.1943614e-02 -4.0532786e-02 
-4.5051784e-03 -1.6964581e-02 -1.0624750e-02 
2.0019364e-02 8.8563114e-03 -7.5650401e-03 
-1.3283430e-02 -9.0114102e-03 -4.3037619e-02 
2.9393088e-03 7.2268541e-03 8.4518287e-03 
-1.2025500e-02 -1.9222727e-02 -4.4676079e-03 
6.6593720e-04 3.0256049e-03 -1.0615545e-02 
3.7000449e-03 3.1329850e-03 -3.1965747e-02 
1.2043375e-02 -5.0692768e-03 -1.0007151e-02 
-1.1399169e-03 -4.7020577e-03 1.0254076e-02 
-9.8017221e-03 -5.8917440e-03 -3.4352681e-03 
-4.3420806e-03 -5.0938376e-03 1.9740643e-02 
-6.5049422e-03 -2.8822890e-03 -6.4361975e-02 
-6.4144675e-03 -5.3309808e-03 1.5991919e-02 
-1.3497052e-03 2.8298877e-03 -7.1448046e-03 
-1.0281450e-03 -1.4718090e-03 1.0880043e-02 
1.1150159e-02 1.0270626e-02 -3.6331818e-02 
7.4490899e-04 -2.6040559e-04 -4.4137448e-02 
-3.1297733e-03 -2.8559987e-03 8.7180538e-03 
-1.5881994e-03 -9.4824135e-03 -1.8002300e-02 
7.5421911e-03 1.5394962e-02 -5.3143144e-02 
1.1356430e-03 1.2287918e-02 -2.8503215e-02 
-1.1181177e-02 -1.1379224e-02 -2.9142987e-02 
-5.4385699e-04 -2.2556100e-04 -4.2093443e-03 
-9.8737562e-03 -1.0941461e-02 -1.5326657e-02 
3.0566794e-03 1.7813820e-02 -4.6846278e-02 
-6.8717363e-04 -1.0524638e-03 -4.9720812e-03 
1.6734792e-02 2.4665853e-02 -5.1051132e-02 
-4.0057111e-03 9.2570325e-03 -1.8156260e-02 
8.0625238e-03 2.3989931e-02 -1.8665683e-02 
-7.6103937e-03 -9.0878364e-03 -1.7273752e-02 
-4.6992081e-04 1.4647932e-03 -2.3019750e-02 
-7.8191264e-03 -3.7726958e-03 -4.1693181e-02 
-1.0447785e-02 -9.0347072e-03 -4.3956973e-02 
-1.5629561e-03 -3.6640135e-03 -7.4199243e-03 
-1.4694524e-02 -1.6622579e-02 -1.6536167e-02 
6.1267437e-03 1.3867227e-03 6.9296807e-03 
-1.1234096e-02 -1.9936008e-02 -3.0509459e-02 
8.6331449e-04 7.1990537e-04 -1.0495407e-02 
-6.0053994e-03 -2.9464851e-03 -2.2111624e-02 
5.2116849e-03 2.7914811e-03 1.4087688e-03 
1.9103416e-03 6.2030917e-03 1.0308004e-02 
-1.3714010e-03 3.6862455e-03 7.4098334e-03 
-2.0761499e-03 -3.5777953e-04 -6.2474201e-04 
3.3483347e-03 6.0714823e-03 3.9014511e-03 
3.2111625e-03 -1.5574575e-03 3.9201062e-03 
3.4213520e-04 -1.5693478e-03 8.5074306e-03 
1.4174261e-04 4.5657847e-03 1.8614567e-03 
3.2861710e-03 2.1419828e-03 -5.0336025e-03 
-1.8340633e-03 -6.6844444e-03 -1.0270265e-02 
5.2622952e-03 1.6350808e-03 -5.9122453e-03 
-2.7413936e-03 -3.5594963e-03 1.2782462e-04 
-1.5409931e-03 -6.0027414e-03 -1.2984307e-02 
-1.2978375e-03 -4.0639048e-03 3.3226334e-03 
2.6943889e-03 -3.0377230e-03 -6.8116626e-03 
8.3649694e-04 -3.8512289e-03 4.5151906e-03 
-2.6761089e-03 -2.9093358e-03 -1.2148853e-03 
1.4208842e-04 -4.9094688e-03 7.6521249e-03 
-8.3401715e-03 -7.4616638e-03 -2.9846368e-02 
1.1060224e-03 -8.2028535e-04 2.9138194e-03 
5.1249034e-04 8.0694904e-04 8.3717024e-03 
-4.2723799e-03 -5.3767031e-03 6.3423964e-04 
2.8808061e-03 7.7831838e-03 -1.6126120e-02 
-1.7987835e-03 1.4500655e-03 7.0834910e-03 
-2.4608616e-03 6.4694794e-04 7.3415803e-04 
-6.3457103e-03 -4.2194407e-03 2.1847901e-03 
-1.9727903e-03 -1.7464788e-03 -2.3894412e-03 
-2.1324076e-03 -2.0073885e-03 -7.2115059e-03 
1.4564555e-04 4.5693503e-03 -8.4216893e-03 
-2.9743661e-03 -6.9555226e-03 -2.8604986e-03 
-3.0485613e-03 -3.8388935e-03 -1.3982407e-02 
5.5053047e+03 -3.7186646e+03 1.7696350e+04 
6.1884082e+03 -5.9411616e+03 1.4154169e+04 
6.3131523e+03 6.2037422e+03 -2.8300715e+03 
1.4377487e+04 -5.6529675e+02 4.6304473e+04 
2.2649583e+03 -1.3562448e+04 1.9272609e+04 
5.9906270e+03 8.6396670e+03 1.1716567e+04 
2.7002350e+02 5.6394150e+03 -4.9875347e+03 
6.1429995e+03 1.4855819e+04 -2.6089445e+04 
4.5200778e+02 -1.5658830e+04 3.5535840e+04 
2.4830486e+04 9.8645283e+03 6.3172695e+04 
2.8331858e+03 -8.2797764e+03 4.5024164e+04 
-5.9772842e+03 4.2140977e+03 -1.9337191e+04 
6.1918833e+03 6.4417715e+03 -3.7839883e+04 
-8.0342524e+03 -1.9376828e+04 4.4666516e+04 
6.1287583e+03 4.3314502e+03 -9.3722051e+03 
-7.8894253e+03 5.8239849e+03 -1.5602108e+04 
-4.9256255e+03 8.8230781e+03 -6.4397930e+04 
-1.0294756e+04 -1.5357348e+04 2.7265465e+04 
-6.9677651e+03 -8.4659434e+03 1.0880830e+05 
7.8260391e+03 7.5191450e+03 5.9564969e+04 
-1.3166360e+04 2.0329950e+03 -1.9692883e+04 
3.1309250e+03 5.6162412e+03 -4.7679824e+04 
1.1643994e+04 8.8841924e+03 1.8613154e+04 
-1.0813457e+04 -9.6372207e+03 2.8380096e+04 
-1.2107381e+04 8.3749432e+02 -4.0012383e+04 
2.0994893e+03 1.3454673e+03 -1.5020117e+04 
-3.5835291e+03 3.5129402e+03 7.2043555e+04 
-9.0961924e+03 6.3472559e+03 -1.1676249e+05 
4.7648325e+03 8.7081221e+03 4.6820582e+04 
-2.0972391e+04 -1.3211925e+04 5.2828930e+04 
-1.4942757e+04 -4.0392991e+03 -2.5950066e+04 
1.5672423e+04 1.5776648e+04 -5.9383383e+04 
1.0333876e+04 7.2790664e+03 1.7159365e+04 
-1.2398698e+04 -9.3419219e+03 -2.6008219e+04 
-2.0161439e+04 -3.4729138e+03 3.0977590e+04 
-6.2775771e+03 -5.8425537e+03 -5.4260480e+04 
6.0502617e+03 7.5459395e+03 -3.1923896e+04 
6.8224536e+02 1.0733743e+04 3.4752559e+04 
-1.3999195e+04 -1.2419695e+04 -4.2341383e+04 
-2.0360000e+04 4.0039141e+03 6.2460109e+04 
5.8268003e+03 -1.1517421e+04 -7.3303891e+04 
8.3086357e+03 7.7945986e+03 7.0417651e+03 
-8.8915254e+03 -1.6013867e+04 -4.2117012e+04 
-1.3390922e+04 5.4205303e+03 2.3743912e+04 
7.7859502e+03 -2.1590322e+03 -2.5446025e+04 
9.0838506e+03 4.3264199e+03 -1.4161549e+04 
-4.6868721e+03 -1.3970334e+04 -2.3719668e+04 
-4.7842798e+03 7.5732783e+03 1.8837461e+04 
5.1931305e+02 -1.1067353e+04 -1.9036213e+04 
-1.0339603e+03 6.5371797e+03 6.8148569e+03 
2.2447649e+03 -1.2351155e+04 -2.7518332e+04 
1.6973632e+03 4.3838062e+03 1.1475214e+03 
6.7279668e+03 -1.1900188e+04 -2.0620186e+04 
1.7769131e+03 -2.7583550e+03 -5.6931479e+03 
VELOCITY 3 6166  float
-5.5618382e+00 -5.0519471e+00 1.0722240e+00 
-5.5288382e+00 -5.0189204e+00 1.0629988e+00 
-5.5593872e+00 -5.0494380e+00 1.0895692e+00 
-5.5645356e+00 -5.0547113e+00 1.0522509e+00 
-5.5099754e+00 -4.9999895e+00 1.0748966e+00 
-5.5163922e+00 -5.0065298e+00 1.0385475e+00 
-5.4956551e+00 -4.9857106e+00 1.0537221e+00 
-5.5577292e+00 -5.0477419e+00 1.1011451e+00 
-5.5647712e+00 -5.0549545e+00 1.0500530e+00 
-5.5239997e+00 -5.0139828e+00 1.0924728e+00 
-5.5300741e+00 -5.0202303e+00 1.0401410e+00 
-5.4766464e+00 -4.9666328e+00 1.0659798e+00 
-5.4794245e+00 -4.9695320e+00 1.0283709e+00 
-5.4896989e+00 -4.9796519e+00 1.0836529e+00 
-5.4622855e+00 -4.9523144e+00 1.0443932e+00 
-5.5567527e+00 -5.0467434e+00 1.1078011e+00 
-5.4948068e+00 -4.9849353e+00 1.0300661e+00 
-5.5639415e+00 -5.0541067e+00 1.0556310e+00 
-5.5050426e+00 -4.9949880e+00 1.0944482e+00 
-5.5109029e+00 -5.0010266e+00 1.0404291e+00 
-5.4431295e+00 -4.9330878e+00 1.0570118e+00 
-5.4454384e+00 -4.9355183e+00 1.0189556e+00 
-5.4548087e+00 -4.9447317e+00 1.0746806e+00 
-5.4589515e+00 -4.9490519e+00 1.0198239e+00 
-5.4287267e+00 -4.9187293e+00 1.0350113e+00 
-5.4704275e+00 -4.9603424e+00 1.0855792e+00 
-5.5565786e+00 -5.0465674e+00 1.1085916e+00 
-5.4753180e+00 -4.9654140e+00 1.0303588e+00 
-5.5622668e+00 -5.0523939e+00 1.0672970e+00 
-5.4094210e+00 -4.8993516e+00 1.0479918e+00 
-5.4139957e+00 -4.9040465e+00 1.0114852e+00 
-5.4193110e+00 -4.9092035e+00 1.0655506e+00 
-5.4872246e+00 -4.9771528e+00 1.0904220e+00 
-5.4352136e+00 -4.9250979e+00 1.0765553e+00 
-5.4224892e+00 -4.9125619e+00 1.0094098e+00 
-5.4910269e+00 -4.9810934e+00 1.0483233e+00 
-5.5171752e+00 -5.0071311e+00 1.0977808e+00 
-5.4391356e+00 -4.9292030e+00 1.0201230e+00 
-5.3949752e+00 -4.8849511e+00 1.0255762e+00 
-5.5215139e+00 -5.0115833e+00 1.0637720e+00 
-5.4559126e+00 -4.9458122e+00 1.0826299e+00 
-5.4591441e+00 -4.9491920e+00 1.0371169e+00 
-5.5563345e+00 -5.0463195e+00 1.1098297e+00 
-5.5599513e+00 -5.0500245e+00 1.0835577e+00 
-5.3755183e+00 -4.8654222e+00 1.0389196e+00 
-5.3801603e+00 -4.8701854e+00 1.0019237e+00 
-5.3831868e+00 -4.8730493e+00 1.0562581e+00 
-5.3993821e+00 -4.8892355e+00 1.0673708e+00 
-5.3854022e+00 -4.8754463e+00 9.9881798e-01 
-5.4023356e+00 -4.8923755e+00 1.0097159e+00 
-5.3610277e+00 -4.8509793e+00 1.0160862e+00 
-5.4168367e+00 -4.9067039e+00 1.0720510e+00 
-5.4186044e+00 -4.9086137e+00 1.0283144e+00 
-5.4699273e+00 -4.9598341e+00 1.0880835e+00 
-5.5159106e+00 -5.0058494e+00 1.1027634e+00 
-5.5180502e+00 -5.0080490e+00 1.0847518e+00 
-5.4708877e+00 -4.9608722e+00 1.0638943e+00 
-5.3463340e+00 -4.8363318e+00 9.9321955e-01 
-5.3414183e+00 -4.8312960e+00 1.0297925e+00 
-5.3629141e+00 -4.8527369e+00 1.0580207e+00 
-5.3844128e+00 -4.8742514e+00 1.0640018e+00 
-5.3464165e+00 -4.8362484e+00 1.0467975e+00 
-5.5553522e+00 -5.0453162e+00 1.1163539e+00 
-5.5570292e+00 -5.0470343e+00 1.1041640e+00 
-5.3648996e+00 -4.8549118e+00 9.9913460e-01 
-5.3856235e+00 -4.8756151e+00 1.0167283e+00 
-5.3476696e+00 -4.8376870e+00 9.8804605e-01 
-5.3268824e+00 -4.8168087e+00 1.0065433e+00 
-5.3990026e+00 -4.8888483e+00 1.0694844e+00 
-5.3071189e+00 -4.7969728e+00 1.0206147e+00 
-5.3118963e+00 -4.8018737e+00 9.8263299e-01 
-5.3257904e+00 -4.8155828e+00 1.0484995e+00 
-5.3978252e+00 -4.8877487e+00 1.0445149e+00 
-5.3089800e+00 -4.7987838e+00 1.0371634e+00 
-5.3439441e+00 -4.8337507e+00 1.0530105e+00 
-5.3268085e+00 -4.8167930e+00 9.8837394e-01 
-5.3092728e+00 -4.7992630e+00 9.7708511e-01 
-5.3436728e+00 -4.8336253e+00 1.0076511e+00 
-5.2925353e+00 -4.7824388e+00 9.9694443e-01 
-5.5526099e+00 -5.0425100e+00 1.1355919e+00 
-5.4958954e+00 -4.9857440e+00 1.1207784e+00 
-5.2726154e+00 -4.7624440e+00 1.0113810e+00 
-5.2774634e+00 -4.7674165e+00 9.7290266e-01 
-5.2879891e+00 -4.7777543e+00 1.0388016e+00 
-5.3065100e+00 -4.7962880e+00 1.0432247e+00 
-5.3095250e+00 -4.7994614e+00 9.9566430e-01 
-5.2708559e+00 -4.7606339e+00 1.0273489e+00 
-5.2880416e+00 -4.7780004e+00 9.7742945e-01 
-5.2579823e+00 -4.7478652e+00 9.8729002e-01 
-5.4391809e+00 -4.9289794e+00 1.1059632e+00 
-5.3172383e+00 -4.8070211e+00 1.0468132e+00 
-5.2701907e+00 -4.7601566e+00 9.6593410e-01 
-5.3541560e+00 -4.8439474e+00 1.0633734e+00 
-5.3563695e+00 -4.8462062e+00 1.0500557e+00 
-5.3222136e+00 -4.8120770e+00 1.0245327e+00 
-5.2455888e+00 -4.7355299e+00 9.6196443e-01 
-5.2379069e+00 -4.7277145e+00 1.0020906e+00 
-5.2683897e+00 -4.7581410e+00 1.0332565e+00 
-5.2494898e+00 -4.7392292e+00 1.0289218e+00 
-5.3824711e+00 -4.8722219e+00 1.0911465e+00 
-5.2320232e+00 -4.7217765e+00 1.0173539e+00 
-5.2660732e+00 -4.7559752e+00 9.8630047e-01 
-5.2485757e+00 -4.7385130e+00 9.6629232e-01 
-5.2232237e+00 -4.7130866e+00 9.7757947e-01 
-5.2304006e+00 -4.7203436e+00 9.5458555e-01 
-5.2974787e+00 -4.7872238e+00 1.0486240e+00 
-5.2335286e+00 -4.7232552e+00 1.0246364e+00 
-5.2029877e+00 -4.6927791e+00 9.9274653e-01 
-5.2090330e+00 -4.6989565e+00 9.5143622e-01 
-5.2102699e+00 -4.6999855e+00 1.0188534e+00 
-5.2306862e+00 -4.7205753e+00 9.7388667e-01 
-5.3257737e+00 -4.8154750e+00 1.0763243e+00 
-5.2493796e+00 -4.7391109e+00 1.0302535e+00 
-5.1924596e+00 -4.6821909e+00 1.0071664e+00 
-5.1882515e+00 -4.6780992e+00 9.6781033e-01 
-5.2083912e+00 -4.6983075e+00 9.5496470e-01 
-5.2438951e+00 -4.7337055e+00 1.0039278e+00 
-5.1898789e+00 -4.6798058e+00 9.4303524e-01 
-5.1678553e+00 -4.6576324e+00 9.8334432e-01 
-5.1717868e+00 -4.6616917e+00 9.4138175e-01 
-5.1900015e+00 -4.6797080e+00 1.0127442e+00 
-5.1703072e+00 -4.6600027e+00 1.0085905e+00 
-5.2690787e+00 -4.7587357e+00 1.0615019e+00 
-5.1530657e+00 -4.6429029e+00 9.5798779e-01 
-5.1856365e+00 -4.6754980e+00 9.6422166e-01 
-5.1521416e+00 -4.6418562e+00 9.9678159e-01 
-5.1674623e+00 -4.6573648e+00 9.4343275e-01 
-5.1486073e+00 -4.6385198e+00 9.3128133e-01 
-5.1325116e+00 -4.6222768e+00 9.7388518e-01 
-5.1376348e+00 -4.6275244e+00 9.3340725e-01 
-5.1538033e+00 -4.6434898e+00 1.0038044e+00 
-5.1703467e+00 -4.6600342e+00 1.0095420e+00 
-5.1295795e+00 -4.6192594e+00 9.9812454e-01 
-5.1489286e+00 -4.6387849e+00 9.5135516e-01 
-5.1176682e+00 -4.6074953e+00 9.4811386e-01 
-5.2124081e+00 -4.7020311e+00 1.0466878e+00 
-5.1626945e+00 -4.6524601e+00 9.8265743e-01 
-5.1110482e+00 -4.6007524e+00 9.8619533e-01 
-5.1257720e+00 -4.6156616e+00 9.3170512e-01 
-5.1029158e+00 -4.5928001e+00 9.2430943e-01 
-5.0969524e+00 -4.5867152e+00 9.6437776e-01 
-5.1065631e+00 -4.5964646e+00 9.1931248e-01 
-5.1086054e+00 -4.5982795e+00 9.9142194e-01 
-5.0820522e+00 -4.5718760e+00 9.3817997e-01 
-5.0880680e+00 -4.5777392e+00 9.8745507e-01 
-5.1021891e+00 -4.5920277e+00 9.4139034e-01 
-5.0691533e+00 -4.5588522e+00 9.7540075e-01 
-5.0833011e+00 -4.5731835e+00 9.1976357e-01 
-5.1275587e+00 -4.6172113e+00 1.0043999e+00 
-5.1557646e+00 -4.6453648e+00 1.0318816e+00 
-5.0611715e+00 -4.5509267e+00 9.5481026e-01 
-5.0664320e+00 -4.5563111e+00 9.1332412e-01 
-5.0637197e+00 -4.5536194e+00 9.0712553e-01 
-5.0709877e+00 -4.5606565e+00 9.8215050e-01 
-5.0882688e+00 -4.5779333e+00 9.8804420e-01 
-5.0462146e+00 -4.5360374e+00 9.2819381e-01 
-5.0457344e+00 -4.5354033e+00 9.7657424e-01 
-5.0640798e+00 -4.5539250e+00 9.2804623e-01 
-5.0784392e+00 -4.5681863e+00 9.6070153e-01 
-5.0343866e+00 -4.5242715e+00 9.0254670e-01 
-5.0597062e+00 -4.5494432e+00 9.5836347e-01 
-5.0262260e+00 -4.5159903e+00 9.4281185e-01 
-5.0264316e+00 -4.5161300e+00 9.6439141e-01 
-5.0400052e+00 -4.5298924e+00 9.0761179e-01 
-5.0991473e+00 -4.5887232e+00 1.0170695e+00 
-5.0200491e+00 -4.5099559e+00 8.9472258e-01 
-5.0101595e+00 -4.4999895e+00 9.1815442e-01 
-5.0239992e+00 -4.5136695e+00 9.6924704e-01 
-5.0025644e+00 -4.4922338e+00 9.6547103e-01 
-4.9959526e+00 -4.4858527e+00 8.9114738e-01 
-4.9889555e+00 -4.4787178e+00 9.3550330e-01 
-5.0155268e+00 -4.5053687e+00 9.1775566e-01 
-4.9828577e+00 -4.4725633e+00 9.5316780e-01 
-4.9958706e+00 -4.4857707e+00 8.9523190e-01 
-4.9738798e+00 -4.4637194e+00 9.0805507e-01 
-5.0425611e+00 -4.5321331e+00 1.0022699e+00 
-4.9755282e+00 -4.4654503e+00 8.8208908e-01 
-5.0041385e+00 -4.4938016e+00 9.6722859e-01 
-4.9804368e+00 -4.4701080e+00 9.5782620e-01 
-4.9525051e+00 -4.4422879e+00 9.2576838e-01 
-4.9585266e+00 -4.4482074e+00 9.5413709e-01 
-4.9759221e+00 -4.4657865e+00 9.0390849e-01 
-4.9566011e+00 -4.4465208e+00 8.8021427e-01 
-4.9909196e+00 -4.4806690e+00 9.3801248e-01 
-4.9384055e+00 -4.4281263e+00 9.4171101e-01 
-4.9373646e+00 -4.4272270e+00 8.9789474e-01 
-4.9508734e+00 -4.4407969e+00 8.8264197e-01 
-4.9441595e+00 -4.4338512e+00 9.4763809e-01 
-4.9301333e+00 -4.4200854e+00 8.6923152e-01 
-4.9158278e+00 -4.4056354e+00 9.1597033e-01 
-4.9213462e+00 -4.4112806e+00 8.7248188e-01 
-4.9860349e+00 -4.4756217e+00 9.8749268e-01 
-4.9579315e+00 -4.4475884e+00 9.6023148e-01 
-4.9136033e+00 -4.4033055e+00 9.4257134e-01 
-4.9061909e+00 -4.3960662e+00 8.9292520e-01 
-4.9254546e+00 -4.4153385e+00 8.9329386e-01 
-4.9006295e+00 -4.3905268e+00 8.8768822e-01 
-4.8930602e+00 -4.3828173e+00 9.3001097e-01 
-4.9049935e+00 -4.3949504e+00 8.6984104e-01 
-4.8789258e+00 -4.3687692e+00 9.0612221e-01 
-4.8842664e+00 -4.3742414e+00 8.6267120e-01 
-4.8906484e+00 -4.3803692e+00 9.3425035e-01 
-4.8838396e+00 -4.3738408e+00 8.5615027e-01 
-4.9075847e+00 -4.3972759e+00 9.4394428e-01 
-4.9080286e+00 -4.3977952e+00 9.2288023e-01 
-4.9295363e+00 -4.4191332e+00 9.7270030e-01 
-4.8677754e+00 -4.3575134e+00 9.3076909e-01 
-4.8636642e+00 -4.3536062e+00 8.7744302e-01 
-4.8790851e+00 -4.3690143e+00 8.8076353e-01 
-4.8467937e+00 -4.3365951e+00 9.1808176e-01 
-4.8517532e+00 -4.3417773e+00 8.5119885e-01 
-4.8418131e+00 -4.3317032e+00 8.9622003e-01 
-4.8581991e+00 -4.3482180e+00 8.5679346e-01 
-4.8443885e+00 -4.3341527e+00 9.2212290e-01 
-4.8366375e+00 -4.3266988e+00 8.4283310e-01 
-4.8264942e+00 -4.3164773e+00 8.6715341e-01 
-4.8209991e+00 -4.3107977e+00 9.1872233e-01 
-4.8515415e+00 -4.3413649e+00 9.0759945e-01 
-4.8455219e+00 -4.3352757e+00 9.2592424e-01 
-4.8731160e+00 -4.3627534e+00 9.5793796e-01 
-4.8317900e+00 -4.3217835e+00 8.6800963e-01 
-4.8101740e+00 -4.3002410e+00 8.4133327e-01 
-4.8043747e+00 -4.2943163e+00 8.8334185e-01 
-4.7995629e+00 -4.2894397e+00 9.0591919e-01 
-4.8104744e+00 -4.3005691e+00 8.4353513e-01 
-4.7890811e+00 -4.2791257e+00 8.5679698e-01 
-4.8041186e+00 -4.2939448e+00 9.1094714e-01 
-4.7884793e+00 -4.2786245e+00 8.2928497e-01 
-4.7732615e+00 -4.2631373e+00 9.0643334e-01 
-4.7668943e+00 -4.2569046e+00 8.7628156e-01 
-4.7726402e+00 -4.2627888e+00 8.3084142e-01 
-4.7835460e+00 -4.2736249e+00 8.5504550e-01 
-4.7975974e+00 -4.2874961e+00 8.9491481e-01 
-4.8167825e+00 -4.3064837e+00 9.4321233e-01 
-4.7513618e+00 -4.2413244e+00 8.9350963e-01 
-4.7863016e+00 -4.2761416e+00 9.1199434e-01 
-4.7514343e+00 -4.2415657e+00 8.4637916e-01 
-4.7617846e+00 -4.2519774e+00 8.3004344e-01 
-4.7544389e+00 -4.2443609e+00 8.9782006e-01 
-4.7290759e+00 -4.2191777e+00 8.6622262e-01 
-4.7348795e+00 -4.2251325e+00 8.2030547e-01 
-4.7393465e+00 -4.2296023e+00 8.1549126e-01 
-4.7245240e+00 -4.2145000e+00 8.9389372e-01 
-4.7343230e+00 -4.2245135e+00 8.4186244e-01 
-4.7135496e+00 -4.2037873e+00 8.3593100e-01 
-4.7439680e+00 -4.2339864e+00 8.7872106e-01 
-4.7605462e+00 -4.2503371e+00 9.2851442e-01 
-4.7021413e+00 -4.1922193e+00 8.8084579e-01 
-4.7120962e+00 -4.2024179e+00 8.1631267e-01 
-4.7316642e+00 -4.2216167e+00 8.9820617e-01 
-4.6910286e+00 -4.1812286e+00 8.5611135e-01 
-4.6968937e+00 -4.1872482e+00 8.0972648e-01 
-4.7026644e+00 -4.1927104e+00 8.8425958e-01 
-4.6891985e+00 -4.1796012e+00 8.0144984e-01 
-4.6754336e+00 -4.1657748e+00 8.2544488e-01 
-4.6747494e+00 -4.1648593e+00 8.8109249e-01 
-4.6840825e+00 -4.1744123e+00 8.2845241e-01 
-4.6527572e+00 -4.1430731e+00 8.4596181e-01 
-4.6586723e+00 -4.1491342e+00 7.9908621e-01 
-4.6518641e+00 -4.1420965e+00 8.6792856e-01 
-4.7044144e+00 -4.1943221e+00 9.1384959e-01 
-4.6613765e+00 -4.1518607e+00 8.0233967e-01 
-4.6806283e+00 -4.1708198e+00 8.5997963e-01 
-4.6774569e+00 -4.1675425e+00 8.8463342e-01 
-4.6370797e+00 -4.1275477e+00 8.1488895e-01 
-4.6500440e+00 -4.1402431e+00 8.7048191e-01 
-4.6380024e+00 -4.1285863e+00 7.8716671e-01 
-4.6239166e+00 -4.1141911e+00 8.6801720e-01 
-4.6401134e+00 -4.1305714e+00 8.2046354e-01 
-4.6142206e+00 -4.1046786e+00 8.3575237e-01 
-4.6202025e+00 -4.1108193e+00 7.8844160e-01 
-4.6005154e+00 -4.0909314e+00 8.5473293e-01 
-4.6483698e+00 -4.1384192e+00 8.9925927e-01 
-4.5984802e+00 -4.0891132e+00 8.0433494e-01 
-4.6096091e+00 -4.1002851e+00 7.8812611e-01 
-4.6225290e+00 -4.1127849e+00 8.7017804e-01 
-4.6191840e+00 -4.1095500e+00 8.4814614e-01 
-4.5972338e+00 -4.0876136e+00 8.5668904e-01 
-4.5754647e+00 -4.0660868e+00 8.2552910e-01 
-4.5814834e+00 -4.0722737e+00 7.7773553e-01 
-4.5857573e+00 -4.0765495e+00 7.7261782e-01 
-4.5719962e+00 -4.0624709e+00 8.5466909e-01 
-4.5875187e+00 -4.0781655e+00 8.0901164e-01 
-4.5596333e+00 -4.0504341e+00 7.9371297e-01 
-4.5480843e+00 -4.0387096e+00 8.4127516e-01 
-4.5523677e+00 -4.0431738e+00 7.9679215e-01 
-4.5924482e+00 -4.0826931e+00 8.8470834e-01 
-4.5567579e+00 -4.0476637e+00 7.7366877e-01 
-4.5682735e+00 -4.0587287e+00 8.5507315e-01 
-4.5364704e+00 -4.0272689e+00 8.1521040e-01 
-4.5425243e+00 -4.0334811e+00 7.6696569e-01 
-4.5439577e+00 -4.0345573e+00 8.4287685e-01 
-4.5634494e+00 -4.0540171e+00 8.3543301e-01 
-4.5323982e+00 -4.0234399e+00 7.5783032e-01 
-4.5205603e+00 -4.0115395e+00 7.8302252e-01 
-4.5189457e+00 -4.0096579e+00 8.4104973e-01 
-4.5332437e+00 -4.0241423e+00 7.9501206e-01 
-4.4972119e+00 -3.9882021e+00 8.0487049e-01 
-4.5033455e+00 -3.9944980e+00 7.5618523e-01 
-4.4944639e+00 -3.9853673e+00 8.2751322e-01 
-4.5366149e+00 -4.0270762e+00 8.7019217e-01 
-4.5027819e+00 -3.9939594e+00 7.5896603e-01 
-4.5136819e+00 -4.0043755e+00 8.4072578e-01 
-4.4812264e+00 -3.9724216e+00 7.7232319e-01 
-4.4899817e+00 -3.9808509e+00 8.2886630e-01 
-4.5087280e+00 -3.9995365e+00 8.2371175e-01 
-4.4706135e+00 -3.9618056e+00 7.8793132e-01 
-4.4779034e+00 -3.9692488e+00 7.4275488e-01 
-4.4647241e+00 -3.9557245e+00 8.2713133e-01 
-4.4577184e+00 -3.9489501e+00 7.9449779e-01 
-4.4770727e+00 -3.9682670e+00 7.8169298e-01 
-4.4593740e+00 -3.9507921e+00 7.4208677e-01 
-4.4396820e+00 -3.9308956e+00 8.1349283e-01 
-4.4416342e+00 -3.9330783e+00 7.6156074e-01 
-4.4809494e+00 -3.9716890e+00 8.5573763e-01 
-4.4475098e+00 -3.9390035e+00 7.4695551e-01 
-4.4573054e+00 -3.9483204e+00 8.2535118e-01 
-4.4369769e+00 -3.9281368e+00 8.1547201e-01 
-4.4554992e+00 -3.9465792e+00 8.1515366e-01 
-4.4181190e+00 -3.9096036e+00 7.8392190e-01 
-4.4243107e+00 -3.9159513e+00 7.3455358e-01 
-4.4222360e+00 -3.9139223e+00 7.2742939e-01 
-4.4095650e+00 -3.9009101e+00 8.1297708e-01 
-4.4020758e+00 -3.8937724e+00 7.5084662e-01 
-4.4102192e+00 -3.9018195e+00 7.6481652e-01 
-4.3841338e+00 -3.8757203e+00 7.9929584e-01 
-4.4254813e+00 -3.9165511e+00 8.4134591e-01 
-4.3786869e+00 -3.8704195e+00 7.7328581e-01 
-4.3848934e+00 -3.8767829e+00 7.2390586e-01 
-4.3921628e+00 -3.8840289e+00 7.2855151e-01 
-4.4000893e+00 -3.8915153e+00 8.0085450e-01 
-4.3897133e+00 -3.8811562e+00 8.0811214e-01 
-4.3719740e+00 -3.8635802e+00 7.9858607e-01 
-4.3627791e+00 -3.8547347e+00 7.4023736e-01 
-4.3668227e+00 -3.8588831e+00 7.1219313e-01 
-4.3544941e+00 -3.8462155e+00 7.9892331e-01 
-4.3596907e+00 -3.8516970e+00 7.4118274e-01 
-4.3395500e+00 -3.8315620e+00 7.6273155e-01 
-4.3438296e+00 -3.8360085e+00 7.1053857e-01 
-4.3294983e+00 -3.8214610e+00 7.8534663e-01 
-4.3701339e+00 -3.8615770e+00 8.2701743e-01 
-4.3371825e+00 -3.8294566e+00 7.1318895e-01 
-4.3237572e+00 -3.8160031e+00 7.2970229e-01 
-4.3254490e+00 -3.8173766e+00 7.8692710e-01 
-4.3418121e+00 -3.8337421e+00 7.7127606e-01 
-4.3427939e+00 -3.8345613e+00 8.0090594e-01 
-4.3215208e+00 -3.8134780e+00 7.8590959e-01 
-4.3122168e+00 -3.8046904e+00 6.9727522e-01 
-4.3006539e+00 -3.7929692e+00 7.5224406e-01 
-4.3068442e+00 -3.7993073e+00 7.0290768e-01 
-4.3003359e+00 -3.7924337e+00 7.8508818e-01 
-4.3052373e+00 -3.7976637e+00 7.2541213e-01 
-4.2850089e+00 -3.7775743e+00 7.1929079e-01 
-4.2757707e+00 -3.7681375e+00 7.7161360e-01 
-4.3149247e+00 -3.8067820e+00 8.1281972e-01 
-4.2830381e+00 -3.7757468e+00 6.9814432e-01 
-4.2729893e+00 -3.7657526e+00 6.9086790e-01 
-4.2620845e+00 -3.7547204e+00 7.4185687e-01 
-4.2717667e+00 -3.7640889e+00 7.7328187e-01 
-4.2876682e+00 -3.7798443e+00 7.8673840e-01 
-4.2896237e+00 -3.7818587e+00 7.7242839e-01 
-4.2584448e+00 -3.7513590e+00 6.8264580e-01 
-4.2719483e+00 -3.7644584e+00 7.4222273e-01 
-4.2470613e+00 -3.7395954e+00 7.7149487e-01 
-4.2465711e+00 -3.7394443e+00 7.0897222e-01 
-4.2587976e+00 -3.7512252e+00 7.6970285e-01 
-4.2516212e+00 -3.7445023e+00 7.0997959e-01 
-4.2237649e+00 -3.7167137e+00 7.3156822e-01 
-4.2229023e+00 -3.7157316e+00 7.5814962e-01 
-4.2598042e+00 -3.7520709e+00 7.9854411e-01 
-4.2297158e+00 -3.7228968e+00 6.8340832e-01 
-4.2233653e+00 -3.7165594e+00 6.7698729e-01 
-4.2189698e+00 -3.7117538e+00 7.5990236e-01 
-4.2083483e+00 -3.7015886e+00 6.9875717e-01 
-4.2326374e+00 -3.7252226e+00 7.7259725e-01 
-4.2345672e+00 -3.7272165e+00 7.5829351e-01 
-4.2054787e+00 -3.6988947e+00 6.6830277e-01 
-4.1946597e+00 -3.6876779e+00 7.5814813e-01 
-4.1857066e+00 -3.6790369e+00 7.2134328e-01 
-4.1918449e+00 -3.6853127e+00 6.7220479e-01 
-4.2084937e+00 -3.7015963e+00 7.2155225e-01 
-4.2039642e+00 -3.6968720e+00 7.5553024e-01 
-4.1988192e+00 -3.6922040e+00 6.9488299e-01 
-4.1815276e+00 -3.6750243e+00 6.9178855e-01 
-4.1709247e+00 -3.6642599e+00 7.4492496e-01 
-4.1704283e+00 -3.6640344e+00 6.8865871e-01 
-4.2048612e+00 -3.6975713e+00 7.8435564e-01 
-4.1731133e+00 -3.6668279e+00 6.6040766e-01 
-4.1772127e+00 -3.6708999e+00 6.6899329e-01 
-4.1670542e+00 -3.6603332e+00 7.4677944e-01 
-4.1778288e+00 -3.6709266e+00 7.5855047e-01 
-4.1797247e+00 -3.6728969e+00 7.4427348e-01 
-4.1479588e+00 -3.6416948e+00 7.1123302e-01 
-4.1540232e+00 -3.6478920e+00 6.6218996e-01 
-4.1484532e+00 -3.6422248e+00 6.9628751e-01 
-4.1532946e+00 -3.6472483e+00 6.5427852e-01 
-4.1482258e+00 -3.6419692e+00 7.0346075e-01 
-4.1431694e+00 -3.6366923e+00 7.4503344e-01 
-4.1537819e+00 -3.6474614e+00 7.0771736e-01 
-4.1493440e+00 -3.6428056e+00 7.4145436e-01 
-4.1468415e+00 -3.6407640e+00 6.8016338e-01 
-4.1328092e+00 -3.6268251e+00 6.7864239e-01 
-4.1354480e+00 -3.6295745e+00 6.5046877e-01 
-4.1198220e+00 -3.6136985e+00 7.3188853e-01 
-4.1201305e+00 -3.6143682e+00 6.5512598e-01 
-4.1254773e+00 -3.6197410e+00 6.5485245e-01 
-4.1501374e+00 -3.6433880e+00 7.7026653e-01 
-4.1177158e+00 -3.6118948e+00 6.7515016e-01 
-4.1104951e+00 -3.6046298e+00 7.0120549e-01 
-4.1160264e+00 -3.6098597e+00 7.3396868e-01 
-4.1232338e+00 -3.6169269e+00 7.4460649e-01 
-4.1250992e+00 -3.6188736e+00 7.3035741e-01 
-4.0954762e+00 -3.5899205e+00 6.6879183e-01 
-4.1019444e+00 -3.5964932e+00 6.4054817e-01 
-4.0924649e+00 -3.5865717e+00 7.3213965e-01 
-4.0956583e+00 -3.5901787e+00 6.6565520e-01 
-4.0992675e+00 -3.5935397e+00 6.9403100e-01 
-4.0949159e+00 -3.5889843e+00 7.2751850e-01 
-4.0733309e+00 -3.5679047e+00 6.9132602e-01 
-4.0786495e+00 -3.5732985e+00 6.6702676e-01 
-4.0793171e+00 -3.5740612e+00 6.4256597e-01 
-4.0695338e+00 -3.5639849e+00 7.1914405e-01 
-4.0745449e+00 -3.5693958e+00 6.4102364e-01 
-4.0956469e+00 -3.5894988e+00 7.5626600e-01 
-4.0658169e+00 -3.5602255e+00 7.2132581e-01 
-4.0584226e+00 -3.5533257e+00 6.5900517e-01 
-4.0610390e+00 -3.5560496e+00 6.3084382e-01 
-4.0466952e+00 -3.5415998e+00 6.7965627e-01 
-4.0426579e+00 -3.5373471e+00 7.1951091e-01 
-4.0513415e+00 -3.5465043e+00 6.2709582e-01 
-4.0688720e+00 -3.5631855e+00 7.3075002e-01 
-4.0707102e+00 -3.5651057e+00 7.1652615e-01 
-4.0430589e+00 -3.5381403e+00 6.5752351e-01 
-4.0396829e+00 -3.5347383e+00 6.7194164e-01 
-4.0364070e+00 -3.5314562e+00 6.8151605e-01 
-4.0423794e+00 -3.5376024e+00 6.3289607e-01 
-4.0452166e+00 -3.5403733e+00 6.5149868e-01 
-4.0449557e+00 -3.5399075e+00 6.8038315e-01 
-4.0406799e+00 -3.5354166e+00 7.1363884e-01 
-4.0200982e+00 -3.5151696e+00 7.0661706e-01 
-4.0216260e+00 -3.5170302e+00 6.4934796e-01 
-4.0242357e+00 -3.5197463e+00 6.2123060e-01 
-4.0244207e+00 -3.5199482e+00 6.2753993e-01 
-4.0163908e+00 -3.5114150e+00 7.0898438e-01 
-4.0413671e+00 -3.5358613e+00 7.4234551e-01 
-3.9997625e+00 -3.4953115e+00 6.7181337e-01 
-4.0057316e+00 -3.5014493e+00 6.2334532e-01 
-3.9988275e+00 -3.4944351e+00 6.5854621e-01 
-3.9936481e+00 -3.4889884e+00 7.0711911e-01 
-4.0015163e+00 -3.4973583e+00 6.1387819e-01 
-4.0146894e+00 -3.5096776e+00 7.1696401e-01 
-4.0165033e+00 -3.5115755e+00 7.0277321e-01 
-3.9850926e+00 -3.4810009e+00 6.3982755e-01 
-3.9955161e+00 -3.4913380e+00 6.3763773e-01 
-3.9877017e+00 -3.4837105e+00 6.1170685e-01 
-3.9714398e+00 -3.4671712e+00 6.9430560e-01 
-3.9908264e+00 -3.4865038e+00 6.6683698e-01 
-3.9866261e+00 -3.4820786e+00 6.9982702e-01 
-3.9692981e+00 -3.4655311e+00 6.1387444e-01 
-3.9749842e+00 -3.4711637e+00 6.1418271e-01 
-3.9677260e+00 -3.4634230e+00 6.9687849e-01 
-3.9587488e+00 -3.4548333e+00 6.6616166e-01 
-3.9578593e+00 -3.4540353e+00 6.5062374e-01 
-3.9872849e+00 -3.4824722e+00 7.2851193e-01 
-3.9488411e+00 -3.4452651e+00 6.3034534e-01 
-3.9453442e+00 -3.4413722e+00 6.9495124e-01 
-3.9514375e+00 -3.4479663e+00 6.0225993e-01 
-3.9523909e+00 -3.4489286e+00 6.0091293e-01 
-3.9607279e+00 -3.4564431e+00 7.0326799e-01 
-3.9625134e+00 -3.4583130e+00 6.8912393e-01 
-3.9465032e+00 -3.4430625e+00 6.2407720e-01 
-3.9272697e+00 -3.4238603e+00 6.5270716e-01 
-3.9331658e+00 -3.4299369e+00 6.0452431e-01 
-3.9235282e+00 -3.4199703e+00 6.8223518e-01 
-3.9374058e+00 -3.4335439e+00 6.8649900e-01 
-3.9369433e+00 -3.4333646e+00 6.5339816e-01 
-3.9198856e+00 -3.4162767e+00 6.8493009e-01 
-3.9262364e+00 -3.4231875e+00 6.0118496e-01 
-3.9128065e+00 -3.4097691e+00 6.2101203e-01 
-3.9153881e+00 -3.4124875e+00 5.9287089e-01 
-3.9334252e+00 -3.4293666e+00 7.1477312e-01 
-3.8978233e+00 -3.3945804e+00 6.8299913e-01 
-3.8948293e+00 -3.3918824e+00 6.5093011e-01 
-3.9039829e+00 -3.4013216e+00 5.8823252e-01 
-3.8939097e+00 -3.3910649e+00 6.3238400e-01 
-3.8972259e+00 -3.3945432e+00 5.9525096e-01 
-3.8982472e+00 -3.3955505e+00 6.1071193e-01 
-3.9069853e+00 -3.4034975e+00 6.8966103e-01 
-3.9087400e+00 -3.4053404e+00 6.7557186e-01 
-3.8763528e+00 -3.3735363e+00 6.7035645e-01 
-3.8770373e+00 -3.3745720e+00 6.1170244e-01 
-3.8796127e+00 -3.3772879e+00 5.8370590e-01 
-3.8857176e+00 -3.3826373e+00 6.7301333e-01 
-3.8782163e+00 -3.3759327e+00 5.8842266e-01 
-3.8832889e+00 -3.3805311e+00 6.4015114e-01 
-3.8669555e+00 -3.3641768e+00 6.7059988e-01 
-3.8601611e+00 -3.3578837e+00 6.2407827e-01 
-3.8554890e+00 -3.3531876e+00 6.4146489e-01 
-3.8615947e+00 -3.3595021e+00 5.8611792e-01 
-3.8510618e+00 -3.3485880e+00 6.7124033e-01 
-3.8798153e+00 -3.3765874e+00 7.0113897e-01 
-3.8562555e+00 -3.3543875e+00 5.7581460e-01 
-3.8415453e+00 -3.3396916e+00 6.0254377e-01 
-3.8441081e+00 -3.3423874e+00 5.7461798e-01 
-3.8506758e+00 -3.3487809e+00 5.9763753e-01 
-3.8299243e+00 -3.3278558e+00 6.5874332e-01 
-3.8535256e+00 -3.3509040e+00 6.7617971e-01 
-3.8552523e+00 -3.3527126e+00 6.6216040e-01 
-3.8263872e+00 -3.3242948e+00 6.6162831e-01 
-3.8262036e+00 -3.3247321e+00 5.7707113e-01 
-3.8308847e+00 -3.3294411e+00 5.7586592e-01 
-3.8166966e+00 -3.3150899e+00 6.2960356e-01 
-3.8265269e+00 -3.3244383e+00 6.5756941e-01 
-3.8298776e+00 -3.3280020e+00 6.2698370e-01 
-3.8050029e+00 -3.3032949e+00 6.5973312e-01 
-3.8062830e+00 -3.3050530e+00 5.9349096e-01 
-3.8088596e+00 -3.3077431e+00 5.6555641e-01 
-3.8092356e+00 -3.3081396e+00 5.6355578e-01 
-3.8264852e+00 -3.3241684e+00 6.8763608e-01 
-3.8037937e+00 -3.3027225e+00 5.8483005e-01 
-3.7911735e+00 -3.2900889e+00 6.0932392e-01 
-3.7860050e+00 -3.2849951e+00 6.1502177e-01 
-3.7841730e+00 -3.2829611e+00 6.4728796e-01 
-3.7910347e+00 -3.2901957e+00 5.6812197e-01 
-3.7892544e+00 -3.2882349e+00 5.9957653e-01 
-3.7861137e+00 -3.2849839e+00 6.2367558e-01 
-3.8003154e+00 -3.2986476e+00 6.6280133e-01 
-3.8020189e+00 -3.3004205e+00 6.4885670e-01 
-3.7842681e+00 -3.2836089e+00 5.6370789e-01 
-3.7768497e+00 -3.2756543e+00 6.4722770e-01 
-3.7712321e+00 -3.2706535e+00 5.8454663e-01 
-3.7738280e+00 -3.2733421e+00 5.5662030e-01 
-3.7596433e+00 -3.2587774e+00 6.4832413e-01 
-3.7776241e+00 -3.2767153e+00 6.1087346e-01 
-3.7628851e+00 -3.2626555e+00 5.5164206e-01 
-3.7504170e+00 -3.2500727e+00 6.0648191e-01 
-3.7526767e+00 -3.2522914e+00 5.9788489e-01 
-3.7561462e+00 -3.2559404e+00 5.5929160e-01 
-3.7598116e+00 -3.2589526e+00 6.4304441e-01 
-3.7567582e+00 -3.2565014e+00 5.7657874e-01 
-3.7734272e+00 -3.2720709e+00 6.7424792e-01 
-3.7391477e+00 -3.2387700e+00 6.3596058e-01 
-3.7364674e+00 -3.2365303e+00 5.7574838e-01 
-3.7357800e+00 -3.2353277e+00 6.3915431e-01 
-3.7390659e+00 -3.2392299e+00 5.4783422e-01 
-3.7382588e+00 -3.2384775e+00 5.5165607e-01 
-3.7473924e+00 -3.2466788e+00 6.4954084e-01 
-3.7490702e+00 -3.2484281e+00 6.3564503e-01 
-3.7162633e+00 -3.2165132e+00 6.0539567e-01 
-3.7214911e+00 -3.2219343e+00 5.5055118e-01 
-3.7149956e+00 -3.2149980e+00 6.3718426e-01 
-3.7143168e+00 -3.2146978e+00 5.8861643e-01 
-3.7171633e+00 -3.2178025e+00 5.3989512e-01 
-3.7238226e+00 -3.2239108e+00 6.0090816e-01 
-3.7110410e+00 -3.2111018e+00 6.2789232e-01 
-3.7019606e+00 -3.2026813e+00 5.6696957e-01 
-3.7120492e+00 -3.2126861e+00 5.6005162e-01 
-3.7045562e+00 -3.2053967e+00 5.3911614e-01 
-3.6947942e+00 -3.1952899e+00 6.2491024e-01 
-3.7205172e+00 -3.2201600e+00 6.6095501e-01 
-3.6914608e+00 -3.1919267e+00 6.2824655e-01 
-3.6929300e+00 -3.1940336e+00 5.3980243e-01 
-3.6870883e+00 -3.1882124e+00 5.4187834e-01 
-3.7026968e+00 -3.2028656e+00 6.3481510e-01 
-3.6783614e+00 -3.1793799e+00 5.9697104e-01 
-3.7012804e+00 -3.2015164e+00 6.2781757e-01 
-3.6760972e+00 -3.1772189e+00 5.8115476e-01 
-3.6709735e+00 -3.1718807e+00 6.2627769e-01 
-3.6676686e+00 -3.1690886e+00 5.5826944e-01 
-3.6702983e+00 -3.1718121e+00 5.3048253e-01 
-3.6720986e+00 -3.1736441e+00 5.2831990e-01 
-3.6510863e+00 -3.1525011e+00 6.1402208e-01 
-3.6674538e+00 -3.1683817e+00 6.1927164e-01 
-3.6551614e+00 -3.1567075e+00 5.7559967e-01 
-3.6632209e+00 -3.1648686e+00 5.4419911e-01 
-3.6528997e+00 -3.1547346e+00 5.3328902e-01 
-3.6477740e+00 -3.1491613e+00 6.1752045e-01 
-3.6419563e+00 -3.1437407e+00 5.8541352e-01 
-3.6678019e+00 -3.1684616e+00 6.4767164e-01 
-3.6481829e+00 -3.1502447e+00 5.2827984e-01 
-3.6422751e+00 -3.1438019e+00 6.1124444e-01 
-3.6386321e+00 -3.1403625e+00 5.9211075e-01 
-3.6336267e+00 -3.1357825e+00 5.4964840e-01 
-3.6362317e+00 -3.1384766e+00 5.2188939e-01 
-3.6276205e+00 -3.1294181e+00 6.1540240e-01 
-3.6392965e+00 -3.1412590e+00 5.6424987e-01 
-3.6419601e+00 -3.1433268e+00 6.2320328e-01 
-3.6276217e+00 -3.1301022e+00 5.1706445e-01 
-3.6435635e+00 -3.1450150e+00 6.0947138e-01 
-3.6160002e+00 -3.1183956e+00 5.6527591e-01 
-3.6134143e+00 -3.1158757e+00 5.7113838e-01 
-3.6189821e+00 -3.1215484e+00 5.2485687e-01 
-3.6080110e+00 -3.1103332e+00 6.0332757e-01 
-3.6227255e+00 -3.1252534e+00 5.3614008e-01 
-3.6047404e+00 -3.1070464e+00 6.0689044e-01 
-3.6150444e+00 -3.1170917e+00 6.0609585e-01 
-3.5998178e+00 -3.1027126e+00 5.4123944e-01 
-3.6024270e+00 -3.1054001e+00 5.1346558e-01 
-3.6040628e+00 -3.1070755e+00 5.1684380e-01 
-3.5920365e+00 -3.0950317e+00 5.5172062e-01 
-3.6153398e+00 -3.1171319e+00 6.3448757e-01 
-3.5848956e+00 -3.0876315e+00 6.0485482e-01 
-3.5826497e+00 -3.0857391e+00 5.7036573e-01 
-3.5852745e+00 -3.0885768e+00 5.1649213e-01 
-3.5798748e+00 -3.0829799e+00 5.6902748e-01 
-3.5837340e+00 -3.0871770e+00 5.0601476e-01 
-3.5655823e+00 -3.0688732e+00 5.9273541e-01 
-3.5896845e+00 -3.0922265e+00 6.1023128e-01 
-3.5789425e+00 -3.0824461e+00 5.2454424e-01 
-3.5662551e+00 -3.0698888e+00 5.3283739e-01 
-3.5688553e+00 -3.0726001e+00 5.0511187e-01 
-3.5834844e+00 -3.0863774e+00 5.8334202e-01 
-3.5623178e+00 -3.0655882e+00 5.9644789e-01 
-3.5675876e+00 -3.0712085e+00 5.4170030e-01 
-3.5605054e+00 -3.0644870e+00 5.0575513e-01 
-3.5573468e+00 -3.0607443e+00 5.8949083e-01 
-3.5629098e+00 -3.0661619e+00 5.9308565e-01 
-3.5518153e+00 -3.0558739e+00 5.0819749e-01 
-3.5451322e+00 -3.0490775e+00 5.6380272e-01 
-3.5427153e+00 -3.0464733e+00 5.9439349e-01 
-3.5420272e+00 -3.0461032e+00 5.4840952e-01 
-3.5633006e+00 -3.0662744e+00 6.2156671e-01 
-3.5404594e+00 -3.0449250e+00 4.9509841e-01 
-3.5329018e+00 -3.0373185e+00 5.2449560e-01 
-3.5355072e+00 -3.0400186e+00 4.9687275e-01 
-3.5237122e+00 -3.0279815e+00 5.8245307e-01 
-3.5357604e+00 -3.0402968e+00 5.1316464e-01 
-3.5278571e+00 -3.0323656e+00 5.3490442e-01 
-3.5206187e+00 -3.0248263e+00 5.8617014e-01 
-3.5377376e+00 -3.0415156e+00 5.9727478e-01 
-3.5392890e+00 -3.0431275e+00 5.8374125e-01 
-3.5185602e+00 -3.0234194e+00 4.9999124e-01 
-3.5175202e+00 -3.0225811e+00 4.9488056e-01 
-3.5081713e+00 -3.0131230e+00 5.3243327e-01 
-3.5032344e+00 -3.0081968e+00 5.5295318e-01 
-3.5012679e+00 -3.0059540e+00 5.8408076e-01 
-3.5217726e+00 -3.0262108e+00 5.5563062e-01 
-3.4998322e+00 -3.0050666e+00 5.1623195e-01 
-3.5110376e+00 -3.0155215e+00 5.8016860e-01 
-3.5023980e+00 -3.0077388e+00 4.8872933e-01 
-3.4977341e+00 -3.0032351e+00 4.8449215e-01 
-3.4824960e+00 -2.9877868e+00 5.7217097e-01 
-3.5113969e+00 -3.0156417e+00 6.0855520e-01 
-3.4932194e+00 -2.9988225e+00 5.0200546e-01 
-3.4802303e+00 -2.9858463e+00 5.3717297e-01 
-3.4855866e+00 -2.9912834e+00 4.9195677e-01 
-3.4902298e+00 -2.9957278e+00 5.1997966e-01 
-3.4754488e+00 -2.9807863e+00 5.7578087e-01 
-3.4751496e+00 -2.9812202e+00 4.8417759e-01 
-3.4669709e+00 -2.9730606e+00 5.0816697e-01 
-3.4671743e+00 -2.9731486e+00 5.2306026e-01 
-3.4859602e+00 -2.9909902e+00 5.8443367e-01 
-3.4874861e+00 -2.9925673e+00 5.7099527e-01 
-3.4612858e+00 -2.9672763e+00 5.4983693e-01 
-3.4695945e+00 -2.9757376e+00 4.8067179e-01 
-3.4602990e+00 -2.9660950e+00 5.7395631e-01 
-3.4680955e+00 -2.9739294e+00 5.3640544e-01 
-3.4640074e+00 -2.9700444e+00 5.2411890e-01 
-3.4511425e+00 -2.9575317e+00 5.2759993e-01 
-3.4569645e+00 -2.9628026e+00 5.6466049e-01 
-3.4528484e+00 -2.9594028e+00 4.8400491e-01 
-3.4556270e+00 -2.9622087e+00 4.7407532e-01 
-3.4594111e+00 -2.9651957e+00 5.6738418e-01 
-3.4627583e+00 -2.9687359e+00 5.3763318e-01 
-3.4418776e+00 -2.9482381e+00 5.6211370e-01 
-3.4511468e+00 -2.9578304e+00 4.9120507e-01 
-3.4388413e+00 -2.9450939e+00 5.6595749e-01 
-3.4597521e+00 -2.9653063e+00 5.9567016e-01 
-3.4343550e+00 -2.9413104e+00 5.0024140e-01 
-3.4369223e+00 -2.9439456e+00 4.7267222e-01 
-3.4267461e+00 -2.9337957e+00 5.1381075e-01 
-3.4332955e+00 -2.9405248e+00 4.7380945e-01 
-3.4200609e+00 -2.9268508e+00 5.6399745e-01 
-3.4144895e+00 -2.9217610e+00 5.3139532e-01 
-3.4203298e+00 -2.9277403e+00 4.7610942e-01 
-3.4344923e+00 -2.9408698e+00 5.7171863e-01 
-3.4359717e+00 -2.9423990e+00 5.5842602e-01 
-3.4165087e+00 -2.9236488e+00 5.3236103e-01 
-3.4140651e+00 -2.9217651e+00 4.6389225e-01 
-3.4218287e+00 -2.9290030e+00 5.1639527e-01 
-3.4018531e+00 -2.9093094e+00 5.5220211e-01 
-3.4019804e+00 -2.9097860e+00 4.9228236e-01 
-3.3877912e+00 -2.8957641e+00 5.2246594e-01 
-3.3882420e+00 -2.8964601e+00 4.8557222e-01 
-3.4084916e+00 -2.9154375e+00 5.8292818e-01 
-3.3698192e+00 -2.8785319e+00 4.8447940e-01 
-3.3666735e+00 -2.8753459e+00 5.0932401e-01 
-3.3724124e+00 -2.8811781e+00 4.6223217e-01 
-3.3642955e+00 -2.8728993e+00 5.2819973e-01 
-3.3730037e+00 -2.8817987e+00 4.5618930e-01 
-3.3624067e+00 -2.8709078e+00 5.4260051e-01 
-3.3731790e+00 -2.8820143e+00 4.5379746e-01 
-3.3613977e+00 -2.8698413e+00 5.4949945e-01 
-3.3722582e+00 -2.8811114e+00 4.5940825e-01 
-3.3615069e+00 -2.8699377e+00 5.4631305e-01 
-3.3703547e+00 -2.8792472e+00 4.7198099e-01 
-3.3618393e+00 -2.8702857e+00 5.4070777e-01 
-3.3677301e+00 -2.8765173e+00 4.9080774e-01 
-3.3611624e+00 -2.8696163e+00 5.4250115e-01 
-3.3645279e+00 -2.8731289e+00 5.1438713e-01 
-3.3598411e+00 -2.8682787e+00 5.5190957e-01 
-3.3614912e+00 -2.8699586e+00 5.3825796e-01 
-3.3369946e+00 -2.8466120e+00 4.7652254e-01 
-3.3575263e+00 -2.8658891e+00 5.7034683e-01 
-3.3231103e+00 -2.8327925e+00 5.3306299e-01 
-3.3245177e+00 -2.8343074e+00 5.0596809e-01 
-3.3307223e+00 -2.8406293e+00 4.5241627e-01 
-3.3320811e+00 -2.8420839e+00 4.4364467e-01 
-3.3142042e+00 -2.8244100e+00 4.8483139e-01 
-3.3198504e+00 -2.8302264e+00 4.4893768e-01 
-3.3145919e+00 -2.8250360e+00 4.4189444e-01 
-3.3141143e+00 -2.8239207e+00 5.2892679e-01 
-3.3167799e+00 -2.8270724e+00 4.6792004e-01 
-3.3016191e+00 -2.8118193e+00 5.3504968e-01 
-3.3032453e+00 -2.8138478e+00 4.6829742e-01 
-3.2956526e+00 -2.8062270e+00 5.1454097e-01 
-3.3108573e+00 -2.8211572e+00 4.8836634e-01 
-3.2836807e+00 -2.7944798e+00 5.2336061e-01 
-3.2848296e+00 -2.7958317e+00 4.9202853e-01 
-3.2853444e+00 -2.7964144e+00 4.7801501e-01 
-3.2881169e+00 -2.7992580e+00 4.4325328e-01 
-3.2876766e+00 -2.7986507e+00 4.7867382e-01 
-3.2905819e+00 -2.8018169e+00 4.3365440e-01 
-3.2813630e+00 -2.7921236e+00 5.2752388e-01 
-3.3064225e+00 -2.8162599e+00 5.5772740e-01 
-3.2987137e+00 -2.8090727e+00 5.1715636e-01 
-3.2871721e+00 -2.7984664e+00 4.5024371e-01 
-3.2685909e+00 -2.7802455e+00 4.5995173e-01 
-3.2636366e+00 -2.7751710e+00 5.0756252e-01 
-3.2686429e+00 -2.7802055e+00 4.7561103e-01 
-3.2720821e+00 -2.7837868e+00 4.3175125e-01 
-3.2620730e+00 -2.7734177e+00 5.2534628e-01 
-3.2813601e+00 -2.7920656e+00 5.3403968e-01 
-3.2682161e+00 -2.7801330e+00 4.3316594e-01 
-3.2537954e+00 -2.7657907e+00 4.8119506e-01 
-3.2510648e+00 -2.7632105e+00 4.6490061e-01 
-3.2530024e+00 -2.7652636e+00 4.3459973e-01 
-3.2440331e+00 -2.7560575e+00 5.1356888e-01 
-3.2552993e+00 -2.7668552e+00 5.1706076e-01 
-3.2583139e+00 -2.7700543e+00 4.8858634e-01 
-3.2487338e+00 -2.7612236e+00 4.2358598e-01 
-3.2417488e+00 -2.7536817e+00 5.1779467e-01 
-3.2510552e+00 -2.7633140e+00 4.5957848e-01 
-3.2472639e+00 -2.7597494e+00 4.3790048e-01 
-3.2403979e+00 -2.7524223e+00 5.1142865e-01 
-3.2329874e+00 -2.7457514e+00 4.5150769e-01 
-3.2365937e+00 -2.7494144e+00 4.2360285e-01 
-3.2554367e+00 -2.7667315e+00 5.4512191e-01 
-3.2244017e+00 -2.7372522e+00 4.8610660e-01 
-3.2222579e+00 -2.7348795e+00 5.1563698e-01 
-3.2279594e+00 -2.7407959e+00 4.6272203e-01 
-3.2261829e+00 -2.7393796e+00 4.2306036e-01 
-3.2169077e+00 -2.7302971e+00 4.2566085e-01 
-3.2305424e+00 -2.7427282e+00 5.2156788e-01 
-3.2318900e+00 -2.7441494e+00 5.0865674e-01 
-3.2040896e+00 -2.7174160e+00 5.0389045e-01 
-3.2083578e+00 -2.7217696e+00 4.6294928e-01 
-3.2018158e+00 -2.7150397e+00 5.0788164e-01 
-3.2065198e+00 -2.7203131e+00 4.1337046e-01 
-3.1963811e+00 -2.7103226e+00 4.4276813e-01 
-3.1999769e+00 -2.7139499e+00 4.1472003e-01 
-3.2029805e+00 -2.7169135e+00 4.3020114e-01 
-3.2047851e+00 -2.7178807e+00 5.0465947e-01 
-3.2076559e+00 -2.7209570e+00 4.7659662e-01 
-3.1822817e+00 -2.6961620e+00 5.0580782e-01 
-3.1797781e+00 -2.6940608e+00 4.7379640e-01 
-3.2048383e+00 -2.7176113e+00 5.3258324e-01 
-3.1798470e+00 -2.6943994e+00 4.1654098e-01 
-3.1837125e+00 -2.6983035e+00 4.1292909e-01 
-3.1766224e+00 -2.6909151e+00 4.7061041e-01 
-3.1639712e+00 -2.6785681e+00 4.9416476e-01 
-3.1682658e+00 -2.6829915e+00 4.5293787e-01 
-3.1696749e+00 -2.6839311e+00 4.9407789e-01 
-3.1617758e+00 -2.6762726e+00 4.9803478e-01 
-3.1801744e+00 -2.6939487e+00 5.0922054e-01 
-3.1814730e+00 -2.6953266e+00 4.9648681e-01 
-3.1700058e+00 -2.6848469e+00 4.3971813e-01 
-3.1587648e+00 -2.6739326e+00 4.3384603e-01 
-3.1639094e+00 -2.6791105e+00 4.0318877e-01 
-3.1619725e+00 -2.6771638e+00 4.0627253e-01 
-3.1630857e+00 -2.6783307e+00 4.1791561e-01 
-3.1421170e+00 -2.6573153e+00 4.9593294e-01 
-3.1453810e+00 -2.6609316e+00 4.3912172e-01 
-3.1404724e+00 -2.6560977e+00 4.6535033e-01 
-3.1546314e+00 -2.6693573e+00 4.9239922e-01 
-3.1574025e+00 -2.6723373e+00 4.6484667e-01 
-3.1416903e+00 -2.6575267e+00 4.0722558e-01 
-3.1408880e+00 -2.6569178e+00 4.0287837e-01 
-3.1546519e+00 -2.6690791e+00 5.2024758e-01 
-3.1237020e+00 -2.6396453e+00 4.8433450e-01 
-3.1277165e+00 -2.6438682e+00 4.3855116e-01 
-3.1214986e+00 -2.6373401e+00 4.8823082e-01 
-3.1200836e+00 -2.6365495e+00 4.2473567e-01 
-3.1236470e+00 -2.6401706e+00 3.9653909e-01 
-3.1241455e+00 -2.6407154e+00 4.1150928e-01 
-3.1209340e+00 -2.6375794e+00 3.9308244e-01 
-3.1302087e+00 -2.6456912e+00 4.9709621e-01 
-3.1314666e+00 -2.6470246e+00 4.8453933e-01 
-3.1082902e+00 -2.6250951e+00 4.3563157e-01 
-3.1017706e+00 -2.6183405e+00 4.8608619e-01 
-3.1008554e+00 -2.6178067e+00 4.5647824e-01 
-3.1024613e+00 -2.6196525e+00 3.9774680e-01 
-3.1016855e+00 -2.6182961e+00 4.7712135e-01 
-3.1048684e+00 -2.6213784e+00 4.8038414e-01 
-3.1075654e+00 -2.6242549e+00 4.5323682e-01 
-3.0977006e+00 -2.6152136e+00 3.9282957e-01 
-3.0832553e+00 -2.6006317e+00 4.7442231e-01 
-3.0851395e+00 -2.6023073e+00 4.7997215e-01 
-3.0938134e+00 -2.6112442e+00 4.2598552e-01 
-3.1048617e+00 -2.6210444e+00 5.0810289e-01 
-3.0803123e+00 -2.5982084e+00 4.1542375e-01 
-3.0829122e+00 -2.6008704e+00 3.8699633e-01 
-3.0775440e+00 -2.5957482e+00 3.8304514e-01 
-3.0787318e+00 -2.5969431e+00 3.9898890e-01 
-3.0677614e+00 -2.5860200e+00 4.2563233e-01 
-3.0683973e+00 -2.5867195e+00 4.2271850e-01 
-3.0611482e+00 -2.5792351e+00 4.7632816e-01 
-3.0604012e+00 -2.5788407e+00 4.4684297e-01 
-3.0805886e+00 -2.5978563e+00 4.8513570e-01 
-3.0818076e+00 -2.5991476e+00 4.7273454e-01 
-3.0621231e+00 -2.5807781e+00 3.8836154e-01 
-3.0426033e+00 -2.5615394e+00 4.6459955e-01 
-3.0541801e+00 -2.5733075e+00 3.8279873e-01 
-3.0554230e+00 -2.5737214e+00 4.6850672e-01 
-3.0580289e+00 -2.5765150e+00 4.4176754e-01 
-3.0404248e+00 -2.5592456e+00 4.6844551e-01 
-3.0394244e+00 -2.5588484e+00 4.0593651e-01 
-3.0391181e+00 -2.5586886e+00 3.7701461e-01 
-3.0554106e+00 -2.5734007e+00 4.9608940e-01 
-3.0338550e+00 -2.5536926e+00 3.7297636e-01 
-3.0270398e+00 -2.5468469e+00 4.1565886e-01 
-3.0203919e+00 -2.5401168e+00 4.6652383e-01 
-3.0268865e+00 -2.5467076e+00 4.1753772e-01 
-3.0194662e+00 -2.5394733e+00 4.3743029e-01 
-3.0303543e+00 -2.5502670e+00 3.9033356e-01 
-3.0206320e+00 -2.5408626e+00 3.7886992e-01 
-3.0204880e+00 -2.5401156e+00 4.5734549e-01 
-3.0313027e+00 -2.5504029e+00 4.7332075e-01 
-3.0324864e+00 -2.5516596e+00 4.6108162e-01 
-3.0017645e+00 -2.5222948e+00 4.5483005e-01 
-3.0038471e+00 -2.5241368e+00 4.6022689e-01 
-3.0102768e+00 -2.5310848e+00 3.7274626e-01 
-3.0096378e+00 -2.5296907e+00 4.5862496e-01 
-2.9973545e+00 -2.5184228e+00 3.9625797e-01 
-3.0064647e+00 -2.5271709e+00 4.0638441e-01 
-3.0088549e+00 -2.5292282e+00 4.3046746e-01 
-2.9960637e+00 -2.5173039e+00 3.6735070e-01 
-2.9860878e+00 -2.5075278e+00 4.0567890e-01 
-3.0062859e+00 -2.5261416e+00 4.8424786e-01 
-2.9897516e+00 -2.5113330e+00 3.6286882e-01 
-2.9795439e+00 -2.5007713e+00 4.5676830e-01 
-2.9910824e+00 -2.5126617e+00 3.7895459e-01 
-2.9787734e+00 -2.5003972e+00 4.2962542e-01 
-2.9772604e+00 -2.4992008e+00 3.7038338e-01 
-2.9607577e+00 -2.4829166e+00 4.4501418e-01 
-2.9823468e+00 -2.5033536e+00 4.6167111e-01 
-2.9834895e+00 -2.5045741e+00 4.4959500e-01 
-2.9585652e+00 -2.4806328e+00 4.4875193e-01 
-2.9660184e+00 -2.4886436e+00 3.6257148e-01 
-2.9601679e+00 -2.4828448e+00 3.5873842e-01 
-2.9540830e+00 -2.4768991e+00 3.8634771e-01 
-2.9575717e+00 -2.4796958e+00 4.4521460e-01 
-2.9599991e+00 -2.4823072e+00 4.1929281e-01 
-2.9391797e+00 -2.4623992e+00 4.2337757e-01 
-2.9383519e+00 -2.4613194e+00 4.4693777e-01 
-2.9452384e+00 -2.4686472e+00 3.5275677e-01 
-2.9575129e+00 -2.4792979e+00 4.7255811e-01 
-2.9384854e+00 -2.4613829e+00 4.3759176e-01 
-2.9417684e+00 -2.4652829e+00 3.7034765e-01 
-2.9351809e+00 -2.4588366e+00 3.5976440e-01 
-2.9344444e+00 -2.4579122e+00 4.0226579e-01 
-2.9194770e+00 -2.4434130e+00 4.3533623e-01 
-2.9216242e+00 -2.4452507e+00 4.4055912e-01 
-2.9237180e+00 -2.4477072e+00 3.9291403e-01 
-2.9164677e+00 -2.4407933e+00 4.0155005e-01 
-2.9337666e+00 -2.4567502e+00 4.5017436e-01 
-2.9348688e+00 -2.4579289e+00 4.3827707e-01 
-2.9212549e+00 -2.4457674e+00 3.5256860e-01 
-2.9166675e+00 -2.4412172e+00 3.4919757e-01 
-2.9094977e+00 -2.4342029e+00 3.7629384e-01 
-2.9174972e+00 -2.4418581e+00 3.8677585e-01 
-2.8995843e+00 -2.4245083e+00 4.1664460e-01 
-2.8971238e+00 -2.4217896e+00 4.3708614e-01 
-2.9115436e+00 -2.4358892e+00 4.0829712e-01 
-2.8970990e+00 -2.4222577e+00 3.8650981e-01 
-2.9056067e+00 -2.4299524e+00 4.3180701e-01 
-2.9003420e+00 -2.4257386e+00 3.4273386e-01 
-2.9017782e+00 -2.4271123e+00 3.5891008e-01 
-2.8921335e+00 -2.4176736e+00 3.4965622e-01 
-2.9091353e+00 -2.4329407e+00 4.6105325e-01 
-2.8816648e+00 -2.4075418e+00 3.9336276e-01 
-2.8780837e+00 -2.4037089e+00 4.2546892e-01 
-2.8759222e+00 -2.4014781e+00 4.2909300e-01 
-2.8735750e+00 -2.3999960e+00 3.3939072e-01 
-2.8762197e+00 -2.4026299e+00 3.4236494e-01 
-2.8855834e+00 -2.4106469e+00 4.3885756e-01 
-2.8866470e+00 -2.4117889e+00 4.2712319e-01 
-2.8636670e+00 -2.3903966e+00 3.6610878e-01 
-2.8580701e+00 -2.3847666e+00 4.0712857e-01 
-2.8599133e+00 -2.3866670e+00 3.7790263e-01 
-2.8554952e+00 -2.3820024e+00 4.2740127e-01 
-2.8556917e+00 -2.3821666e+00 4.1788444e-01 
-2.8612449e+00 -2.3874795e+00 4.2268676e-01 
-2.8550825e+00 -2.3824117e+00 3.3254957e-01 
-2.8635070e+00 -2.3899224e+00 3.9753491e-01 
-2.8495278e+00 -2.3769677e+00 3.3944601e-01 
-2.8407068e+00 -2.3683021e+00 3.8665339e-01 
-2.8515706e+00 -2.3790445e+00 3.5039824e-01 
-2.8421848e+00 -2.3698490e+00 3.6299738e-01 
-2.8364778e+00 -2.3639519e+00 4.1584194e-01 
-2.8611040e+00 -2.3870032e+00 4.4969991e-01 
-2.8386347e+00 -2.3658659e+00 4.2095703e-01 
-2.8412943e+00 -2.3689330e+00 3.7357152e-01 
-2.8310235e+00 -2.3594229e+00 3.2970497e-01 
-2.8306758e+00 -2.3592107e+00 3.3240038e-01 
-2.8176799e+00 -2.3461223e+00 3.9959666e-01 
-2.8377290e+00 -2.3648834e+00 4.2771065e-01 
-2.8387537e+00 -2.3659902e+00 4.1613403e-01 
-2.8202760e+00 -2.3488686e+00 3.6580443e-01 
-2.8138275e+00 -2.3421674e+00 4.1749093e-01 
-2.8164690e+00 -2.3453336e+00 3.5564274e-01 
-2.8072171e+00 -2.3366435e+00 3.2951874e-01 
-2.8093524e+00 -2.3388197e+00 3.2251552e-01 
-2.8143747e+00 -2.3433187e+00 3.6332604e-01 
-2.8135517e+00 -2.3419762e+00 4.1160724e-01 
-2.8157263e+00 -2.3443222e+00 3.8686135e-01 
-2.7993867e+00 -2.3288789e+00 3.7621242e-01 
-2.7946467e+00 -2.3240471e+00 4.0606642e-01 
-2.8058491e+00 -2.3354485e+00 3.4032056e-01 
-2.7924042e+00 -2.3217509e+00 4.0946278e-01 
-2.8134391e+00 -2.3414412e+00 4.3849507e-01 
-2.7888136e+00 -2.3192124e+00 3.2015139e-01 
-2.7768333e+00 -2.3072751e+00 3.8861424e-01 
-2.7847402e+00 -2.3154194e+00 3.2220286e-01 
-2.7718506e+00 -2.3022635e+00 4.0793508e-01 
-2.7902596e+00 -2.3195810e+00 4.1670123e-01 
-2.7912419e+00 -2.3206525e+00 4.0529063e-01 
-2.7719741e+00 -2.3023171e+00 3.9817744e-01 
-2.7678509e+00 -2.2990055e+00 3.4494731e-01 
-2.7652404e+00 -2.2966626e+00 3.1975403e-01 
-2.7608175e+00 -2.2921739e+00 3.6198729e-01 
-2.7588773e+00 -2.2903314e+00 3.6535057e-01 
-2.7632899e+00 -2.2950094e+00 3.1249213e-01 
-2.7526135e+00 -2.2840447e+00 3.9638090e-01 
-2.7548003e+00 -2.2859371e+00 4.0133032e-01 
-2.7663713e+00 -2.2969463e+00 4.0079466e-01 
-2.7573390e+00 -2.2889349e+00 3.5369456e-01 
-2.7684603e+00 -2.2992275e+00 3.7638944e-01 
-2.7596567e+00 -2.2914131e+00 3.3038682e-01 
-2.7661433e+00 -2.2963035e+00 4.2743903e-01 
-2.7469311e+00 -2.2793558e+00 3.1098959e-01 
-2.7356637e+00 -2.2681055e+00 3.7900841e-01 
-2.7297568e+00 -2.2621450e+00 3.9805177e-01 
-2.7384388e+00 -2.2712913e+00 3.1238022e-01 
-2.7431777e+00 -2.2746639e+00 4.0586990e-01 
-2.7441125e+00 -2.2757027e+00 3.9462277e-01 
-2.7319646e+00 -2.2648296e+00 3.4678522e-01 
-2.7235553e+00 -2.2570477e+00 3.1021708e-01 
-2.7177384e+00 -2.2512152e+00 3.5147312e-01 
-2.7177229e+00 -2.2513394e+00 3.3404648e-01 
-2.7103951e+00 -2.2438986e+00 3.8673413e-01 
-2.7167773e+00 -2.2507520e+00 3.0240190e-01 
-2.7210588e+00 -2.2538269e+00 3.8934943e-01 
-2.7082858e+00 -2.2416441e+00 3.8982889e-01 
-2.7214997e+00 -2.2545645e+00 3.6603802e-01 
-2.7132957e+00 -2.2474027e+00 3.2066244e-01 
-2.7059450e+00 -2.2402143e+00 3.2809657e-01 
-2.7053905e+00 -2.2398422e+00 3.0172107e-01 
-2.7192311e+00 -2.2516105e+00 4.1656947e-01 
-2.6898725e+00 -2.2246375e+00 3.6957404e-01 
-2.6876166e+00 -2.2220898e+00 3.8839018e-01 
-2.6917427e+00 -2.2270207e+00 3.0240360e-01 
-2.6964531e+00 -2.2302539e+00 3.9519045e-01 
-2.6973493e+00 -2.2312539e+00 3.8411641e-01 
-2.6822217e+00 -2.2178319e+00 3.0088347e-01 
-2.6711929e+00 -2.2071021e+00 3.4682637e-01 
-2.6739275e+00 -2.2098043e+00 3.2394630e-01 
-2.6681178e+00 -2.2037084e+00 3.7710047e-01 
-2.6740716e+00 -2.2092664e+00 3.7502661e-01 
-2.6675482e+00 -2.2031395e+00 3.8115245e-01 
-2.6660793e+00 -2.2023647e+00 3.2295394e-01 
-2.6699095e+00 -2.2063344e+00 2.9247442e-01 
-2.6724875e+00 -2.2085989e+00 3.2119852e-01 
-2.6730165e+00 -2.2081792e+00 3.7951782e-01 
-2.6748893e+00 -2.2103186e+00 3.5589099e-01 
-2.6572921e+00 -2.1942914e+00 2.9160535e-01 
-2.6727288e+00 -2.2074878e+00 4.0587828e-01 
-2.6491182e+00 -2.1860149e+00 3.6034870e-01 
-2.6450059e+00 -2.1817856e+00 3.7887093e-01 
-2.6446757e+00 -2.1825140e+00 2.9231876e-01 
-2.6412754e+00 -2.1789813e+00 2.9181880e-01 
-2.6359429e+00 -2.1737626e+00 3.2724968e-01 
-2.6501839e+00 -2.1864336e+00 3.8474348e-01 
-2.6510410e+00 -2.1873896e+00 3.7387142e-01 
-2.6306040e+00 -2.1686659e+00 3.3806017e-01 
-2.6253874e+00 -2.1634064e+00 3.6762100e-01 
-2.6294584e+00 -2.1676378e+00 3.2364467e-01 
-2.6233933e+00 -2.1612158e+00 3.7064159e-01 
-2.6222467e+00 -2.1611197e+00 2.8461373e-01 
-2.6226740e+00 -2.1615729e+00 2.8253856e-01 
-2.6270556e+00 -2.1647298e+00 3.6931935e-01 
-2.6288483e+00 -2.1667688e+00 3.4617123e-01 
-2.6128242e+00 -2.1519883e+00 3.1171358e-01 
-2.6087685e+00 -2.1478460e+00 3.5129133e-01 
-2.6168671e+00 -2.1560135e+00 3.0744556e-01 
-2.6268237e+00 -2.1640258e+00 3.9541128e-01 
-2.6086676e+00 -2.1479988e+00 3.1811562e-01 
-2.6024714e+00 -2.1415834e+00 3.6911616e-01 
-2.6026049e+00 -2.1416731e+00 3.5931474e-01 
-2.5971470e+00 -2.1373241e+00 2.8370431e-01 
-2.5903828e+00 -2.1306624e+00 3.2938513e-01 
-2.5972497e+00 -2.1376176e+00 2.8272036e-01 
-2.6045842e+00 -2.1432986e+00 3.7455392e-01 
-2.6054046e+00 -2.1442101e+00 3.6387837e-01 
-2.5827305e+00 -2.1230588e+00 3.5823792e-01 
-2.5849979e+00 -2.1250277e+00 3.6257008e-01 
-2.5877559e+00 -2.1285105e+00 2.7677706e-01 
-2.5859883e+00 -2.1264505e+00 3.2689607e-01 
-2.5687091e+00 -2.1101141e+00 3.4253386e-01 
-2.5816793e+00 -2.1218653e+00 3.5929537e-01 
-2.5750279e+00 -2.1166592e+00 2.7254653e-01 
-2.5668759e+00 -2.1084974e+00 3.1143424e-01 
-2.5595710e+00 -2.1010270e+00 3.5974571e-01 
-2.5814378e+00 -2.1212153e+00 3.8525194e-01 
-2.5674911e+00 -2.1094322e+00 2.9549187e-01 
-2.5579886e+00 -2.1001835e+00 3.0021787e-01 
-2.5580347e+00 -2.1004229e+00 2.7348745e-01 
-2.5504541e+00 -2.0930297e+00 3.2095662e-01 
-2.5511553e+00 -2.0940304e+00 2.6877511e-01 
-2.5594215e+00 -2.1007142e+00 3.6467302e-01 
-2.5602114e+00 -2.1015766e+00 3.5418653e-01 
-2.5398080e+00 -2.0826373e+00 3.4863856e-01 
-2.5493486e+00 -2.0924575e+00 2.7276313e-01 
-2.5378397e+00 -2.0805581e+00 3.5153988e-01 
-2.5290499e+00 -2.0727224e+00 3.3377367e-01 
-2.5244117e+00 -2.0685139e+00 3.0598760e-01 
-2.5270140e+00 -2.0713961e+00 2.6286304e-01 
-2.5331283e+00 -2.0761549e+00 3.4960663e-01 
-2.5313649e+00 -2.0749559e+00 3.1489137e-01 
-2.5228472e+00 -2.0671239e+00 2.9880559e-01 
-2.5166068e+00 -2.0607290e+00 3.5036382e-01 
-2.5365777e+00 -2.0790045e+00 3.7534472e-01 
-2.5110040e+00 -2.0559056e+00 3.1269911e-01 
-2.5170033e+00 -2.0609932e+00 3.4025890e-01 
-2.5121861e+00 -2.0572038e+00 2.6641953e-01 
-2.5161889e+00 -2.0610423e+00 2.8285387e-01 
-2.5085266e+00 -2.0538585e+00 2.6066995e-01 
-2.5015352e+00 -2.0471113e+00 2.8849554e-01 
-2.4967909e+00 -2.0423172e+00 3.3922681e-01 
-2.4993806e+00 -2.0444903e+00 3.4368479e-01 
-2.5147719e+00 -2.0587690e+00 3.5499728e-01 
-2.5007508e+00 -2.0463345e+00 2.9487550e-01 
-2.5155330e+00 -2.0595825e+00 3.4469968e-01 
-2.5012670e+00 -2.0471351e+00 2.6320750e-01 
-2.4898086e+00 -2.0358655e+00 3.2533529e-01 
-2.4923675e+00 -2.0379057e+00 3.3990347e-01 
-2.4939542e+00 -2.0396514e+00 3.1786597e-01 
-2.4736202e+00 -2.0203631e+00 3.4088475e-01 
-2.4734962e+00 -2.0207081e+00 3.0251193e-01 
-2.4787443e+00 -2.0259502e+00 2.5309885e-01 
-2.4922593e+00 -2.0374298e+00 3.6567187e-01 
-2.4730279e+00 -2.0204856e+00 2.5652063e-01 
-2.4753013e+00 -2.0228133e+00 2.7221301e-01 
-2.4723804e+00 -2.0197420e+00 2.8985569e-01 
-2.4536378e+00 -2.0017715e+00 3.3013558e-01 
-2.4707139e+00 -2.0175121e+00 3.4556687e-01 
-2.4714396e+00 -2.0182941e+00 3.3543777e-01 
-2.4517958e+00 -1.9998384e+00 3.3274788e-01 
-2.4524996e+00 -2.0012634e+00 2.4895740e-01 
-2.4528418e+00 -2.0017576e+00 2.5343251e-01 
-2.4433444e+00 -1.9924961e+00 2.7689457e-01 
-2.4486523e+00 -1.9969645e+00 3.3080584e-01 
-2.4501803e+00 -1.9986099e+00 3.0895862e-01 
-2.4323244e+00 -1.9819608e+00 3.1437662e-01 
-2.4303901e+00 -1.9798218e+00 3.3173326e-01 
-2.4337516e+00 -1.9836042e+00 2.4877359e-01 
-2.4484129e+00 -1.9964092e+00 3.5625327e-01 
-2.4277191e+00 -1.9777582e+00 2.8407326e-01 
-2.4248776e+00 -1.9751034e+00 2.9516917e-01 
-2.4278462e+00 -1.9778870e+00 2.8831816e-01 
-2.4305277e+00 -1.9801162e+00 3.2176456e-01 
-2.4300289e+00 -1.9802715e+00 2.4334419e-01 
-2.4296498e+00 -1.9793675e+00 3.1016824e-01 
-2.4265389e+00 -1.9770520e+00 2.6271731e-01 
-2.4101937e+00 -1.9611338e+00 3.2090467e-01 
-2.4127476e+00 -1.9632919e+00 3.2523865e-01 
-2.4145260e+00 -1.9655432e+00 2.5442350e-01 
-2.4270787e+00 -1.9766723e+00 3.3639154e-01 
-2.4277775e+00 -1.9774278e+00 3.2637876e-01 
-2.4134343e+00 -1.9646595e+00 2.4147515e-01 
-2.4105704e+00 -1.9613675e+00 3.2380247e-01 
-2.4039674e+00 -1.9559726e+00 2.4384820e-01 
-2.3934286e+00 -1.9455819e+00 3.0593705e-01 
-2.3967557e+00 -1.9489326e+00 2.6587084e-01 
-2.3948543e+00 -1.9471506e+00 2.4132217e-01 
-2.3871105e+00 -1.9393585e+00 3.2249206e-01 
-2.4022079e+00 -1.9537516e+00 3.0234203e-01 
-2.4049034e+00 -1.9557420e+00 3.4704408e-01 
-2.3835874e+00 -1.9366025e+00 2.6481715e-01 
-2.3810039e+00 -1.9344318e+00 2.3387088e-01 
-2.3850203e+00 -1.9379277e+00 2.7302608e-01 
-2.3709412e+00 -1.9247421e+00 2.7784061e-01 
-2.3747137e+00 -1.9284925e+00 2.3401752e-01 
-2.3670237e+00 -1.9207631e+00 3.1188047e-01 
-2.3767495e+00 -1.9303755e+00 2.5258619e-01 
-2.3836949e+00 -1.9361570e+00 3.2736221e-01 
-2.3843760e+00 -1.9368879e+00 3.1745192e-01 
-2.3658299e+00 -1.9194497e+00 3.1469890e-01 
-2.3640659e+00 -1.9179507e+00 3.1215829e-01 
-2.3517354e+00 -1.9068245e+00 2.7759957e-01 
-2.3563499e+00 -1.9112486e+00 2.3411536e-01 
-2.3632407e+00 -1.9173636e+00 2.9146910e-01 
-2.3555558e+00 -1.9106898e+00 2.3399164e-01 
-2.3499334e+00 -1.9051366e+00 2.6138347e-01 
-2.3440738e+00 -1.8992448e+00 3.1377056e-01 
-2.3616872e+00 -1.9153913e+00 3.3796182e-01 
-2.3364966e+00 -1.8925371e+00 2.9201204e-01 
-2.3364198e+00 -1.8926553e+00 2.2661252e-01 
-2.3329649e+00 -1.8896127e+00 2.2438157e-01 
-2.3242216e+00 -1.8808532e+00 3.0322400e-01 
-2.3260422e+00 -1.8829119e+00 2.5371796e-01 
-2.3406281e+00 -1.8959297e+00 3.1847334e-01 
-2.3412919e+00 -1.8966335e+00 3.0866927e-01 
-2.3218687e+00 -1.8785501e+00 3.0591336e-01 
-2.3285818e+00 -1.8855007e+00 2.4255352e-01 
-2.3180535e+00 -1.8753543e+00 2.6625505e-01 
-2.3141832e+00 -1.8718144e+00 2.7291858e-01 
-2.3181164e+00 -1.8755461e+00 2.2687002e-01 
-2.3188925e+00 -1.8757794e+00 3.0417225e-01 
-2.3203166e+00 -1.8772808e+00 2.8288129e-01 
-2.3014419e+00 -1.8595555e+00 3.0520326e-01 
-2.3120687e+00 -1.8697951e+00 2.6202199e-01 
-2.2990007e+00 -1.8575525e+00 2.8696591e-01 
-2.3078599e+00 -1.8662535e+00 2.2441766e-01 
-2.3188074e+00 -1.8753688e+00 3.2901421e-01 
-2.2992740e+00 -1.8580180e+00 2.3354602e-01 
-2.2994313e+00 -1.8576090e+00 2.9468077e-01 
-2.2983112e+00 -1.8572755e+00 2.1946141e-01 
-2.2818804e+00 -1.8414726e+00 2.9451197e-01 
-2.2838223e+00 -1.8429586e+00 2.9886946e-01 
-2.2861464e+00 -1.8457357e+00 2.5137281e-01 
-2.2979205e+00 -1.8560917e+00 3.0973309e-01 
-2.2985561e+00 -1.8567672e+00 3.0005452e-01 
-2.2856846e+00 -1.8455981e+00 2.1538244e-01 
-2.2819831e+00 -1.8420407e+00 2.2076613e-01 
-2.2761574e+00 -1.8364072e+00 2.6734006e-01 
-2.2813478e+00 -1.8416344e+00 2.3300464e-01 
-2.2708936e+00 -1.8316129e+00 2.4289066e-01 
-2.2764440e+00 -1.8362432e+00 2.9558322e-01 
-2.2777970e+00 -1.8377410e+00 2.7459809e-01 
-2.2612984e+00 -1.8225008e+00 2.7996373e-01 
-2.2594609e+00 -1.8204135e+00 2.9643121e-01 
-2.2763579e+00 -1.8358202e+00 3.2022235e-01 
-2.2606797e+00 -1.8222761e+00 2.1243978e-01 
-2.2610884e+00 -1.8227934e+00 2.1558902e-01 
-2.2448246e+00 -1.8067746e+00 2.8977883e-01 
-2.2417424e+00 -1.8044988e+00 2.5480831e-01 
-2.2400346e+00 -1.8025861e+00 2.8618690e-01 
-2.2557383e+00 -1.8168899e+00 3.0119324e-01 
-2.2563384e+00 -1.8175377e+00 2.9166499e-01 
-2.2427704e+00 -1.8056018e+00 2.1296726e-01 
-2.2395167e+00 -1.8028150e+00 2.0655288e-01 
-2.2347920e+00 -1.7981139e+00 2.4373153e-01 
-2.2353461e+00 -1.7988378e+00 2.2376922e-01 
-2.2250164e+00 -1.7888504e+00 2.6914695e-01 
-2.2358932e+00 -1.7988194e+00 2.6653042e-01 
-2.2305214e+00 -1.7941169e+00 2.4321508e-01 
-2.2313602e+00 -1.7943680e+00 2.8825209e-01 
-2.2178283e+00 -1.7818636e+00 2.8818601e-01 
-2.2233708e+00 -1.7876760e+00 2.0563838e-01 
-2.2176323e+00 -1.7822127e+00 2.3284601e-01 
-2.2344301e+00 -1.7968632e+00 3.1163043e-01 
-2.2115898e+00 -1.7764244e+00 2.5187048e-01 
-2.2153914e+00 -1.7805099e+00 2.0688248e-01 
-2.2065423e+00 -1.7718496e+00 2.5049946e-01 
-2.2129762e+00 -1.7773479e+00 2.7696821e-01 
-2.2056410e+00 -1.7712060e+00 2.0635492e-01 
-2.1987448e+00 -1.7643430e+00 2.7803868e-01 
-2.2140725e+00 -1.7782240e+00 2.9287821e-01 
-2.2146385e+00 -1.7788503e+00 2.8348789e-01 
-2.1964426e+00 -1.7619767e+00 2.8074795e-01 
-2.1885235e+00 -1.7550648e+00 2.6274082e-01 
-2.1941304e+00 -1.7607993e+00 1.9822732e-01 
-2.1973748e+00 -1.7628775e+00 2.8136209e-01 
-2.1900434e+00 -1.7570672e+00 2.1493952e-01 
-2.1863549e+00 -1.7535710e+00 1.9895443e-01 
-2.1944358e+00 -1.7604153e+00 2.5867993e-01 
-2.1820784e+00 -1.7493044e+00 2.3023331e-01 
-2.1770120e+00 -1.7440081e+00 2.8008538e-01 
-2.1930313e+00 -1.7584685e+00 3.0326107e-01 
-2.1701870e+00 -1.7382870e+00 2.4442907e-01 
-2.1665123e+00 -1.7349656e+00 2.2325715e-01 
-2.1684582e+00 -1.7369667e+00 1.9916274e-01 
-2.1704462e+00 -1.7389787e+00 1.9849697e-01 
-2.1579897e+00 -1.7266570e+00 2.7010968e-01 
-2.1729727e+00 -1.7401364e+00 2.8482515e-01 
-2.1735013e+00 -1.7407377e+00 2.7555981e-01 
-2.1524415e+00 -1.7217132e+00 2.5648636e-01 
-2.1518314e+00 -1.7207426e+00 2.7287328e-01 
-2.1604574e+00 -1.7287210e+00 2.7195126e-01 
-2.1499348e+00 -1.7199295e+00 1.9243215e-01 
-2.1497548e+00 -1.7198352e+00 1.9018613e-01 
-2.1414876e+00 -1.7118316e+00 2.2303846e-01 
-2.1458366e+00 -1.7162296e+00 2.0641723e-01 
-2.1363816e+00 -1.7065909e+00 2.7233231e-01 
-2.1495221e+00 -1.7188644e+00 2.5319517e-01 
-2.1342900e+00 -1.7051941e+00 2.3851766e-01 
-2.1387186e+00 -1.7093784e+00 2.2335811e-01 
-2.1521721e+00 -1.7206252e+00 2.9511246e-01 
-2.1341846e+00 -1.7051136e+00 2.2631918e-01 
-2.1344283e+00 -1.7047312e+00 2.6257369e-01 
-2.1326184e+00 -1.7038391e+00 1.9367093e-01 
-2.1334114e+00 -1.7044414e+00 2.2645089e-01 
-2.1265111e+00 -1.6985521e+00 1.9056970e-01 
-2.1178575e+00 -1.6896855e+00 2.6234388e-01 
-2.1167099e+00 -1.6888444e+00 2.5038654e-01 
-2.1323850e+00 -1.7026483e+00 2.7695319e-01 
-2.1328781e+00 -1.7032251e+00 2.6783884e-01 
-2.1173825e+00 -1.6897509e+00 2.1427374e-01 
-2.1155903e+00 -1.6874572e+00 2.6528689e-01 
-2.1138613e+00 -1.6867315e+00 1.8611510e-01 
-2.1121638e+00 -1.6842172e+00 2.6375422e-01 
-2.1062145e+00 -1.6797808e+00 1.8269032e-01 
-2.1132071e+00 -1.6855007e+00 2.4365288e-01 
-2.0987837e+00 -1.6725941e+00 2.3276712e-01 
-2.1013598e+00 -1.6750168e+00 2.1612729e-01 
-2.0966480e+00 -1.6698958e+00 2.6480055e-01 
-2.1024616e+00 -1.6764264e+00 1.9822545e-01 
-2.1118858e+00 -1.6834910e+00 2.8721330e-01 
-2.0967789e+00 -1.6708952e+00 1.8762077e-01 
-2.0874386e+00 -1.6621454e+00 2.2072503e-01 
-2.0815022e+00 -1.6565167e+00 2.4436341e-01 
-2.0783052e+00 -1.6533786e+00 2.5478333e-01 
-2.0924284e+00 -1.6659104e+00 2.6937667e-01 
-2.0836015e+00 -1.6592443e+00 1.8310976e-01 
-2.0928831e+00 -1.6664590e+00 2.6041460e-01 
-2.0783198e+00 -1.6541061e+00 1.8007508e-01 
-2.0758693e+00 -1.6508237e+00 2.5628397e-01 
-2.0701120e+00 -1.6464264e+00 2.0577668e-01 
-2.0743008e+00 -1.6495534e+00 2.5107002e-01 
-2.0637767e+00 -1.6404928e+00 2.2716828e-01 
-2.0726671e+00 -1.6479783e+00 2.5650644e-01 
-2.0638180e+00 -1.6410061e+00 1.7542562e-01 
-2.0574572e+00 -1.6340888e+00 2.5734076e-01 
-2.0614121e+00 -1.6384953e+00 1.8171261e-01 
-2.0696781e+00 -1.6455233e+00 2.3871166e-01 
-2.0722718e+00 -1.6471065e+00 2.7957305e-01 
-2.0600584e+00 -1.6375209e+00 1.9052319e-01 
-2.0467699e+00 -1.6247342e+00 2.3857372e-01 
-2.0541725e+00 -1.6317672e+00 2.1290699e-01 
-2.0393448e+00 -1.6177168e+00 2.4787222e-01 
-2.0431871e+00 -1.6219938e+00 1.7409675e-01 
-2.0531502e+00 -1.6299291e+00 2.6204950e-01 
-2.0535734e+00 -1.6304519e+00 2.5323719e-01 
-2.0370276e+00 -1.6153708e+00 2.5072080e-01 
-2.0417087e+00 -1.6208023e+00 1.7545770e-01 
-2.0361471e+00 -1.6153451e+00 2.0009345e-01 
-2.0291469e+00 -1.6088804e+00 2.2175728e-01 
-2.0247009e+00 -1.6048863e+00 1.9773696e-01 
-2.0264025e+00 -1.6065654e+00 1.7591572e-01 
-2.0345831e+00 -1.6135259e+00 2.2969143e-01 
-2.0186307e+00 -1.5986927e+00 2.5041026e-01 
-2.0288260e+00 -1.6079606e+00 2.4626942e-01 
-2.0228345e+00 -1.6030858e+00 2.0423000e-01 
-2.0222387e+00 -1.6029820e+00 1.6812710e-01 
-2.0333021e+00 -1.6114790e+00 2.7222639e-01 
-2.0123336e+00 -1.5933361e+00 2.3295155e-01 
-2.0165627e+00 -1.5967678e+00 2.4109976e-01 
-2.0185623e+00 -1.5996183e+00 1.8547471e-01 
-2.0084181e+00 -1.5902604e+00 1.6817959e-01 
-2.0008478e+00 -1.5825994e+00 2.4101916e-01 
-2.0025549e+00 -1.5839008e+00 2.4509346e-01 
-2.0144894e+00 -1.5946491e+00 2.5501287e-01 
-2.0148826e+00 -1.5951501e+00 2.4630880e-01 
-2.0002344e+00 -1.5825959e+00 1.9570260e-01 
-1.9948905e+00 -1.5776311e+00 2.1648669e-01 
-2.0004137e+00 -1.5832576e+00 1.6861041e-01 
-1.9918215e+00 -1.5750040e+00 1.7030184e-01 
-1.9953176e+00 -1.5773463e+00 2.4267657e-01 
-1.9803635e+00 -1.5637462e+00 2.4365820e-01 
-1.9923458e+00 -1.5749240e+00 2.2520739e-01 
-1.9782178e+00 -1.5622934e+00 2.2748134e-01 
-1.9808922e+00 -1.5650225e+00 1.9015925e-01 
-1.9948798e+00 -1.5764258e+00 2.6511398e-01 
-1.9814767e+00 -1.5659181e+00 1.6119251e-01 
-1.9777945e+00 -1.5625423e+00 1.7571515e-01 
-1.9740821e+00 -1.5589576e+00 1.6253166e-01 
-1.9758352e+00 -1.5597036e+00 2.3334709e-01 
-1.9772707e+00 -1.5615883e+00 2.0027700e-01 
-1.9662247e+00 -1.5516297e+00 1.8615077e-01 
-1.9627402e+00 -1.5480052e+00 2.3426491e-01 
-1.9653010e+00 -1.5507011e+00 1.9600405e-01 
-1.9763347e+00 -1.5598828e+00 2.4819058e-01 
-1.9767020e+00 -1.5603658e+00 2.3960194e-01 
-1.9609491e+00 -1.5468011e+00 2.1135336e-01 
-1.9606283e+00 -1.5457338e+00 2.3733319e-01 
-1.9576645e+00 -1.5439473e+00 1.6488050e-01 
-1.9602824e+00 -1.5466595e+00 1.6174793e-01 
-1.9574814e+00 -1.5429392e+00 2.3609367e-01 
-1.9582814e+00 -1.5440515e+00 2.1675271e-01 
-1.9442530e+00 -1.5314652e+00 2.2179236e-01 
-1.9472014e+00 -1.5343590e+00 1.8985523e-01 
-1.9427778e+00 -1.5297021e+00 2.3676696e-01 
-1.9570013e+00 -1.5419765e+00 2.5826427e-01 
-1.9386805e+00 -1.5266706e+00 1.8301716e-01 
-1.9376769e+00 -1.5257136e+00 1.9494309e-01 
-1.9408199e+00 -1.5288426e+00 1.5761158e-01 
-1.9408683e+00 -1.5279576e+00 2.2819111e-01 
-1.9416083e+00 -1.5296441e+00 1.5478826e-01 
-1.9395410e+00 -1.5277903e+00 1.7212074e-01 
-1.9254644e+00 -1.5142449e+00 2.2765534e-01 
-1.9273796e+00 -1.5156709e+00 2.3215762e-01 
-1.9284351e+00 -1.5173539e+00 1.9052537e-01 
-1.9387567e+00 -1.5257602e+00 2.4166338e-01 
-1.9390939e+00 -1.5262284e+00 2.3316945e-01 
-1.9239380e+00 -1.5134120e+00 1.5979145e-01 
-1.9178767e+00 -1.5077420e+00 2.0647149e-01 
-1.9209685e+00 -1.5110813e+00 1.5552241e-01 
-1.9111103e+00 -1.5017196e+00 1.7704654e-01 
-1.9097902e+00 -1.5004959e+00 1.8543285e-01 
-1.9059517e+00 -1.4963090e+00 2.3032436e-01 
-1.9165313e+00 -1.5058122e+00 2.3037809e-01 
-1.9172368e+00 -1.5068208e+00 2.1258743e-01 
-1.9196621e+00 -1.5080832e+00 2.5164923e-01 
-1.9067475e+00 -1.4979737e+00 1.5205017e-01 
-1.8981843e+00 -1.4897994e+00 2.1488984e-01 
-1.9026880e+00 -1.4944900e+00 1.4856926e-01 
-1.8982174e+00 -1.4901425e+00 1.7620502e-01 
-1.9021115e+00 -1.4939870e+00 1.6330402e-01 
-1.9013904e+00 -1.4922153e+00 2.2088227e-01 
-1.9026935e+00 -1.4941025e+00 1.8828222e-01 
-1.8888384e+00 -1.4811547e+00 2.2155394e-01 
-1.9016660e+00 -1.4921521e+00 2.3531745e-01 
-1.9019765e+00 -1.4926045e+00 2.2690290e-01 
-1.8908159e+00 -1.4835550e+00 1.5467717e-01 
-1.8853121e+00 -1.4783131e+00 1.9954789e-01 
-1.8867586e+00 -1.4789140e+00 2.2482376e-01 
-1.8870729e+00 -1.4800143e+00 1.8023896e-01 
-1.8824518e+00 -1.4762632e+00 1.4915398e-01 
-1.8777349e+00 -1.4718887e+00 1.4674661e-01 
-1.8833768e+00 -1.4758614e+00 2.2368197e-01 
-1.8840913e+00 -1.4769297e+00 2.0447242e-01 
-1.8694105e+00 -1.4635302e+00 2.2438537e-01 
-1.8721424e+00 -1.4665633e+00 1.7712003e-01 
-1.8659090e+00 -1.4606985e+00 2.0858942e-01 
-1.8828025e+00 -1.4747524e+00 2.4524000e-01 
-1.8673065e+00 -1.4614824e+00 2.1619222e-01 
-1.8645916e+00 -1.4601943e+00 1.4248027e-01 
-1.8590304e+00 -1.4548514e+00 1.6992500e-01 
-1.8638852e+00 -1.4595295e+00 1.5986729e-01 
-1.8579652e+00 -1.4540386e+00 1.4975843e-01 
-1.8525665e+00 -1.4485290e+00 2.1568254e-01 
-1.8532244e+00 -1.4493840e+00 1.9293571e-01 
-1.8650860e+00 -1.4591482e+00 2.2920470e-01 
-1.8534201e+00 -1.4497606e+00 1.6827346e-01 
-1.8653663e+00 -1.4595827e+00 2.2087966e-01 
-1.8505704e+00 -1.4463570e+00 2.1897392e-01 
-1.8437483e+00 -1.4413095e+00 1.4133826e-01 
-1.8447148e+00 -1.4424940e+00 1.4318705e-01 
-1.8471857e+00 -1.4432617e+00 2.1788375e-01 
-1.8371291e+00 -1.4350659e+00 1.7474025e-01 
-1.8340499e+00 -1.4320406e+00 2.0219907e-01 
-1.8417953e+00 -1.4385433e+00 2.1202120e-01 
-1.8334857e+00 -1.4311674e+00 2.1849917e-01 
-1.8441892e+00 -1.4409561e+00 2.0087647e-01 
-1.8360569e+00 -1.4341905e+00 1.7203709e-01 
-1.8465376e+00 -1.4420539e+00 2.3901974e-01 
-1.8256688e+00 -1.4249890e+00 1.4500444e-01 
-1.8272103e+00 -1.4266112e+00 1.3678955e-01 
-1.8215281e+00 -1.4210840e+00 1.8642108e-01 
-1.8301334e+00 -1.4288146e+00 1.7739210e-01 
-1.8274381e+00 -1.4269290e+00 1.5148467e-01 
-1.8213191e+00 -1.4210275e+00 1.6388746e-01 
-1.8216966e+00 -1.4212881e+00 1.6257352e-01 
-1.8168867e+00 -1.4164630e+00 2.1003020e-01 
-1.8291339e+00 -1.4268451e+00 2.2327061e-01 
-1.8293896e+00 -1.4272616e+00 2.1505681e-01 
-1.8149343e+00 -1.4143696e+00 2.1327238e-01 
-1.8094213e+00 -1.4105393e+00 1.3645919e-01 
-1.8071226e+00 -1.4073926e+00 2.0847277e-01 
-1.8025753e+00 -1.4039193e+00 1.9593629e-01 
-1.8077824e+00 -1.4094008e+00 1.3749656e-01 
-1.8115350e+00 -1.4112977e+00 2.1226740e-01 
-1.8121372e+00 -1.4122939e+00 1.9331300e-01 
-1.8022190e+00 -1.4037642e+00 1.7328101e-01 
-1.7981209e+00 -1.3993871e+00 2.1278767e-01 
-1.8005725e+00 -1.4024283e+00 1.6718201e-01 
-1.8109090e+00 -1.4100655e+00 2.3303367e-01 
-1.7937703e+00 -1.3964202e+00 1.4040990e-01 
-1.7902745e+00 -1.3930527e+00 1.8008861e-01 
-1.7903510e+00 -1.3933471e+00 1.5705048e-01 
-1.7906781e+00 -1.3940741e+00 1.3156247e-01 
-1.7908489e+00 -1.3941736e+00 1.4848630e-01 
-1.7849185e+00 -1.3884248e+00 1.5812953e-01 
-1.7819606e+00 -1.3852028e+00 2.0433135e-01 
-1.7938266e+00 -1.3951637e+00 2.1761245e-01 
-1.7940584e+00 -1.3955646e+00 2.0948762e-01 
-1.7799069e+00 -1.3831697e+00 2.0795563e-01 
-1.7774768e+00 -1.3820527e+00 1.3266674e-01 
-1.7716360e+00 -1.3762966e+00 1.8981744e-01 
-1.7764989e+00 -1.3800337e+00 2.0133780e-01 
-1.7765718e+00 -1.3799996e+00 2.0682161e-01 
-1.7717679e+00 -1.3771962e+00 1.3191566e-01 
-1.7771392e+00 -1.3809686e+00 1.8796989e-01 
-1.7743599e+00 -1.3789783e+00 1.6894458e-01 
-1.7635437e+00 -1.3686579e+00 2.0756927e-01 
-1.7758856e+00 -1.3787059e+00 2.2730820e-01 
-1.7594562e+00 -1.3657596e+00 1.7393932e-01 
-1.7623448e+00 -1.3684701e+00 1.3611248e-01 
-1.7594832e+00 -1.3658297e+00 1.5156205e-01 
-1.7609611e+00 -1.3674370e+00 1.2772377e-01 
-1.7551556e+00 -1.3623548e+00 1.2622009e-01 
-1.7511841e+00 -1.3574158e+00 2.0173940e-01 
-1.7508649e+00 -1.3579680e+00 1.6820680e-01 
-1.7475283e+00 -1.3546021e+00 1.9918035e-01 
-1.7498212e+00 -1.3572655e+00 1.5276691e-01 
-1.7512960e+00 -1.3584305e+00 1.6056399e-01 
-1.7590938e+00 -1.3641491e+00 2.1219219e-01 
-1.7593014e+00 -1.3645353e+00 2.0415865e-01 
-1.7458637e+00 -1.3536650e+00 1.5724605e-01 
-1.7494996e+00 -1.3573152e+00 1.4233725e-01 
-1.7463071e+00 -1.3542925e+00 1.2833998e-01 
-1.7409593e+00 -1.3490927e+00 1.8384962e-01 
-1.7443489e+00 -1.3513147e+00 2.0118380e-01 
-1.7441922e+00 -1.3517306e+00 1.8078925e-01 
-1.7365277e+00 -1.3458962e+00 1.2695755e-01 
-1.7293420e+00 -1.3382471e+00 2.0224205e-01 
-1.7314122e+00 -1.3410009e+00 1.3186534e-01 
-1.7282075e+00 -1.3379409e+00 1.6819663e-01 
-1.7414770e+00 -1.3480408e+00 2.2182035e-01 
-1.7299876e+00 -1.3399382e+00 1.2337363e-01 
-1.7209448e+00 -1.3307447e+00 1.9284283e-01 
-1.7202429e+00 -1.3313518e+00 1.2118713e-01 
-1.7136151e+00 -1.3245039e+00 1.9408150e-01 
-1.7159591e+00 -1.3271863e+00 1.4769271e-01 
-1.7209038e+00 -1.3316808e+00 1.5578340e-01 
-1.7250054e+00 -1.3338063e+00 2.0702937e-01 
-1.7251886e+00 -1.3341711e+00 1.9910002e-01 
-1.7155139e+00 -1.3270226e+00 1.2396976e-01 
-1.7134078e+00 -1.3248546e+00 1.5372311e-01 
-1.7173340e+00 -1.3288571e+00 1.3361937e-01 
-1.7116184e+00 -1.3223993e+00 1.9755071e-01 
-1.7030138e+00 -1.3154683e+00 1.7885709e-01 
-1.7049741e+00 -1.3173797e+00 1.5084207e-01 
-1.7084829e+00 -1.3194383e+00 1.9672327e-01 
-1.6980082e+00 -1.3111566e+00 1.6318029e-01 
-1.7007185e+00 -1.3138186e+00 1.2771936e-01 
-1.6958028e+00 -1.3085642e+00 1.9730343e-01 
-1.7043773e+00 -1.3163831e+00 1.7341690e-01 
-1.6982530e+00 -1.3118079e+00 1.1908457e-01 
-1.7078192e+00 -1.3182410e+00 2.1661992e-01 
-1.6936307e+00 -1.3073965e+00 1.5343712e-01 
-1.6922694e+00 -1.3066581e+00 1.2245815e-01 
-1.6853541e+00 -1.3003299e+00 1.1974827e-01 
-1.6832211e+00 -1.2982272e+00 1.4279728e-01 
-1.6861318e+00 -1.3011686e+00 1.1644036e-01 
-1.6804023e+00 -1.2951283e+00 1.8929888e-01 
-1.6917510e+00 -1.3044475e+00 2.0221782e-01 
-1.6793295e+00 -1.2939013e+00 1.9168605e-01 
-1.6796405e+00 -1.2952359e+00 1.3479382e-01 
-1.6790305e+00 -1.2936524e+00 1.8785377e-01 
-1.6768169e+00 -1.2925653e+00 1.4162050e-01 
-1.6747009e+00 -1.2905426e+00 1.7054440e-01 
-1.6814425e+00 -1.2968546e+00 1.4381245e-01 
-1.6737883e+00 -1.2897022e+00 1.6298230e-01 
-1.6783801e+00 -1.2930168e+00 1.8708223e-01 
-1.6782469e+00 -1.2943087e+00 1.3054132e-01 
-1.6800314e+00 -1.2953377e+00 1.5583554e-01 
-1.6835616e+00 -1.2975132e+00 1.8809581e-01 
-1.6776450e+00 -1.2922689e+00 1.9006650e-01 
-1.6725528e+00 -1.2888330e+00 1.4609139e-01 
-1.6729680e+00 -1.2886701e+00 1.6915706e-01 
-1.6750500e+00 -1.2895941e+00 2.1187240e-01 
-1.6612338e+00 -1.2788382e+00 1.3682215e-01 
-1.6570497e+00 -1.2748197e+00 1.6353406e-01 
-1.6515858e+00 -1.2703995e+00 1.3811970e-01 
-1.6498713e+00 -1.2688034e+00 1.5872754e-01 
-1.6528993e+00 -1.2716343e+00 1.1861297e-01 
-1.6485964e+00 -1.2674544e+00 1.7395008e-01 
-1.6531141e+00 -1.2719002e+00 1.1348645e-01 
-1.6476232e+00 -1.2663254e+00 1.8472339e-01 
-1.6529347e+00 -1.2719772e+00 1.1196046e-01 
-1.6468873e+00 -1.2655009e+00 1.9042282e-01 
-1.6522094e+00 -1.2713584e+00 1.1571743e-01 
-1.6466362e+00 -1.2651792e+00 1.8863024e-01 
-1.6511804e+00 -1.2704158e+00 1.2348619e-01 
-1.6464863e+00 -1.2650265e+00 1.8501647e-01 
-1.6498623e+00 -1.2691573e+00 1.3377781e-01 
-1.6460551e+00 -1.2647301e+00 1.8240741e-01 
-1.6484239e+00 -1.2677788e+00 1.4511575e-01 
-1.6422335e+00 -1.2621150e+00 1.4343922e-01 
-1.6453923e+00 -1.2639960e+00 1.8364699e-01 
-1.6470953e+00 -1.2662323e+00 1.5727764e-01 
-1.6444662e+00 -1.2631271e+00 1.8802229e-01 
-1.6456389e+00 -1.2645648e+00 1.7028706e-01 
-1.6356987e+00 -1.2560887e+00 1.6186167e-01 
-1.6436006e+00 -1.2622769e+00 1.9461171e-01 
-1.6441829e+00 -1.2628741e+00 1.8634193e-01 
-1.6426941e+00 -1.2612607e+00 2.0717485e-01 
-1.6240002e+00 -1.2460103e+00 1.6305934e-01 
-1.6198362e+00 -1.2425377e+00 1.3350789e-01 
-1.6154226e+00 -1.2382689e+00 1.8025821e-01 
-1.6206207e+00 -1.2435472e+00 1.0760995e-01 
-1.6187867e+00 -1.2420127e+00 1.2408511e-01 
-1.6153890e+00 -1.2387208e+00 1.1492761e-01 
-1.6159170e+00 -1.2393057e+00 1.0928918e-01 
-1.6173587e+00 -1.2406547e+00 1.3493562e-01 
-1.6141738e+00 -1.2368740e+00 1.7912124e-01 
-1.6120147e+00 -1.2348382e+00 1.8256442e-01 
-1.6160605e+00 -1.2393088e+00 1.4664857e-01 
-1.6136981e+00 -1.2363657e+00 1.7838822e-01 
-1.6078399e+00 -1.2313077e+00 1.8479021e-01 
-1.6122104e+00 -1.2363120e+00 1.1216227e-01 
-1.6147522e+00 -1.2377640e+00 1.5901965e-01 
-1.6065785e+00 -1.2308476e+00 1.4715019e-01 
-1.6158588e+00 -1.2384146e+00 1.7077956e-01 
-1.6102904e+00 -1.2333415e+00 1.8116696e-01 
-1.6021819e+00 -1.2271127e+00 1.4933841e-01 
-1.6107401e+00 -1.2333324e+00 2.0266676e-01 
-1.5969353e+00 -1.2225050e+00 1.3782436e-01 
-1.5934815e+00 -1.2193130e+00 1.6827954e-01 
-1.6047380e+00 -1.2283798e+00 1.8773946e-01 
-1.5907885e+00 -1.2172204e+00 1.0827605e-01 
-1.5911268e+00 -1.2176818e+00 1.0470393e-01 
-1.5874726e+00 -1.2142600e+00 1.2907621e-01 
-1.5881511e+00 -1.2148459e+00 1.3917026e-01 
-1.5839133e+00 -1.2107457e+00 1.7614292e-01 
-1.5888338e+00 -1.2159132e+00 1.0340457e-01 
-1.5952806e+00 -1.2201605e+00 1.8118414e-01 
-1.5825515e+00 -1.2099202e+00 1.3931517e-01 
-1.5822680e+00 -1.2090230e+00 1.8019503e-01 
-1.5788029e+00 -1.2066935e+00 1.5451385e-01 
-1.5828294e+00 -1.2106285e+00 1.1829897e-01 
-1.5859473e+00 -1.2124233e+00 1.6442361e-01 
-1.5760590e+00 -1.2035156e+00 1.7595804e-01 
-1.5787066e+00 -1.2068272e+00 1.3558713e-01 
-1.5754619e+00 -1.2030932e+00 1.7356128e-01 
-1.5795548e+00 -1.2065198e+00 1.7943884e-01 
-1.5774530e+00 -1.2054341e+00 1.4746545e-01 
-1.5748963e+00 -1.2025501e+00 1.7462654e-01 
-1.5699821e+00 -1.1990031e+00 1.3761592e-01 
-1.5715692e+00 -1.2003653e+00 1.4034976e-01 
-1.5673048e+00 -1.1961275e+00 1.7978561e-01 
-1.5723253e+00 -1.2015854e+00 1.0465626e-01 
-1.5652932e+00 -1.1948135e+00 1.6508691e-01 
-1.5790613e+00 -1.2056183e+00 1.9836181e-01 
-1.5658206e+00 -1.1954964e+00 1.0831364e-01 
-1.5663393e+00 -1.1960517e+00 1.0290646e-01 
-1.5526272e+00 -1.1836685e+00 1.7225970e-01 
-1.5575644e+00 -1.1885326e+00 9.9425130e-02 
-1.5543109e+00 -1.1855221e+00 1.2445030e-01 
-1.5638250e+00 -1.1926042e+00 1.8471871e-01 
-1.5639734e+00 -1.1928865e+00 1.7707899e-01 
-1.5508850e+00 -1.1824960e+00 1.5159401e-01 
-1.5511672e+00 -1.1820383e+00 1.7625113e-01 
-1.5552211e+00 -1.1867127e+00 1.1125622e-01 
-1.5479590e+00 -1.1799364e+00 1.3055094e-01 
-1.5486143e+00 -1.1796695e+00 1.7555960e-01 
-1.5418944e+00 -1.1747348e+00 1.0182934e-01 
-1.5489920e+00 -1.1804175e+00 1.5707697e-01 
-1.5422410e+00 -1.1751221e+00 9.8353833e-02 
-1.5372750e+00 -1.1705744e+00 1.6195214e-01 
-1.5380780e+00 -1.1714447e+00 1.3651304e-01 
-1.5363040e+00 -1.1693606e+00 1.7611627e-01 
-1.5413245e+00 -1.1745466e+00 1.0052299e-01 
-1.5382502e+00 -1.1714032e+00 1.3994268e-01 
-1.5480784e+00 -1.1787119e+00 1.9420336e-01 
-1.5349854e+00 -1.1690315e+00 1.1783741e-01 
-1.5312705e+00 -1.1648750e+00 1.7057951e-01 
-1.5339751e+00 -1.1677434e+00 1.3760997e-01 
-1.5244157e+00 -1.1595454e+00 1.4845215e-01 
-1.5245556e+00 -1.1596698e+00 1.3402155e-01 
-1.5219371e+00 -1.1571677e+00 1.6859262e-01 
-1.5267704e+00 -1.1618408e+00 9.5429108e-02 
-1.5228723e+00 -1.1575516e+00 1.7349322e-01 
-1.5331675e+00 -1.1661727e+00 1.8091267e-01 
-1.5230082e+00 -1.1582327e+00 1.3834262e-01 
-1.5332975e+00 -1.1664319e+00 1.7331107e-01 
-1.5202914e+00 -1.1560771e+00 1.1996889e-01 
-1.5244573e+00 -1.1600503e+00 1.0713964e-01 
-1.5227779e+00 -1.1575718e+00 1.6755283e-01 
-1.5175374e+00 -1.1536254e+00 1.0183930e-01 
-1.5180361e+00 -1.1541722e+00 9.6558444e-02 
-1.5215552e+00 -1.1566591e+00 1.5630539e-01 
-1.5119649e+00 -1.1488440e+00 1.2416737e-01 
-1.5097049e+00 -1.1467218e+00 1.5836991e-01 
-1.5107088e+00 -1.1477628e+00 1.3348323e-01 
-1.5190842e+00 -1.1542176e+00 1.7303635e-01 
-1.5059210e+00 -1.1430792e+00 1.7228003e-01 
-1.5105903e+00 -1.1480496e+00 9.6589126e-02 
-1.5081524e+00 -1.1453387e+00 1.3883002e-01 
-1.5176443e+00 -1.1525091e+00 1.9026785e-01 
-1.4972136e+00 -1.1360916e+00 1.4553539e-01 
-1.4936378e+00 -1.1329825e+00 1.3161418e-01 
-1.4981117e+00 -1.1367269e+00 1.3734798e-01 
-1.4915297e+00 -1.1309210e+00 1.6504744e-01 
-1.4962826e+00 -1.1356488e+00 9.1480628e-02 
-1.5029279e+00 -1.1401671e+00 1.7723998e-01 
-1.4939936e+00 -1.1333741e+00 9.5693231e-02 
-1.4930108e+00 -1.1324381e+00 1.2753782e-01 
-1.4943856e+00 -1.1337945e+00 9.2148073e-02 
-1.5030546e+00 -1.1404225e+00 1.6962899e-01 
-1.4901589e+00 -1.1294231e+00 1.6922581e-01 
-1.4940653e+00 -1.1338086e+00 1.0306272e-01 
-1.4851887e+00 -1.1257968e+00 1.1537455e-01 
-1.4828874e+00 -1.1236819e+00 1.5550539e-01 
-1.4880362e+00 -1.1275607e+00 1.6848105e-01 
-1.4884275e+00 -1.1282437e+00 1.4979084e-01 
-1.4756464e+00 -1.1170483e+00 1.6885571e-01 
-1.4803669e+00 -1.1219889e+00 9.2804827e-02 
-1.4875758e+00 -1.1266779e+00 1.8651800e-01 
-1.4744779e+00 -1.1158576e+00 1.6335295e-01 
-1.4703295e+00 -1.1129906e+00 1.4204930e-01 
-1.4770463e+00 -1.1190194e+00 1.1549891e-01 
-1.4697583e+00 -1.1124609e+00 1.2922806e-01 
-1.4702231e+00 -1.1128489e+00 9.5719121e-02 
-1.4707853e+00 -1.1133858e+00 9.0630233e-02 
-1.4680130e+00 -1.1108134e+00 1.3732632e-01 
-1.4633709e+00 -1.1064066e+00 1.6663198e-01 
-1.4615182e+00 -1.1051211e+00 1.6160722e-01 
-1.4673711e+00 -1.1108837e+00 9.8213814e-02 
-1.4662064e+00 -1.1097046e+00 8.7679639e-02 
-1.4729807e+00 -1.1144550e+00 1.7366716e-01 
-1.4633404e+00 -1.1069244e+00 1.2691331e-01 
-1.4731078e+00 -1.1147020e+00 1.6602498e-01 
-1.4580040e+00 -1.1024390e+00 1.2682903e-01 
-1.4561263e+00 -1.1006869e+00 1.5214539e-01 
-1.4596198e+00 -1.1037788e+00 1.3110474e-01 
-1.4571108e+00 -1.1010708e+00 1.6069774e-01 
-1.4581810e+00 -1.1019566e+00 1.6506237e-01 
-1.4495710e+00 -1.0952114e+00 1.1706169e-01 
-1.4586140e+00 -1.1026362e+00 1.4622809e-01 
-1.4490875e+00 -1.0947528e+00 1.1065299e-01 
-1.4459147e+00 -1.0916063e+00 1.6551262e-01 
-1.4505247e+00 -1.0963321e+00 8.9155436e-02 
-1.4463289e+00 -1.0923530e+00 1.2467376e-01 
-1.4437352e+00 -1.0901917e+00 1.3878205e-01 
-1.4471861e+00 -1.0931404e+00 8.9717969e-02 
-1.4475381e+00 -1.0934993e+00 8.6278662e-02 
-1.4577825e+00 -1.1011413e+00 1.8288617e-01 
-1.4318851e+00 -1.0798531e+00 1.5837538e-01 
-1.4364989e+00 -1.0841811e+00 8.4098175e-02 
-1.4433286e+00 -1.0890610e+00 1.7021167e-01 
-1.4329515e+00 -1.0808402e+00 1.2933846e-01 
-1.4314837e+00 -1.0797273e+00 1.2349983e-01 
-1.4434503e+00 -1.0893052e+00 1.6255143e-01 
-1.4296875e+00 -1.0780921e+00 1.4893441e-01 
-1.4306653e+00 -1.0784656e+00 1.6262157e-01 
-1.4345272e+00 -1.0826678e+00 9.5760062e-02 
-1.4299099e+00 -1.0783591e+00 1.1605857e-01 
-1.4237899e+00 -1.0730939e+00 8.9862660e-02 
-1.4243016e+00 -1.0736383e+00 8.4821910e-02 
-1.4286876e+00 -1.0767199e+00 1.6181616e-01 
-1.4291098e+00 -1.0774398e+00 1.4288495e-01 
-1.4206994e+00 -1.0705396e+00 1.0263180e-01 
-1.4174255e+00 -1.0677258e+00 1.3544881e-01 
-1.4165318e+00 -1.0665447e+00 1.6221447e-01 
-1.4210937e+00 -1.0711448e+00 8.5631274e-02 
-1.4184059e+00 -1.0684214e+00 1.2803844e-01 
-1.4283216e+00 -1.0759418e+00 1.7936268e-01 
-1.4154012e+00 -1.0654453e+00 1.5676399e-01 
-1.4179909e+00 -1.0683572e+00 1.0801232e-01 
-1.4118173e+00 -1.0629270e+00 1.0600083e-01 
-1.4135128e+00 -1.0641172e+00 1.3566597e-01 
-1.4058008e+00 -1.0576482e+00 1.3028891e-01 
-1.4061973e+00 -1.0581096e+00 1.0542034e-01 
-1.4055947e+00 -1.0576173e+00 1.1244416e-01 
-1.4036140e+00 -1.0558351e+00 1.4589390e-01 
-1.4044862e+00 -1.0561903e+00 1.6025053e-01 
-1.4027508e+00 -1.0549560e+00 1.5522698e-01 
-1.4084193e+00 -1.0603877e+00 9.0950593e-02 
-1.4072026e+00 -1.0592310e+00 8.0594420e-02 
-1.4140396e+00 -1.0640150e+00 1.6687441e-01 
-1.4141558e+00 -1.0642517e+00 1.5919234e-01 
-1.4012915e+00 -1.0538993e+00 8.4189080e-02 
-1.4017164e+00 -1.0544175e+00 8.0739059e-02 
-1.3914660e+00 -1.0456102e+00 1.3218974e-01 
-1.3978596e+00 -1.0504837e+00 1.5449680e-01 
-1.3990760e+00 -1.0519880e+00 1.2430105e-01 
-1.3996401e+00 -1.0518937e+00 1.5864590e-01 
-1.3917165e+00 -1.0458032e+00 1.1738252e-01 
-1.4000112e+00 -1.0525210e+00 1.3959821e-01 
-1.3875178e+00 -1.0418322e+00 1.5917684e-01 
-1.3919898e+00 -1.0463829e+00 8.2001820e-02 
-1.3992060e+00 -1.0510772e+00 1.7594638e-01 
-1.3850406e+00 -1.0400285e+00 1.2137846e-01 
-1.3791679e+00 -1.0351981e+00 1.1812522e-01 
-1.3801652e+00 -1.0359966e+00 1.0339029e-01 
-1.3777601e+00 -1.0339019e+00 1.4285383e-01 
-1.3787031e+00 -1.0346723e+00 8.4945738e-02 
-1.3786389e+00 -1.0347488e+00 7.9400830e-02 
-1.3738458e+00 -1.0303804e+00 1.5223496e-01 
-1.3782769e+00 -1.0346349e+00 7.7158913e-02 
-1.3850909e+00 -1.0393456e+00 1.6361067e-01 
-1.3851969e+00 -1.0395763e+00 1.5592507e-01 
-1.3753086e+00 -1.0318455e+00 1.1132871e-01 
-1.3735945e+00 -1.0304173e+00 1.0128394e-01 
-1.3727331e+00 -1.0291263e+00 1.5659037e-01 
-1.3763555e+00 -1.0331520e+00 8.8634446e-02 
-1.3658308e+00 -1.0239130e+00 1.2912178e-01 
-1.3665472e+00 -1.0244215e+00 1.1257035e-01 
-1.3651494e+00 -1.0231005e+00 1.3487475e-01 
-1.3708609e+00 -1.0274304e+00 1.5553719e-01 
-1.3711925e+00 -1.0280968e+00 1.3641089e-01 
-1.3588781e+00 -1.0175166e+00 1.5623815e-01 
-1.3632236e+00 -1.0219889e+00 7.8566782e-02 
-1.3589787e+00 -1.0180897e+00 1.0696856e-01 
-1.3704257e+00 -1.0266154e+00 1.7263940e-01 
-1.3578981e+00 -1.0165038e+00 1.5119965e-01 
-1.3603188e+00 -1.0194290e+00 1.0098944e-01 
-1.3540777e+00 -1.0139427e+00 1.1391987e-01 
-1.3556186e+00 -1.0151536e+00 8.7286435e-02 
-1.3561732e+00 -1.0156815e+00 7.8838952e-02 
-1.3523544e+00 -1.0123791e+00 1.3977580e-01 
-1.3563761e+00 -1.0159218e+00 7.5346857e-02 
-1.3512230e+00 -1.0113332e+00 1.2261230e-01 
-1.3472587e+00 -1.0075797e+00 1.5443981e-01 
-1.3453528e+00 -1.0063548e+00 1.4920679e-01 
-1.3509719e+00 -1.0116702e+00 8.4183730e-02 
-1.3497399e+00 -1.0104210e+00 7.3767535e-02 
-1.3564808e+00 -1.0150909e+00 1.6044891e-01 
-1.3471490e+00 -1.0080003e+00 1.1109594e-01 
-1.3565766e+00 -1.0153166e+00 1.5275949e-01 
-1.3442614e+00 -1.0054851e+00 1.1814767e-01 
-1.3405492e+00 -1.0024763e+00 1.2617095e-01 
-1.3397388e+00 -1.0018206e+00 1.0073876e-01 
-1.3405675e+00 -1.0018891e+00 1.4857841e-01 
-1.3424218e+00 -1.0034013e+00 1.5250182e-01 
-1.3416152e+00 -1.0033184e+00 1.1777072e-01 
-1.3341140e+00 -9.9705666e-01 9.6551634e-02 
-1.3427651e+00 -1.0040404e+00 1.3330355e-01 
-1.3339093e+00 -9.9676234e-01 7.9046622e-02 
-1.3342578e+00 -9.9715608e-01 7.4272558e-02 
-1.3332582e+00 -9.9635279e-01 9.5902890e-02 
-1.3305992e+00 -9.9364078e-01 1.5330695e-01 
-1.3343594e+00 -9.9735725e-01 7.1996175e-02 
-1.3348644e+00 -9.9799061e-01 7.5409450e-02 
-1.3419759e+00 -1.0025659e+00 1.6943078e-01 
-1.3271939e+00 -9.9116164e-01 1.3696882e-01 
-1.3190062e+00 -9.8426557e-01 1.1469258e-01 
-1.3172443e+00 -9.8260278e-01 1.4642881e-01 
-1.3215311e+00 -9.8660809e-01 7.0669748e-02 
-1.3282014e+00 -9.9124759e-01 1.5739407e-01 
-1.3282881e+00 -9.9146825e-01 1.4970383e-01 
-1.3177831e+00 -9.8329800e-01 9.9263579e-02 
-1.3155081e+00 -9.8147494e-01 1.2332455e-01 
-1.3161854e+00 -9.8134100e-01 1.5088315e-01 
-1.3196859e+00 -9.8527795e-01 8.2223281e-02 
-1.3150783e+00 -9.8088413e-01 1.1598144e-01 
-1.3117440e+00 -9.7810882e-01 8.2159743e-02 
-1.3123126e+00 -9.7862017e-01 7.3851936e-02 
-1.3124787e+00 -9.7889131e-01 7.0320874e-02 
-1.3143396e+00 -9.7971761e-01 1.4967006e-01 
-1.3146377e+00 -9.8037243e-01 1.3036726e-01 
-1.3040373e+00 -9.7175890e-01 1.0799451e-01 
-1.3047665e+00 -9.7233200e-01 9.4403885e-02 
-1.3042535e+00 -9.7184616e-01 1.1186838e-01 
-1.3022971e+00 -9.7027433e-01 1.3409524e-01 
-1.3026704e+00 -9.7020882e-01 1.5042992e-01 
-1.3069307e+00 -9.7444379e-01 7.2330520e-02 
-1.3040296e+00 -9.7160065e-01 1.1706980e-01 
-1.3138932e+00 -9.7890627e-01 1.6629595e-01 
-1.3016601e+00 -9.6910793e-01 1.4574473e-01 
-1.3041041e+00 -9.7201663e-01 9.4161451e-02 
-1.2933850e+00 -9.6275514e-01 9.1760196e-02 
-1.2908158e+00 -9.6066934e-01 1.2050390e-01 
-1.2912935e+00 -9.6050090e-01 1.4882915e-01 
-1.2894473e+00 -9.5933318e-01 1.4365943e-01 
-1.2948215e+00 -9.6435213e-01 7.7956505e-02 
-1.2937634e+00 -9.6326220e-01 6.7540377e-02 
-1.3003058e+00 -9.6776670e-01 1.5442181e-01 
-1.2908442e+00 -9.6051675e-01 1.1735935e-01 
-1.3003846e+00 -9.6798027e-01 1.4673848e-01 
-1.2904843e+00 -9.6027577e-01 7.4036755e-02 
-1.2908205e+00 -9.6060652e-01 6.9388501e-02 
-1.2809716e+00 -9.5246762e-01 1.0657976e-01 
-1.2805771e+00 -9.5204240e-01 9.3306154e-02 
-1.2847408e+00 -9.5493460e-01 1.4321384e-01 
-1.2777567e+00 -9.4965261e-01 1.3155024e-01 
-1.2866144e+00 -9.5646566e-01 1.4680609e-01 
-1.2857344e+00 -9.5634341e-01 1.1174504e-01 
-1.2869287e+00 -9.5708245e-01 1.2748829e-01 
-1.2767658e+00 -9.4875896e-01 1.1370015e-01 
-1.2751253e+00 -9.4712579e-01 1.4757453e-01 
-1.2793308e+00 -9.5131660e-01 6.9236979e-02 
-1.2785105e+00 -9.5014453e-01 1.1599091e-01 
-1.2861831e+00 -9.5564991e-01 1.6326681e-01 
-1.2706565e+00 -9.4363433e-01 7.4971154e-02 
-1.2663116e+00 -9.4021147e-01 1.1770429e-01 
-1.2693052e+00 -9.4254118e-01 6.8958424e-02 
-1.2694540e+00 -9.4280601e-01 6.5410264e-02 
-1.2620835e+00 -9.3640161e-01 1.4106464e-01 
-1.2662854e+00 -9.4024944e-01 6.4473599e-02 
-1.2727833e+00 -9.4472444e-01 1.5155061e-01 
-1.2728531e+00 -9.4493198e-01 1.4388384e-01 
-1.2635412e+00 -9.3781865e-01 9.6926242e-02 
-1.2615522e+00 -9.3614978e-01 1.0133869e-01 
-1.2609867e+00 -9.3520993e-01 1.4567971e-01 
-1.2602049e+00 -9.3500888e-01 9.4727360e-02 
-1.2645456e+00 -9.3895859e-01 7.5955845e-02 
-1.2534310e+00 -9.2938125e-01 1.2876298e-01 
-1.2593150e+00 -9.3360054e-01 1.4414175e-01 
-1.2512950e+00 -9.2755437e-01 8.6917527e-02 
-1.2595766e+00 -9.3423498e-01 1.2475596e-01 
-1.2494644e+00 -9.2600268e-01 1.1148603e-01 
-1.2479213e+00 -9.2445803e-01 1.4509276e-01 
-1.2520854e+00 -9.2852551e-01 6.6294342e-02 
-1.2493879e+00 -9.2586607e-01 1.1352922e-01 
-1.2588497e+00 -9.3280810e-01 1.6033436e-01 
-1.2478335e+00 -9.2461091e-01 6.9368981e-02 
-1.2482051e+00 -9.2497069e-01 6.4697124e-02 
-1.2470884e+00 -9.2351043e-01 1.4026281e-01 
-1.2492204e+00 -9.2613530e-01 8.8274017e-02 
-1.2450839e+00 -9.2246836e-01 8.3057463e-02 
-1.2421849e+00 -9.2005861e-01 1.1502563e-01 
-1.2448267e+00 -9.2190278e-01 1.2081055e-01 
-1.2367547e+00 -9.1503769e-01 1.4375313e-01 
-1.2349814e+00 -9.1388643e-01 1.3852352e-01 
-1.2404190e+00 -9.1877580e-01 7.1771726e-02 
-1.2391105e+00 -9.1763204e-01 6.1480671e-02 
-1.2456331e+00 -9.2206168e-01 1.4877187e-01 
-1.2456937e+00 -9.2226255e-01 1.4111170e-01 
-1.2364688e+00 -9.1528922e-01 9.3576036e-02 
-1.2311156e+00 -9.1085464e-01 9.9677704e-02 
-1.2294614e+00 -9.0949875e-01 1.2621887e-01 
-1.2311416e+00 -9.1081917e-01 9.5355436e-02 
-1.2282451e+00 -9.0830380e-01 7.0384435e-02 
-1.2305257e+00 -9.0975726e-01 1.3808136e-01 
-1.2271439e+00 -9.0741819e-01 6.4419605e-02 
-1.2323078e+00 -9.1116601e-01 1.4146161e-01 
-1.2314941e+00 -9.1109747e-01 1.0598604e-01 
-1.2267249e+00 -9.0719467e-01 6.0809284e-02 
-1.2325890e+00 -9.1175723e-01 1.2202974e-01 
-1.2220359e+00 -9.0322983e-01 1.1134155e-01 
-1.2209553e+00 -9.0204477e-01 1.4262764e-01 
-1.2251379e+00 -9.0606546e-01 6.3315362e-02 
-1.2318470e+00 -9.1033578e-01 1.5750039e-01 
-1.2182907e+00 -9.0024316e-01 1.1234605e-01 
-1.2181727e+00 -9.0006131e-01 8.9589961e-02 
-1.2179457e+00 -8.9978927e-01 1.0805482e-01 
-1.2081666e+00 -8.9166820e-01 1.3597271e-01 
-1.2123971e+00 -8.9537716e-01 5.8491755e-02 
-1.2187800e+00 -8.9976895e-01 1.4606619e-01 
-1.2188326e+00 -8.9996475e-01 1.3840710e-01 
-1.2096891e+00 -8.9308512e-01 9.0252645e-02 
-1.2078849e+00 -8.9150816e-01 8.2111850e-02 
-1.2057055e+00 -8.8975656e-01 1.2365190e-01 
-1.2073153e+00 -8.9059305e-01 1.4060998e-01 
-1.2106779e+00 -8.9420968e-01 7.0165358e-02 
-1.2060920e+00 -8.8996410e-01 6.4890943e-02 
-1.2064745e+00 -8.9034748e-01 6.0257975e-02 
-1.2056322e+00 -8.8898909e-01 1.3894753e-01 
-1.1973702e+00 -8.8284004e-01 8.6503379e-02 
-1.2058622e+00 -8.8960040e-01 1.1940971e-01 
-1.1947014e+00 -8.8073605e-01 1.0984749e-01 
-1.1943310e+00 -8.8010061e-01 1.4023574e-01 
-1.1984572e+00 -8.8404876e-01 6.0554814e-02 
-1.1957895e+00 -8.8139367e-01 1.0921432e-01 
-1.2051401e+00 -8.8819462e-01 1.5472758e-01 
-1.1936791e+00 -8.7922108e-01 1.3562466e-01 
-1.1925298e+00 -8.7883872e-01 8.5279807e-02 
-1.1958865e+00 -8.8186145e-01 8.2161136e-02 
-1.1913761e+00 -8.7767655e-01 1.1656804e-01 
-1.1839138e+00 -8.7177032e-01 9.4533540e-02 
-1.1857713e+00 -8.7316573e-01 6.5864302e-02 
-1.1822165e+00 -8.7040067e-01 1.2126033e-01 
-1.1858103e+00 -8.7321311e-01 6.0057536e-02 
-1.1835754e+00 -8.7105930e-01 1.3887754e-01 
-1.1816816e+00 -8.6987114e-01 1.3367979e-01 
-1.1860100e+00 -8.7345797e-01 5.5984020e-02 
-1.1870779e+00 -8.7475634e-01 6.6057436e-02 
-1.1858894e+00 -8.7352633e-01 5.5848524e-02 
-1.1922181e+00 -8.7776345e-01 1.4342032e-01 
-1.1824511e+00 -8.7042600e-01 1.0789042e-01 
-1.1836874e+00 -8.7158668e-01 9.0649866e-02 
-1.1922636e+00 -8.7795293e-01 1.3575707e-01 
-1.1766815e+00 -8.6576265e-01 8.4274240e-02 
-1.1773807e+00 -8.6632717e-01 7.9846822e-02 
-1.1714026e+00 -8.6149663e-01 1.0738452e-01 
-1.1774828e+00 -8.6580384e-01 1.3324164e-01 
-1.1791734e+00 -8.6715448e-01 1.3642062e-01 
-1.1783941e+00 -8.6715460e-01 1.0047439e-01 
-1.1794387e+00 -8.6773884e-01 1.1679879e-01 
-1.1680635e+00 -8.5839182e-01 1.3776541e-01 
-1.1721207e+00 -8.6228043e-01 5.7795215e-02 
-1.1672285e+00 -8.5793322e-01 1.0662317e-01 
-1.1695430e+00 -8.5981458e-01 9.9373102e-02 
-1.1787052e+00 -8.6634374e-01 1.5201318e-01 
-1.1652272e+00 -8.5624921e-01 6.0581211e-02 
-1.1656159e+00 -8.5659736e-01 5.6038432e-02 
-1.1629611e+00 -8.5445875e-01 7.7237733e-02 
-1.1606754e+00 -8.5260791e-01 8.8916168e-02 
-1.1590595e+00 -8.5129845e-01 1.1888184e-01 
-1.1555221e+00 -8.4826434e-01 1.3131756e-01 
-1.1596371e+00 -8.5191470e-01 5.2955166e-02 
-1.1659118e+00 -8.5606146e-01 1.4081796e-01 
-1.1562772e+00 -8.4887201e-01 1.0590412e-01 
-1.1659499e+00 -8.5624605e-01 1.3316411e-01 
-1.1547126e+00 -8.4725577e-01 1.3602814e-01 
-1.1580888e+00 -8.5081136e-01 6.4554282e-02 
-1.1482807e+00 -8.4247738e-01 1.0496707e-01 
-1.1530331e+00 -8.4558791e-01 1.3395891e-01 
-1.1532314e+00 -8.4617889e-01 1.1430590e-01 
-1.1459502e+00 -8.4050709e-01 5.2182909e-02 
-1.1452421e+00 -8.3987623e-01 5.5761173e-02 
-1.1420444e+00 -8.3699495e-01 1.3541463e-01 
-1.1443464e+00 -8.3915222e-01 8.1389785e-02 
-1.1461552e+00 -8.4095281e-01 5.5072624e-02 
-1.1433696e+00 -8.3819485e-01 1.0516510e-01 
-1.1431475e+00 -8.3809471e-01 6.1434966e-02 
-1.1525607e+00 -8.4481794e-01 1.4934027e-01 
-1.1413002e+00 -8.3612585e-01 1.3103634e-01 
-1.1436106e+00 -8.3891785e-01 7.6363385e-02 
-1.1376793e+00 -8.3375877e-01 8.9628018e-02 
-1.1360562e+00 -8.3240265e-01 1.1658662e-01 
-1.1389635e+00 -8.3451295e-01 1.1248425e-01 
-1.1356225e+00 -8.3202410e-01 7.8915685e-02 
-1.1314944e+00 -8.2820958e-01 1.3433029e-01 
-1.1296587e+00 -8.2697463e-01 1.2913831e-01 
-1.1350178e+00 -8.3189023e-01 6.0653195e-02 
-1.1337757e+00 -8.3065462e-01 5.0389618e-02 
-1.1303517e+00 -8.2758301e-01 1.0385239e-01 
-1.1399125e+00 -8.3469057e-01 1.3825275e-01 
-1.1399474e+00 -8.3486539e-01 1.3062498e-01 
-1.1253937e+00 -8.2376701e-01 1.0255665e-01 
-1.1258533e+00 -8.2401246e-01 9.0069391e-02 
-1.1250345e+00 -8.2322794e-01 5.6411184e-02 
-1.1254370e+00 -8.2362026e-01 5.1864587e-02 
-1.1271628e+00 -8.2440066e-01 1.3146544e-01 
-1.1273932e+00 -8.2494378e-01 1.1183678e-01 
-1.1237053e+00 -8.2156050e-01 1.2848809e-01 
-1.1243010e+00 -8.2268018e-01 9.5161110e-02 
-1.1163357e+00 -8.1591326e-01 1.3305044e-01 
-1.1186490e+00 -8.1818980e-01 7.8438245e-02 
-1.1202979e+00 -8.1977433e-01 5.2438088e-02 
-1.1166631e+00 -8.1649625e-01 7.7227101e-02 
-1.1193604e+00 -8.1865722e-01 9.6011013e-02 
-1.1163503e+00 -8.1620312e-01 7.2385766e-02 
-1.1267288e+00 -8.2365638e-01 1.4672491e-01 
-1.1133060e+00 -8.1381887e-01 1.1416828e-01 
-1.1137727e+00 -8.1409317e-01 1.0305043e-01 
-1.1040711e+00 -8.0609345e-01 1.2679757e-01 
-1.1081694e+00 -8.0972278e-01 4.7787186e-02 
-1.1142319e+00 -8.1369877e-01 1.3574789e-01 
-1.1069597e+00 -8.0864143e-01 4.7782373e-02 
-1.1142622e+00 -8.1386518e-01 1.2815586e-01 
-1.1027941e+00 -8.0527788e-01 1.0025112e-01 
-1.1054988e+00 -8.0729365e-01 5.1809028e-02 
-1.1032789e+00 -8.0561060e-01 8.8166766e-02 
-1.1032170e+00 -8.0512750e-01 1.3151193e-01 
-1.1065944e+00 -8.0854660e-01 5.9169535e-02 
-1.1015714e+00 -8.0421078e-01 8.0206499e-02 
-1.1002573e+00 -8.0299842e-01 5.7185370e-02 
-1.0949297e+00 -7.9875356e-01 7.3519528e-02 
-1.1016502e+00 -8.0353743e-01 1.2911025e-01 
-1.1018364e+00 -8.0409783e-01 1.0945892e-01 
-1.0924567e+00 -7.9681468e-01 8.4879249e-02 
-1.0908815e+00 -7.9554355e-01 1.1188104e-01 
-1.0922183e+00 -7.9650444e-01 9.9330775e-02 
-1.0909264e+00 -7.9524720e-01 1.3096137e-01 
-1.0932500e+00 -7.9743493e-01 7.5470433e-02 
-1.0949318e+00 -7.9901850e-01 4.9805138e-02 
-1.0929084e+00 -7.9714227e-01 8.2945302e-02 
-1.1012067e+00 -8.0285829e-01 1.4416391e-01 
-1.0902594e+00 -7.9436046e-01 1.2627552e-01 
-1.0925089e+00 -7.9711515e-01 7.1299627e-02 
-1.0888247e+00 -7.9386491e-01 8.3043456e-02 
-1.0859886e+00 -7.9141659e-01 4.7944982e-02 
-1.0854222e+00 -7.9090464e-01 5.1541023e-02 
-1.0804390e+00 -7.8710139e-01 9.7931594e-02 
-1.0805660e+00 -7.8666574e-01 1.2997937e-01 
-1.0787804e+00 -7.8557801e-01 1.2466461e-01 
-1.0840102e+00 -7.9020411e-01 5.5456024e-02 
-1.0828842e+00 -7.8908312e-01 4.5181450e-02 
-1.0799302e+00 -7.8643060e-01 1.0096101e-01 
-1.0888416e+00 -7.9303139e-01 1.3329719e-01 
-1.0797404e+00 -7.8640229e-01 7.1841210e-02 
-1.0888648e+00 -7.9318786e-01 1.2571956e-01 
-1.0745184e+00 -7.8216553e-01 7.3106274e-02 
-1.0735111e+00 -7.8132486e-01 6.9831043e-02 
-1.0767821e+00 -7.8344077e-01 1.2419377e-01 
-1.0763322e+00 -7.8302866e-01 1.2676404e-01 
-1.0754604e+00 -7.8296375e-01 9.0028055e-02 
-1.0765635e+00 -7.8358382e-01 1.0707258e-01 
-1.0681143e+00 -7.7692360e-01 6.7532323e-02 
-1.0693884e+00 -7.7801973e-01 7.2351351e-02 
-1.0657705e+00 -7.7483094e-01 1.2863216e-01 
-1.0697186e+00 -7.7857465e-01 4.7300700e-02 
-1.0679274e+00 -7.7684528e-01 8.2784802e-02 
-1.0664331e+00 -7.7547449e-01 4.7870975e-02 
-1.0759615e+00 -7.8235143e-01 1.4162220e-01 
-1.0646828e+00 -7.7418798e-01 4.3834914e-02 
-1.0649633e+00 -7.7417892e-01 1.0117187e-01 
-1.0586607e+00 -7.6935470e-01 1.1347819e-01 
-1.0581599e+00 -7.6896614e-01 9.6721962e-02 
-1.0575987e+00 -7.6841372e-01 6.9743969e-02 
-1.0647395e+00 -7.7373135e-01 1.1991850e-01 
-1.0537471e+00 -7.6521361e-01 1.2257032e-01 
-1.0578232e+00 -7.6882577e-01 4.2715792e-02 
-1.0637387e+00 -7.7270043e-01 1.3083281e-01 
-1.0637537e+00 -7.7284205e-01 1.2328736e-01 
-1.0546089e+00 -7.6603740e-01 6.4110607e-02 
-1.0529912e+00 -7.6424044e-01 1.2718193e-01 
-1.0562772e+00 -7.6771593e-01 5.4212473e-02 
-1.0512390e+00 -7.6329029e-01 9.6296042e-02 
-1.0472786e+00 -7.6000333e-01 4.4235684e-02 
-1.0462649e+00 -7.5915915e-01 4.8764955e-02 
-1.0474296e+00 -7.6024514e-01 4.1489709e-02 
-1.0513246e+00 -7.6278937e-01 1.2438708e-01 
-1.0514983e+00 -7.6325715e-01 1.0472630e-01 
-1.0402825e+00 -7.5446999e-01 1.1474130e-01 
-1.0408589e+00 -7.5462931e-01 1.2656374e-01 
-1.0448575e+00 -7.5846905e-01 4.4841651e-02 
-1.0395584e+00 -7.5395310e-01 8.6850949e-02 
-1.0387588e+00 -7.5331336e-01 1.0255960e-01 
-1.0509496e+00 -7.6211113e-01 1.3908690e-01 
-1.0407314e+00 -7.5481611e-01 7.1577959e-02 
-1.0410035e+00 -7.5495702e-01 9.0936609e-02 
-1.0399903e+00 -7.5374591e-01 1.2204637e-01 
-1.0424336e+00 -7.5642109e-01 6.6022098e-02 
-1.0342027e+00 -7.4954730e-01 8.9830048e-02 
-1.0387521e+00 -7.5270134e-01 1.2084247e-01 
-1.0352741e+00 -7.5040758e-01 6.3218512e-02 
-1.0336144e+00 -7.4909157e-01 7.4864149e-02 
-1.0307279e+00 -7.4625349e-01 1.2569666e-01 
-1.0289361e+00 -7.4520320e-01 1.2040184e-01 
-1.0330632e+00 -7.4874735e-01 4.0342417e-02 
-1.0296348e+00 -7.4574614e-01 9.6409753e-02 
-1.0388149e+00 -7.5254351e-01 1.2837604e-01 
-1.0293672e+00 -7.4534398e-01 1.0995441e-01 
-1.0388294e+00 -7.5268191e-01 1.2088851e-01 
-1.0315466e+00 -7.4777073e-01 5.1741738e-02 
-1.0289978e+00 -7.4528480e-01 4.0416505e-02 
-1.0272735e+00 -7.4382019e-01 4.4346750e-02 
-1.0254591e+00 -7.4243373e-01 6.3668951e-02 
-1.0218709e+00 -7.3963696e-01 1.0964565e-01 
-1.0203210e+00 -7.3849684e-01 9.3087919e-02 
-1.0212885e+00 -7.3906142e-01 6.2826380e-02 
-1.0266072e+00 -7.4282598e-01 1.2202273e-01 
-1.0267876e+00 -7.4330449e-01 1.0248292e-01 
-1.0185050e+00 -7.3686612e-01 6.7566149e-02 
-1.0243032e+00 -7.4158764e-01 8.5132197e-02 
-1.0162696e+00 -7.3483777e-01 1.2435712e-01 
-1.0202335e+00 -7.3854011e-01 4.2479668e-02 
-1.0181304e+00 -7.3663712e-01 7.8610457e-02 
-1.0262386e+00 -7.4219495e-01 1.3657467e-01 
-1.0135156e+00 -7.3292947e-01 8.2877390e-02 
-1.0175729e+00 -7.3598063e-01 9.4598398e-02 
-1.0137613e+00 -7.3312914e-01 6.5684095e-02 
-1.0102090e+00 -7.3024327e-01 6.1977953e-02 
-1.0092698e+00 -7.2937006e-01 4.0601525e-02 
-1.0085911e+00 -7.2878677e-01 4.4167373e-02 
-1.0045403e+00 -7.2557682e-01 1.1844276e-01 
-1.0086170e+00 -7.2904319e-01 3.8011689e-02 
-1.0051967e+00 -7.2613376e-01 9.4580159e-02 
-1.0050629e+00 -7.2606218e-01 6.3347638e-02 
-1.0143037e+00 -7.3283118e-01 1.2598990e-01 
-1.0143074e+00 -7.3296231e-01 1.1857709e-01 
-1.0038919e+00 -7.2467905e-01 1.2290602e-01 
-1.0020565e+00 -7.2377431e-01 8.3203204e-02 
-1.0012760e+00 -7.2317886e-01 9.8817058e-02 
-1.0053924e+00 -7.2665507e-01 4.7409832e-02 
-9.9677736e-01 -7.1942759e-01 8.9690141e-02 
-9.9711728e-01 -7.1969706e-01 6.2754564e-02 
-1.0022284e+00 -7.2328269e-01 1.1976384e-01 
-9.9919581e-01 -7.2089797e-01 1.1718749e-01 
-9.9499983e-01 -7.1801972e-01 6.6344440e-02 
-1.0023996e+00 -7.2375119e-01 1.0027891e-01 
-9.9201018e-01 -7.1535206e-01 1.2221446e-01 
-9.9408859e-01 -7.1714038e-01 4.6955038e-02 
-9.9600279e-01 -7.1901339e-01 4.0172145e-02 
-9.9493212e-01 -7.1806449e-01 6.9508664e-02 
-9.9384254e-01 -7.1716756e-01 6.8660066e-02 
-9.9242926e-01 -7.1582699e-01 9.2669256e-02 
-1.0018806e+00 -7.2263020e-01 1.3410953e-01 
-9.9364406e-01 -7.1723038e-01 6.1230484e-02 
-9.9038231e-01 -7.1421939e-01 4.0750191e-02 
-9.9336636e-01 -7.1648335e-01 1.0049304e-01 
-9.8949009e-01 -7.1356755e-01 3.6670122e-02 
-9.8262554e-01 -7.0821661e-01 1.0567287e-01 
-9.8210168e-01 -7.0781386e-01 8.7696411e-02 
-9.8037785e-01 -7.0626372e-01 1.1624594e-01 
-9.8558158e-01 -7.1077347e-01 4.5982592e-02 
-9.8449010e-01 -7.0967734e-01 3.5696484e-02 
-9.9009150e-01 -7.1341294e-01 1.2362819e-01 
-9.8218238e-01 -7.0779330e-01 6.4342245e-02 
-9.9008638e-01 -7.1354139e-01 1.1627572e-01 
-9.7736973e-01 -7.0349121e-01 1.2104891e-01 
-9.7760749e-01 -7.0403552e-01 5.8653072e-02 
-9.7677648e-01 -7.0340592e-01 6.2265307e-02 
-9.7654009e-01 -7.0323873e-01 5.8023576e-02 
-9.7150970e-01 -6.9929159e-01 8.3407946e-02 
-9.7817814e-01 -7.0401567e-01 1.1748481e-01 
-9.7162211e-01 -6.9917262e-01 4.1629344e-02 
-9.7202152e-01 -6.9951856e-01 3.7247043e-02 
-9.7218859e-01 -6.9977045e-01 3.4365293e-02 
-9.7077876e-01 -6.9868213e-01 5.6425862e-02 
-9.6803576e-01 -6.9627398e-01 1.2006170e-01 
-9.7195572e-01 -6.9983691e-01 3.8034227e-02 
-9.7031736e-01 -6.9830430e-01 7.4636504e-02 
-9.6845049e-01 -6.9663376e-01 9.5139191e-02 
-9.7589302e-01 -7.0246857e-01 1.0032899e-01 
-9.7778523e-01 -7.0336205e-01 1.3168326e-01 
-9.6532422e-01 -6.9438773e-01 7.9701126e-02 
-9.6746492e-01 -6.9567239e-01 1.0144040e-01 
-9.6452117e-01 -6.9382590e-01 9.5240019e-02 
-9.6398419e-01 -6.9331670e-01 1.0841793e-01 
-9.6736425e-01 -6.9540823e-01 1.1562182e-01 
-9.6647310e-01 -6.9522387e-01 7.9392165e-02 
-9.5656788e-01 -6.8729222e-01 1.1419719e-01 
-9.5785069e-01 -6.8794590e-01 1.1929925e-01 
-9.6065104e-01 -6.9070518e-01 3.3663847e-02 
-9.5678723e-01 -6.8753481e-01 8.8749990e-02 
-9.5840073e-01 -6.8884414e-01 6.1810102e-02 
-9.6612734e-01 -6.9427472e-01 1.2128104e-01 
-9.6610749e-01 -6.9438225e-01 1.1397319e-01 
-9.5917279e-01 -6.8973833e-01 4.5093428e-02 
-9.5529026e-01 -6.8632501e-01 6.3943967e-02 
-9.5504057e-01 -6.8596977e-01 4.3409772e-02 
-9.5352793e-01 -6.8474591e-01 3.7344523e-02 
-9.5100611e-01 -6.8298179e-01 7.2494589e-02 
-9.5374131e-01 -6.8504226e-01 3.3821225e-02 
-9.4682980e-01 -6.7977381e-01 8.6069889e-02 
-9.5632172e-01 -6.8687040e-01 9.9045940e-02 
-9.4577891e-01 -6.7884612e-01 1.0318445e-01 
-9.4929761e-01 -6.8160981e-01 7.2661996e-02 
-9.4597757e-01 -6.7889434e-01 5.7160746e-02 
-9.4437653e-01 -6.7742062e-01 1.1797193e-01 
-9.4831479e-01 -6.8099058e-01 3.5954565e-02 
-9.5193219e-01 -6.8308032e-01 1.1547202e-01 
-9.5073175e-01 -6.8251723e-01 9.1427699e-02 
-9.4424915e-01 -6.7743337e-01 8.9530580e-02 
-9.5392478e-01 -6.8431985e-01 1.2920932e-01 
-9.4228840e-01 -6.7545521e-01 1.1197002e-01 
-9.3673927e-01 -6.7152309e-01 5.4908454e-02 
-9.3576318e-01 -6.7080891e-01 8.7012097e-02 
-9.3599033e-01 -6.7103350e-01 6.6949561e-02 
-9.4166774e-01 -6.7521894e-01 9.7309276e-02 
-9.3297970e-01 -6.6854352e-01 1.1218289e-01 
-9.3705696e-01 -6.7191792e-01 3.1424604e-02 
-9.3544459e-01 -6.7055869e-01 4.6288915e-02 
-9.3503541e-01 -6.7009175e-01 3.8270041e-02 
-9.3540382e-01 -6.7041266e-01 3.3976551e-02 
-9.3494260e-01 -6.7021662e-01 5.9369672e-02 
-9.4237959e-01 -6.7536944e-01 1.1887883e-01 
-9.3730253e-01 -6.7225868e-01 5.5737760e-02 
-9.4235432e-01 -6.7547274e-01 1.1167598e-01 
-9.3249422e-01 -6.6814184e-01 8.8895604e-02 
-9.3244493e-01 -6.6775984e-01 1.1644969e-01 
-9.3562102e-01 -6.7101771e-01 4.2960733e-02 
-9.2923701e-01 -6.6574973e-01 7.6395787e-02 
-9.2854238e-01 -6.6521990e-01 9.1825947e-02 
-9.2791778e-01 -6.6468608e-01 1.0502946e-01 
-9.2857099e-01 -6.6511738e-01 5.9419155e-02 
-9.3070614e-01 -6.6623706e-01 1.1290341e-01 
-9.3078792e-01 -6.6664362e-01 9.3842693e-02 
-9.2269164e-01 -6.6041589e-01 5.6713816e-02 
-9.2097646e-01 -6.5884638e-01 1.1590412e-01 
-9.2487735e-01 -6.6245925e-01 3.3780217e-02 
-9.3037069e-01 -6.6564131e-01 1.2674762e-01 
-9.1834921e-01 -6.5703410e-01 8.7292716e-02 
-9.1775507e-01 -6.5659297e-01 7.2363868e-02 
-9.1742933e-01 -6.5610689e-01 4.0130716e-02 
-9.1725540e-01 -6.5599602e-01 3.4156911e-02 
-9.1716802e-01 -6.5603566e-01 3.0104758e-02 
-9.1366279e-01 -6.5340024e-01 6.9036245e-02 
-9.1926718e-01 -6.5778327e-01 7.5472251e-02 
-9.1107744e-01 -6.5138417e-01 8.2684912e-02 
-9.1041929e-01 -6.5089071e-01 9.7098231e-02 
-9.0972841e-01 -6.5020466e-01 1.1012238e-01 
-9.1377920e-01 -6.5350944e-01 2.9372349e-02 
-9.1195619e-01 -6.5147197e-01 1.1064093e-01 
-9.1165596e-01 -6.5179783e-01 5.6957494e-02 
-9.1898638e-01 -6.5686476e-01 1.1651938e-01 
-9.1895705e-01 -6.5695792e-01 1.0942316e-01 
-9.0915686e-01 -6.4930910e-01 1.1446843e-01 
-9.1251481e-01 -6.5278840e-01 4.0709928e-02 
-9.0677589e-01 -6.4768404e-01 9.0147346e-02 
-9.0413117e-01 -6.4578658e-01 5.1240448e-02 
-9.0045941e-01 -6.4291608e-01 6.4139687e-02 
-8.9979935e-01 -6.4243799e-01 7.7191480e-02 
-9.0759909e-01 -6.4830810e-01 9.1732472e-02 
-8.9899528e-01 -6.4171112e-01 8.5035175e-02 
-8.9796835e-01 -6.4076829e-01 1.1381432e-01 
-9.0180463e-01 -6.4419782e-01 3.1794362e-02 
-8.9985716e-01 -6.4246505e-01 4.9762059e-02 
-8.9821863e-01 -6.4104879e-01 5.1385075e-02 
-9.0526158e-01 -6.4613593e-01 1.1084165e-01 
-8.9918298e-01 -6.4169341e-01 3.5158336e-02 
-8.9954108e-01 -6.4201033e-01 3.0833226e-02 
-8.9927906e-01 -6.4202720e-01 6.4688109e-02 
-8.9974326e-01 -6.4231718e-01 2.7900686e-02 
-8.9951557e-01 -6.4221168e-01 6.6258833e-02 
-9.0717137e-01 -6.4729977e-01 1.2429231e-01 
-8.9381754e-01 -6.3776845e-01 7.3161282e-02 
-8.9311427e-01 -6.3728428e-01 8.8449456e-02 
-8.9258653e-01 -6.3677734e-01 1.0162291e-01 
-8.9596766e-01 -6.3887453e-01 1.0762747e-01 
-8.8677287e-01 -6.3211715e-01 1.0819268e-01 
-8.9082551e-01 -6.3540250e-01 2.7428642e-02 
-8.8631606e-01 -6.3176745e-01 8.2636565e-02 
-8.9596105e-01 -6.3869196e-01 1.1415779e-01 
-8.9591604e-01 -6.3877785e-01 1.0717452e-01 
-8.8628107e-01 -6.3137233e-01 1.1236974e-01 
-8.8952625e-01 -6.3465744e-01 3.8757015e-02 
-8.8626552e-01 -6.3169396e-01 5.1293887e-02 
-8.8983858e-01 -6.3486999e-01 5.1488884e-02 
-8.8404810e-01 -6.3000834e-01 7.2487243e-02 
-8.8574392e-01 -6.3135707e-01 6.3217260e-02 
-8.8318902e-01 -6.2928981e-01 5.5365440e-02 
-8.8108391e-01 -6.2746727e-01 3.9749432e-02 
-8.8172925e-01 -6.2795532e-01 3.1098280e-02 
-8.8193053e-01 -6.2823457e-01 2.7631469e-02 
-8.8019109e-01 -6.2697452e-01 4.3414887e-02 
-8.8468003e-01 -6.2994486e-01 1.0833856e-01 
-8.7675792e-01 -6.2433773e-01 6.3415177e-02 
-8.7602365e-01 -6.2383753e-01 7.9420254e-02 
-8.7539262e-01 -6.2330312e-01 9.6709833e-02 
-8.7507784e-01 -6.2280768e-01 1.1177308e-01 
-8.7899888e-01 -6.2621206e-01 2.9779216e-02 
-8.7594211e-01 -6.2352562e-01 8.4051333e-02 
-8.8241309e-01 -6.2846029e-01 9.1817826e-02 
-8.8427556e-01 -6.2928361e-01 1.2187159e-01 
-8.7235445e-01 -6.2071019e-01 8.0933459e-02 
-8.7347692e-01 -6.2181723e-01 7.1516439e-02 
-8.6560518e-01 -6.1554551e-01 6.1351880e-02 
-8.6406863e-01 -6.1434233e-01 1.0626418e-01 
-8.6492360e-01 -6.1505491e-01 7.5079136e-02 
-8.6811906e-01 -6.1758053e-01 2.5426397e-02 
-8.7321568e-01 -6.2083918e-01 1.1181446e-01 
-8.6549252e-01 -6.1555612e-01 5.8602173e-02 
-8.7315542e-01 -6.2091655e-01 1.0492428e-01 
-8.6688894e-01 -6.1684656e-01 3.6709577e-02 
-8.6395901e-01 -6.1401308e-01 3.2182608e-02 
-8.6430204e-01 -6.1432475e-01 2.7843842e-02 
-8.6451083e-01 -6.1464405e-01 2.4883326e-02 
-8.6203527e-01 -6.1263764e-01 4.8205126e-02 
-8.6137050e-01 -6.1192536e-01 1.1070449e-01 
-8.5906565e-01 -6.1051631e-01 6.9992207e-02 
-8.5838181e-01 -6.1006474e-01 8.5187130e-02 
-8.5784572e-01 -6.0958552e-01 9.8322056e-02 
-8.5784370e-01 -6.0948455e-01 4.6578292e-02 
-8.5695148e-01 -6.0872167e-01 4.6972312e-02 
-8.5819125e-01 -6.0983002e-01 5.8543168e-02 
-8.6205769e-01 -6.1257279e-01 8.7514974e-02 
-8.5257214e-01 -6.0522646e-01 1.0982390e-01 
-8.5645407e-01 -6.0858285e-01 2.7763614e-02 
-8.5303485e-01 -6.0560805e-01 8.6217687e-02 
-8.5980815e-01 -6.1044037e-01 1.0629853e-01 
-8.5215116e-01 -6.0478175e-01 9.2185058e-02 
-8.6159587e-01 -6.1151838e-01 1.1945803e-01 
-8.5207641e-01 -6.0450780e-01 1.0514907e-01 
-8.4863061e-01 -6.0229415e-01 8.1505954e-02 
-8.4876376e-01 -6.0234237e-01 5.4710452e-02 
-8.4803778e-01 -6.0184890e-01 6.6741861e-02 
-8.5072798e-01 -6.0340708e-01 1.0335521e-01 
-8.4680408e-01 -6.0063052e-01 2.8100919e-02 
-8.4614974e-01 -6.0008705e-01 3.4104586e-02 
-8.4703934e-01 -6.0091001e-01 2.4686454e-02 
-8.4295285e-01 -5.9791130e-01 6.2636793e-02 
-8.4160006e-01 -5.9683532e-01 1.0427520e-01 
-8.4300596e-01 -5.9758323e-01 1.0908201e-01 
-8.4568852e-01 -6.0000074e-01 2.3496220e-02 
-8.4158039e-01 -5.9691638e-01 7.6240547e-02 
-8.4093702e-01 -5.9639668e-01 9.0461113e-02 
-8.4235436e-01 -5.9731829e-01 8.2297452e-02 
-8.4362459e-01 -5.9843594e-01 5.0167754e-02 
-8.5063720e-01 -6.0317731e-01 1.0948008e-01 
-8.5056692e-01 -6.0325098e-01 1.0269476e-01 
-8.4447944e-01 -5.9928495e-01 3.4581188e-02 
-8.4463441e-01 -5.9940594e-01 4.7481596e-02 
-8.3977306e-01 -5.9528428e-01 4.6885014e-02 
-8.3957505e-01 -5.9463185e-01 1.0388870e-01 
-8.3135730e-01 -5.8879948e-01 5.8616806e-02 
-8.3069468e-01 -5.8833224e-01 7.1620844e-02 
-8.3019376e-01 -5.8773035e-01 1.0774536e-01 
-8.3414006e-01 -5.9112078e-01 2.5913555e-02 
-8.3735228e-01 -5.9320658e-01 8.7680027e-02 
-8.3003503e-01 -5.8770543e-01 8.1048414e-02 
-8.3918792e-01 -5.9400648e-01 1.1701789e-01 
-8.2936090e-01 -5.8700985e-01 2.9300792e-02 
-8.2964391e-01 -5.8728492e-01 2.4984865e-02 
-8.2790595e-01 -5.8600914e-01 4.5275468e-02 
-8.2993591e-01 -5.8759069e-01 2.1911139e-02 
-8.2494104e-01 -5.8390427e-01 6.6936143e-02 
-8.2424664e-01 -5.8345163e-01 8.1971988e-02 
-8.2372469e-01 -5.8299571e-01 9.5058434e-02 
-8.2769865e-01 -5.8582711e-01 7.6560780e-02 
-8.2862884e-01 -5.8671474e-01 6.7633398e-02 
-8.1947154e-01 -5.7953221e-01 1.0240233e-01 
-8.2347828e-01 -5.8271337e-01 2.1650642e-02 
-8.2022518e-01 -5.8006823e-01 8.0599211e-02 
-8.2103741e-01 -5.8073610e-01 4.2209961e-02 
-8.2839024e-01 -5.8580512e-01 1.0713129e-01 
-8.2092512e-01 -5.8075434e-01 5.4082442e-02 
-8.1838363e-01 -5.7873797e-01 7.6703340e-02 
-8.2831270e-01 -5.8586442e-01 1.0047523e-01 
-8.1906044e-01 -5.7891130e-01 1.0632969e-01 
-8.2230306e-01 -5.8206755e-01 3.2673508e-02 
-8.1511503e-01 -5.7624674e-01 6.8027176e-02 
-8.1197000e-01 -5.7369155e-01 4.8209682e-02 
-8.1190354e-01 -5.7346380e-01 3.4102935e-02 
-8.1253701e-01 -5.7399255e-01 2.5276762e-02 
-8.1271046e-01 -5.7419157e-01 2.1166451e-02 
-8.0937058e-01 -5.7180351e-01 5.9678666e-02 
-8.1745827e-01 -5.7775849e-01 8.3493650e-02 
-8.0754519e-01 -5.7050556e-01 9.0389386e-02 
-8.0822515e-01 -5.7071137e-01 1.0577983e-01 
-8.0776477e-01 -5.7063633e-01 7.3200002e-02 
-8.1210768e-01 -5.7397664e-01 2.4027048e-02 
-8.0941731e-01 -5.7164085e-01 7.9985872e-02 
-8.1532812e-01 -5.7576591e-01 1.0171927e-01 
-8.1708878e-01 -5.7679415e-01 1.1458638e-01 
-8.0793267e-01 -5.7013381e-01 1.0092366e-01 
-8.0548090e-01 -5.6844682e-01 8.6202562e-02 
-8.0654901e-01 -5.6902236e-01 9.8920822e-02 
-8.0081266e-01 -5.6501621e-01 4.6086889e-02 
-7.9934126e-01 -5.6366259e-01 1.0499156e-01 
-8.0023903e-01 -5.6460428e-01 4.1649658e-02 
-7.9751819e-01 -5.6261003e-01 1.0044248e-01 
-8.0156463e-01 -5.6567687e-01 1.9856200e-02 
-7.9819697e-01 -5.6309581e-01 5.7694238e-02 
-7.9957396e-01 -5.6415707e-01 4.5898236e-02 
-8.0643165e-01 -5.6875998e-01 1.0476112e-01 
-8.0634284e-01 -5.6881136e-01 9.8259531e-02 
-8.0049264e-01 -5.6508386e-01 3.0760836e-02 
-8.0047333e-01 -5.6515533e-01 4.3704912e-02 
-7.9560876e-01 -5.6094277e-01 4.2608578e-02 
-7.9537874e-01 -5.6061572e-01 2.6573077e-02 
-7.9574794e-01 -5.6097323e-01 2.2243198e-02 
-7.9595178e-01 -5.6123847e-01 1.9155497e-02 
-7.9137897e-01 -5.5790031e-01 6.3959770e-02 
-7.9071689e-01 -5.5745339e-01 7.8879595e-02 
-7.9019570e-01 -5.5707490e-01 9.1830797e-02 
-7.9093581e-01 -5.5747432e-01 4.0331446e-02 
-7.8939480e-01 -5.5627966e-01 6.5803908e-02 
-7.8899884e-01 -5.5587900e-01 9.0169102e-02 
-7.8903759e-01 -5.5590296e-01 4.6582617e-02 
-7.9570591e-01 -5.6058669e-01 9.9234261e-02 
-7.8644806e-01 -5.5384409e-01 1.0371102e-01 
-7.9028922e-01 -5.5708790e-01 2.2324501e-02 
-7.8845733e-01 -5.5545062e-01 7.1863644e-02 
-7.8795755e-01 -5.5515748e-01 5.3431462e-02 
-7.9347324e-01 -5.5916339e-01 8.3573766e-02 
-7.9527581e-01 -5.5993509e-01 1.1216855e-01 
-7.8437322e-01 -5.5232447e-01 4.5924671e-02 
-7.8135544e-01 -5.5008829e-01 7.5721182e-02 
-7.8071821e-01 -5.4957438e-01 6.1246771e-02 
-7.8407747e-01 -5.5204302e-01 7.2003737e-02 
-7.7949512e-01 -5.4832971e-01 2.8782003e-02 
-7.8494370e-01 -5.5289847e-01 6.3901201e-02 
-7.7682477e-01 -5.4659551e-01 5.6878343e-02 
-7.7882487e-01 -5.4782963e-01 2.2627214e-02 
-7.7582341e-01 -5.4586619e-01 9.8443337e-02 
-7.7988505e-01 -5.4890388e-01 1.8074719e-02 
-7.7911037e-01 -5.4810154e-01 1.9083105e-02 
-7.8476024e-01 -5.5204993e-01 1.0241174e-01 
-7.7444470e-01 -5.4489154e-01 7.0149243e-02 
-7.7389890e-01 -5.4447567e-01 8.4005043e-02 
-7.7549893e-01 -5.4523432e-01 1.0217845e-01 
-7.8466111e-01 -5.5208802e-01 9.6043244e-02 
-7.7875990e-01 -5.4832202e-01 2.8940881e-02 
-7.6660579e-01 -5.3865403e-01 6.4251088e-02 
-7.7405632e-01 -5.4425997e-01 7.9434015e-02 
-7.6681423e-01 -5.3873199e-01 3.8688011e-02 
-7.6491982e-01 -5.3728461e-01 1.0166756e-01 
-7.6879901e-01 -5.4050899e-01 2.0454234e-02 
-7.6606381e-01 -5.3819031e-01 7.6440066e-02 
-7.6504093e-01 -5.3734326e-01 4.0122911e-02 
-7.6462400e-01 -5.3716552e-01 5.3379584e-02 
-7.7200699e-01 -5.4236364e-01 9.7080812e-02 
-7.6400501e-01 -5.3672779e-01 6.5997660e-02 
-7.6642728e-01 -5.3860247e-01 5.1369872e-02 
-7.6545751e-01 -5.3774548e-01 3.8372006e-02 
-7.6671684e-01 -5.3882569e-01 5.3009249e-02 
-7.7372026e-01 -5.4333574e-01 1.0973473e-01 
-7.6466888e-01 -5.3676856e-01 9.6655846e-02 
-7.6197612e-01 -5.3481364e-01 2.3976348e-02 
-7.6227421e-01 -5.3517413e-01 8.2368098e-02 
-7.6235795e-01 -5.3511542e-01 1.9562744e-02 
-7.6259512e-01 -5.3543991e-01 1.6478248e-02 
-7.5838107e-01 -5.3247124e-01 6.1091349e-02 
-7.5775295e-01 -5.3206241e-01 7.5708054e-02 
-7.5727373e-01 -5.3168738e-01 8.8518284e-02 
-7.6340556e-01 -5.3580201e-01 9.4506577e-02 
-7.5630456e-01 -5.3053498e-01 1.0082249e-01 
-7.5445145e-01 -5.2940893e-01 9.6560061e-02 
-7.5845689e-01 -5.3236139e-01 1.6386537e-02 
-7.5530243e-01 -5.2996570e-01 7.5313501e-02 
-7.5657451e-01 -5.3098035e-01 4.1857973e-02 
-7.6331413e-01 -5.3556871e-01 1.0002326e-01 
-7.6320702e-01 -5.3559744e-01 9.3798995e-02 
-7.5735968e-01 -5.3181052e-01 2.7179945e-02 
-7.5749177e-01 -5.3188640e-01 3.9783522e-02 
-7.4930847e-01 -5.2537084e-01 4.7379196e-02 
-7.4732995e-01 -5.2391738e-01 7.5834930e-02 
-7.4592149e-01 -5.2283436e-01 5.6745473e-02 
-7.4525607e-01 -5.2237052e-01 5.4243568e-02 
-7.5283957e-01 -5.2764976e-01 9.4609395e-02 
-7.4655461e-01 -5.2333134e-01 4.7717784e-02 
-7.4363643e-01 -5.2093697e-01 9.9593192e-02 
-7.4750102e-01 -5.2409780e-01 1.8798692e-02 
-7.4603087e-01 -5.2265161e-01 1.6487794e-02 
-7.4478841e-01 -5.2181244e-01 3.1010855e-02 
-7.4178851e-01 -5.1984304e-01 6.7135021e-02 
-7.4432254e-01 -5.2125525e-01 2.0196188e-02 
-7.5060391e-01 -5.2620214e-01 7.9422697e-02 
-7.5239980e-01 -5.2698624e-01 1.0728390e-01 
-7.4331796e-01 -5.2082914e-01 3.9900601e-02 
-7.3996174e-01 -5.1842362e-01 8.1631504e-02 
-7.3595220e-01 -5.1499623e-01 3.7803277e-02 
-7.4221754e-01 -5.2009338e-01 6.0238227e-02 
-7.3938370e-01 -5.1761681e-01 7.3922783e-02 
-7.3322576e-01 -5.1320589e-01 9.4470121e-02 
-7.3726481e-01 -5.1610285e-01 1.4707724e-02 
-7.3418760e-01 -5.1374990e-01 7.3550329e-02 
-7.3359340e-01 -5.1324421e-01 3.8731568e-02 
-7.4212110e-01 -5.1933545e-01 9.7630784e-02 
-7.3303813e-01 -5.1261759e-01 9.8022386e-02 
-7.4200177e-01 -5.1935482e-01 9.1544069e-02 
-7.3270667e-01 -5.1291746e-01 2.5652405e-02 
-7.2758234e-01 -5.0883704e-01 5.6092516e-02 
-7.2913164e-01 -5.0960970e-01 2.1586867e-02 
-7.2955513e-01 -5.0999928e-01 1.7034037e-02 
-7.2974914e-01 -5.1023680e-01 1.3931818e-02 
-7.2538996e-01 -5.0729650e-01 7.2649159e-02 
-7.2497588e-01 -5.0697702e-01 8.5262172e-02 
-7.2632211e-01 -5.0776625e-01 3.4699321e-02 
-7.3176336e-01 -5.1152068e-01 9.2306219e-02 
-7.2977418e-01 -5.1004678e-01 9.0896294e-02 
-7.3162585e-01 -5.1174569e-01 7.5329266e-02 
-7.2262412e-01 -5.0489640e-01 9.7412355e-02 
-7.2641945e-01 -5.0798601e-01 1.7139403e-02 
-7.2374403e-01 -5.0573820e-01 7.0319712e-02 
-7.2066456e-01 -5.0355732e-01 6.2843941e-02 
-7.3128009e-01 -5.1083732e-01 1.0481627e-01 
-7.2237414e-01 -5.0441372e-01 9.2406057e-02 
-7.1722132e-01 -5.0072652e-01 3.7163571e-02 
-7.1234292e-01 -4.9723312e-01 9.2527822e-02 
-7.1634287e-01 -5.0012344e-01 1.3112063e-02 
-7.1360826e-01 -4.9811900e-01 6.1930865e-02 
-7.2109181e-01 -5.0325769e-01 9.5226087e-02 
-7.1391344e-01 -4.9837768e-01 3.6595721e-02 
-7.1215808e-01 -4.9674317e-01 9.5793374e-02 
-7.2096032e-01 -5.0326735e-01 8.9264117e-02 
-7.1358132e-01 -4.9782073e-01 1.4111047e-02 
-7.0979136e-01 -4.9541792e-01 7.8322373e-02 
-7.1264887e-01 -4.9699587e-01 1.7915523e-02 
-7.0964348e-01 -4.9524358e-01 6.2131047e-02 
-7.1127808e-01 -4.9633703e-01 5.8375649e-02 
-7.0839119e-01 -4.9396041e-01 3.5640813e-02 
-7.0838988e-01 -4.9405351e-01 3.1942196e-02 
-7.1084309e-01 -4.9554422e-01 9.0022348e-02 
-7.0299560e-01 -4.9005300e-01 6.9554485e-02 
-7.0192850e-01 -4.8917013e-01 9.5419988e-02 
-7.0560849e-01 -4.9210078e-01 1.5579683e-02 
-7.0215416e-01 -4.8933238e-01 6.1649173e-02 
-7.0035380e-01 -4.8801145e-01 4.6635702e-02 
-6.9994903e-01 -4.8781231e-01 6.0465448e-02 
-7.0381308e-01 -4.9087471e-01 2.2147173e-02 
-7.1037424e-01 -4.9482417e-01 1.0228711e-01 
-7.0382315e-01 -4.9093398e-01 3.3011090e-02 
-6.9709414e-01 -4.8515615e-01 1.9271679e-02 
-6.9742227e-01 -4.8544499e-01 1.4667535e-02 
-6.9768983e-01 -4.8582381e-01 1.1589139e-02 
-7.0199335e-01 -4.8926207e-01 5.9571158e-02 
-6.9428980e-01 -4.8354274e-01 5.4311413e-02 
-6.9371170e-01 -4.8322865e-01 6.9564939e-02 
-6.9328904e-01 -4.8290244e-01 8.1972815e-02 
-6.9688785e-01 -4.8518425e-01 6.8138808e-02 
-6.9179189e-01 -4.8161429e-01 9.0577886e-02 
-6.9569087e-01 -4.8441467e-01 1.1624862e-02 
-6.9986701e-01 -4.8741966e-01 7.3665746e-02 
-7.0033360e-01 -4.8735622e-01 9.2753895e-02 
-6.9156456e-01 -4.8112249e-01 9.3693994e-02 
-6.9275564e-01 -4.8224741e-01 3.6530130e-02 
-7.0018721e-01 -4.8735404e-01 8.6971760e-02 
-6.9033456e-01 -4.8027304e-01 3.5695057e-02 
-6.9081521e-01 -4.8064232e-01 3.2207765e-02 
-6.9396436e-01 -4.8271832e-01 8.7200128e-02 
-6.9091630e-01 -4.8045495e-01 8.9127287e-02 
-6.9062197e-01 -4.8072237e-01 3.2607332e-02 
-6.8769425e-01 -4.7832081e-01 6.3390486e-02 
-6.8522710e-01 -4.7661725e-01 6.4966775e-02 
-6.9026220e-01 -4.7981441e-01 8.7542400e-02 
-6.8220335e-01 -4.7408006e-01 3.3628009e-02 
-6.8081540e-01 -4.7324654e-01 5.1297892e-02 
-6.8022132e-01 -4.7270316e-01 9.3327932e-02 
-6.8174505e-01 -4.7356573e-01 1.5661659e-02 
-6.8169421e-01 -4.7361094e-01 1.1807357e-02 
-6.7831773e-01 -4.7149983e-01 6.1294548e-02 
-6.8118566e-01 -4.7341198e-01 2.2864401e-02 
-6.8973291e-01 -4.7910735e-01 9.9774651e-02 
-6.8230009e-01 -4.7441733e-01 1.3249118e-02 
-6.7674667e-01 -4.7036213e-01 7.5505368e-02 
-6.8189234e-01 -4.7388104e-01 6.3959219e-02 
-6.7135257e-01 -4.6617377e-01 8.8457264e-02 
-6.7527449e-01 -4.6898431e-01 1.0208840e-02 
-6.7602563e-01 -4.6980456e-01 1.9297488e-02 
-6.7553717e-01 -4.6951544e-01 2.6835758e-02 
-6.7058980e-01 -4.6524596e-01 9.2346363e-02 
-6.7881137e-01 -4.7103423e-01 8.9950949e-02 
-6.7076701e-01 -4.6527541e-01 8.8815451e-02 
-6.7465752e-01 -4.6873340e-01 4.2805944e-02 
-6.6941470e-01 -4.6454656e-01 6.8595096e-02 
-6.6814965e-01 -4.6371353e-01 5.8211859e-02 
-6.6863769e-01 -4.6393090e-01 3.4250773e-02 
-6.7710012e-01 -4.6979049e-01 8.6600326e-02 
-6.7086995e-01 -4.6520746e-01 8.5677117e-02 
-6.7559588e-01 -4.6891612e-01 7.4888185e-02 
-6.6877943e-01 -4.6413171e-01 4.1213278e-02 
-6.7149049e-01 -4.6640897e-01 3.3586986e-02 
-6.7303669e-01 -4.6728906e-01 6.1615828e-02 
-6.7013150e-01 -4.6462277e-01 8.4450863e-02 
-6.6541570e-01 -4.6119887e-01 1.7052069e-02 
-6.6599280e-01 -4.6170515e-01 1.2484048e-02 
-6.7022264e-01 -4.6524373e-01 5.2251615e-02 
-6.6638291e-01 -4.6235025e-01 4.5511384e-02 
-6.6605842e-01 -4.6161878e-01 8.6061247e-02 
-6.6264516e-01 -4.5972985e-01 6.6515267e-02 
-6.6605121e-01 -4.6187523e-01 9.3845641e-03 
-6.6252452e-01 -4.5953608e-01 5.0525591e-02 
-6.6192353e-01 -4.5916981e-01 7.9237580e-02 
-6.6426039e-01 -4.6058008e-01 6.6478483e-02 
-6.6971838e-01 -4.6422860e-01 8.5661598e-02 
-6.6641891e-01 -4.6184099e-01 8.3950177e-02 
-6.6327310e-01 -4.5981830e-01 6.4813852e-02 
-6.6023833e-01 -4.5765546e-01 5.5992555e-02 
-6.6936839e-01 -4.6364287e-01 9.7215220e-02 
-6.5928435e-01 -4.5682958e-01 3.2467496e-02 
-6.5730405e-01 -4.5531005e-01 3.1776577e-02 
-6.5912575e-01 -4.5696205e-01 1.3308727e-02 
-6.5490156e-01 -4.5354593e-01 9.0702698e-02 
-6.5379435e-01 -4.5287344e-01 5.0353982e-02 
-6.5747941e-01 -4.5545432e-01 6.1326507e-02 
-6.5134776e-01 -4.5107594e-01 8.6435534e-02 
-6.5514702e-01 -4.5382071e-01 8.7220324e-03 
-6.5564138e-01 -4.5408285e-01 6.1617747e-02 
-6.5160465e-01 -4.5085391e-01 1.3607079e-02 
-6.5287715e-01 -4.5236120e-01 2.1225546e-02 
-6.4785969e-01 -4.4859466e-01 7.2377779e-02 
-6.4757311e-01 -4.4835374e-01 5.8464259e-02 
-6.5058196e-01 -4.5014593e-01 9.7052976e-03 
-6.4897656e-01 -4.4890663e-01 8.8313013e-02 
-6.5237212e-01 -4.5198092e-01 2.8955761e-02 
-6.4958972e-01 -4.4958064e-01 2.0044023e-02 
-6.4907318e-01 -4.4890401e-01 8.4667832e-02 
-6.4661652e-01 -4.4751614e-01 4.5509554e-02 
-6.5181565e-01 -4.5160732e-01 3.6756519e-02 
-6.4906812e-01 -4.4878486e-01 8.3608456e-02 
-6.4546692e-01 -4.4665962e-01 7.1997412e-02 
-6.5120780e-01 -4.5103842e-01 4.4909708e-02 
-6.4643472e-01 -4.4723916e-01 5.6724392e-02 
-6.5437436e-01 -4.5273799e-01 7.9166017e-02 
-6.4806205e-01 -4.4835025e-01 6.1521180e-02 
-6.5363359e-01 -4.5202920e-01 8.6150706e-02 
-6.4888060e-01 -4.4863668e-01 8.2438178e-02 
-6.5050828e-01 -4.5036194e-01 5.4156404e-02 
-6.4858484e-01 -4.4843653e-01 8.1555091e-02 
-6.4305896e-01 -4.4471660e-01 3.8414385e-02 
-6.4973992e-01 -4.4962931e-01 6.4263813e-02 
-6.4824325e-01 -4.4808289e-01 8.2256675e-02 
-6.4141631e-01 -4.4349605e-01 4.4879746e-02 
-6.4929414e-01 -4.4854674e-01 9.4660722e-02 
-6.3831806e-01 -4.4128627e-01 5.4913584e-02 
-6.3921511e-01 -4.4174665e-01 2.7626423e-02 
-6.3841075e-01 -4.4112229e-01 6.6235445e-02 
-6.3912934e-01 -4.4184715e-01 4.0700041e-02 
-6.3820535e-01 -4.4095740e-01 6.0119908e-02 
-6.3371092e-01 -4.3760782e-01 3.0076487e-02 
-6.3470113e-01 -4.3814149e-01 1.4871088e-02 
-6.3276058e-01 -4.3716058e-01 5.0118785e-02 
-6.3221884e-01 -4.3687901e-01 6.3505232e-02 
-6.3510150e-01 -4.3846402e-01 1.0363759e-02 
-6.3182634e-01 -4.3658179e-01 7.5250216e-02 
-6.3532269e-01 -4.3875495e-01 7.4245203e-03 
-6.3530117e-01 -4.3889618e-01 7.4162586e-03 
-6.3155085e-01 -4.3622339e-01 8.4294654e-02 
-6.3144505e-01 -4.3599203e-01 8.7739103e-02 
-6.3506484e-01 -4.3885601e-01 1.0502203e-02 
-6.3145036e-01 -4.3584985e-01 8.7829031e-02 
-6.3462543e-01 -4.3861288e-01 1.6317390e-02 
-6.3159150e-01 -4.3579990e-01 8.4174871e-02 
-6.3412422e-01 -4.3832266e-01 2.3705261e-02 
-6.3149393e-01 -4.3566364e-01 8.1877261e-02 
-6.3350958e-01 -4.3787590e-01 3.1347759e-02 
-6.3133621e-01 -4.3548557e-01 8.0967359e-02 
-6.3286352e-01 -4.3739739e-01 3.9104573e-02 
-6.2913561e-01 -4.3427905e-01 2.8515773e-02 
-6.3116050e-01 -4.3535945e-01 7.9631247e-02 
-6.3225085e-01 -4.3676385e-01 4.7545303e-02 
-6.3085014e-01 -4.3510881e-01 7.9599515e-02 
-6.2710041e-01 -4.3265963e-01 6.1666071e-02 
-6.3160235e-01 -4.3614396e-01 5.7075560e-02 
-6.2386662e-01 -4.3047354e-01 6.1015058e-02 
-6.2410164e-01 -4.3051946e-01 3.6944766e-02 
-6.2664109e-01 -4.3229225e-01 6.0106989e-02 
-6.2313670e-01 -4.2987487e-01 4.7296297e-02 
-6.3050252e-01 -4.3476668e-01 8.0756918e-02 
-6.2626076e-01 -4.3217143e-01 4.7115445e-02 
-6.3092959e-01 -4.3540242e-01 6.7406207e-02 
-6.2335485e-01 -4.2990291e-01 2.9608233e-02 
-6.3006943e-01 -4.3436688e-01 8.4260099e-02 
-6.3024497e-01 -4.3459299e-01 7.8886099e-02 
-6.1966956e-01 -4.2733172e-01 4.3249443e-02 
-6.1999261e-01 -4.2736951e-01 6.6957854e-02 
-6.2961876e-01 -4.3381843e-01 9.2052504e-02 
-6.2084508e-01 -4.2817417e-01 3.2659490e-02 
-6.1755300e-01 -4.2586130e-01 5.5599976e-02 
-6.2004554e-01 -4.2727995e-01 7.7205603e-03 
-6.1623347e-01 -4.2490870e-01 6.9106102e-02 
-6.1859280e-01 -4.2610770e-01 1.1384623e-02 
-6.2061471e-01 -4.2782772e-01 5.7732638e-02 
-6.1925101e-01 -4.2676729e-01 5.7929464e-02 
-6.1424536e-01 -4.2289272e-01 8.4182940e-02 
-6.1335862e-01 -4.2241022e-01 2.9432015e-02 
-6.1196935e-01 -4.2162034e-01 8.2200117e-02 
-6.1571366e-01 -4.2419380e-01 6.1055347e-03 
-6.1418116e-01 -4.2277703e-01 8.0447383e-02 
-6.1605763e-01 -4.2482063e-01 1.8544611e-02 
-6.1545616e-01 -4.2436838e-01 2.6189264e-02 
-6.1401242e-01 -4.2260376e-01 7.9289012e-02 
-6.1099857e-01 -4.2059970e-01 2.8480198e-02 
-6.1477524e-01 -4.2386150e-01 3.3769611e-02 
-6.1376071e-01 -4.2237771e-01 7.8042597e-02 
-6.0918671e-01 -4.1941488e-01 3.9224353e-02 
-6.1418641e-01 -4.2332366e-01 4.1428998e-02 
-6.1362767e-01 -4.2228058e-01 7.7274434e-02 
-6.0818768e-01 -4.1859668e-01 8.5372187e-02 
-6.1582589e-01 -4.2421785e-01 6.1378032e-02 
-6.1080664e-01 -4.2068747e-01 4.1370329e-02 
-6.0797793e-01 -4.1860950e-01 5.2554768e-02 
-6.1072528e-01 -4.2073548e-01 9.7901793e-03 
-6.1362720e-01 -4.2281932e-01 5.0256658e-02 
-6.1339396e-01 -4.2205039e-01 7.7788502e-02 
-6.0859233e-01 -4.1887254e-01 5.9107706e-02 
-6.0401845e-01 -4.1568682e-01 4.5410108e-02 
-6.0754871e-01 -4.1820464e-01 4.9253747e-02 
-6.0924023e-01 -4.1939580e-01 5.6083281e-02 
-6.1241853e-01 -4.2141923e-01 7.2017863e-02 
-6.0245812e-01 -4.1467389e-01 6.0461257e-02 
-6.0508192e-01 -4.1603813e-01 8.4611811e-03 
-6.0209781e-01 -4.1438550e-01 7.2745554e-02 
-6.0371989e-01 -4.1526663e-01 2.5832472e-02 
-6.0503972e-01 -4.1616127e-01 5.3975424e-03 
-6.0412592e-01 -4.1566262e-01 2.1203525e-02 
-6.0270482e-01 -4.1423595e-01 1.3251503e-02 
-6.1001515e-01 -4.1919354e-01 8.9372553e-02 
-5.9890175e-01 -4.1180390e-01 6.4955451e-02 
-6.0689050e-01 -4.1712165e-01 8.0113173e-02 
-5.9759277e-01 -4.1068259e-01 2.7935619e-02 
-5.9370416e-01 -4.0799266e-01 4.5168303e-02 
-5.9271210e-01 -4.0730271e-01 8.0133416e-02 
-5.9630597e-01 -4.0977839e-01 4.7678961e-03 
-5.9345728e-01 -4.0754762e-01 8.3414279e-02 
-5.9664571e-01 -4.1037020e-01 2.7772047e-02 
-5.9346324e-01 -4.0738833e-01 7.9642989e-02 
-5.9608817e-01 -4.0921661e-01 7.5095922e-02 
-5.9324872e-01 -4.0714291e-01 7.7209674e-02 
-5.9540707e-01 -4.0917999e-01 4.9449362e-02 
-5.8964717e-01 -4.0502471e-01 6.4573742e-02 
-5.9279954e-01 -4.0683389e-01 7.6169685e-02 
-5.9125024e-01 -4.0584263e-01 5.7527297e-03 
-5.9288007e-01 -4.0757245e-01 1.9995043e-02 
-5.8802271e-01 -4.0393382e-01 5.2757181e-02 
-5.9014553e-01 -4.0493545e-01 9.3827518e-03 
-5.8759362e-01 -4.0364394e-01 6.4744070e-02 
-5.9706742e-01 -4.0987477e-01 7.5855523e-02 
-5.8790398e-01 -4.0346238e-01 2.6852917e-02 
-5.9113270e-01 -4.0620568e-01 1.2103694e-02 
-5.9240866e-01 -4.0716812e-01 3.5465006e-02 
-5.9264380e-01 -4.0664026e-01 7.4726962e-02 
-5.8771896e-01 -4.0334073e-01 5.9309620e-02 
-5.8807337e-01 -4.0361688e-01 5.4576725e-02 
-5.8850986e-01 -4.0418294e-01 6.6585997e-03 
-5.9245282e-01 -4.0649855e-01 7.5782321e-02 
-5.9133822e-01 -4.0623507e-01 4.7051683e-02 
-5.8694988e-01 -4.0292412e-01 3.1153414e-02 
-5.8605182e-01 -4.0227956e-01 2.3729509e-02 
-5.8307064e-01 -3.9998981e-01 8.2167454e-02 
-5.9086615e-01 -4.0559608e-01 6.2452395e-02 
-5.9076828e-01 -4.0492794e-01 8.6778671e-02 
-5.8050847e-01 -3.9816591e-01 3.7719123e-02 
-5.7947314e-01 -3.9746228e-01 4.9189333e-02 
-5.7894379e-01 -3.9697960e-01 3.6031477e-02 
-5.7437235e-01 -3.9384103e-01 6.9946565e-02 
-5.7373184e-01 -3.9324844e-01 7.7964462e-02 
-5.7719618e-01 -3.9567703e-01 3.5796762e-03 
-5.7327503e-01 -3.9303574e-01 5.7426043e-02 
-5.7530397e-01 -3.9394286e-01 1.1786264e-02 
-5.7549846e-01 -3.9410773e-01 6.7172162e-03 
-5.7543379e-01 -3.9420158e-01 3.5763266e-03 
-5.8152008e-01 -3.9828816e-01 7.7541113e-02 
-5.7366925e-01 -3.9282605e-01 8.0005698e-02 
-5.7195759e-01 -3.9193061e-01 4.2676236e-02 
-5.8130836e-01 -3.9821827e-01 7.3050231e-02 
-5.7334834e-01 -3.9247596e-01 7.4815549e-02 
-5.6935614e-01 -3.8980210e-01 2.2828391e-02 
-5.6656295e-01 -3.8792139e-01 4.3518897e-02 
-5.6980360e-01 -3.9003411e-01 5.6043826e-02 
-5.6564432e-01 -3.8725877e-01 5.3555496e-02 
-5.7233995e-01 -3.9161128e-01 7.2681755e-02 
-5.6537604e-01 -3.8695544e-01 5.6615561e-02 
-5.6824923e-01 -3.8930544e-01 1.2308903e-02 
-5.6621802e-01 -3.8759032e-01 2.4599509e-02 
-5.6433076e-01 -3.8615403e-01 7.9985701e-02 
-5.6447363e-01 -3.8612658e-01 2.5246086e-02 
-5.7198286e-01 -3.9166653e-01 5.9168503e-02 
-5.6738746e-01 -3.8859680e-01 5.9860647e-03 
-5.6424624e-01 -3.8608861e-01 3.1012706e-02 
-5.6704533e-01 -3.8847771e-01 2.2204136e-02 
-5.6767935e-01 -3.8816714e-01 7.1269169e-02 
-5.6089115e-01 -3.8388714e-01 7.0876114e-02 
-5.7180667e-01 -3.9090133e-01 8.4068879e-02 
-5.6137097e-01 -3.8396978e-01 3.0155826e-02 
-5.6564617e-01 -3.8730198e-01 3.7031595e-02 
-5.5969375e-01 -3.8285241e-01 3.7253238e-02 
-5.5918908e-01 -3.8263035e-01 5.0020751e-02 
-5.5877036e-01 -3.8238278e-01 6.1541267e-02 
-5.6092101e-01 -3.8329908e-01 7.6647848e-03 
-5.6099278e-01 -3.8344559e-01 4.1583884e-03 
-5.5945629e-01 -3.8251039e-01 5.9455931e-02 
-5.5992669e-01 -3.8293144e-01 3.0430567e-02 
-5.5500871e-01 -3.7945989e-01 7.5885251e-02 
-5.5837387e-01 -3.8176686e-01 2.4882229e-03 
-5.5496299e-01 -3.7915659e-01 2.3507295e-02 
-5.5501390e-01 -3.7905601e-01 7.7654593e-02 
-5.6275201e-01 -3.8443667e-01 7.4964263e-02 
-5.6253332e-01 -3.8435626e-01 7.0716217e-02 
-5.5598789e-01 -3.8006929e-01 4.4946071e-02 
-5.5070949e-01 -3.7623611e-01 5.7918120e-02 
-5.5073518e-01 -3.7622651e-01 3.5799690e-02 
-5.5030853e-01 -3.7598178e-01 4.6484664e-02 
-5.5182946e-01 -3.7686896e-01 5.1724259e-02 
-5.5369955e-01 -3.7786967e-01 7.0135385e-02 
-5.4521835e-01 -3.7228969e-01 4.2384680e-02 
-5.4564655e-01 -3.7241590e-01 7.7734284e-02 
-5.4885644e-01 -3.7487301e-01 4.7463547e-03 
-5.4478246e-01 -3.7207094e-01 5.4472148e-02 
-5.4793876e-01 -3.7392557e-01 1.9580224e-03 
-5.4439074e-01 -3.7178084e-01 6.5259084e-02 
-5.4638100e-01 -3.7262461e-01 1.0318909e-02 
-5.4658788e-01 -3.7281838e-01 5.0412412e-03 
-5.5073410e-01 -3.7600788e-01 5.4543816e-02 
-5.5319732e-01 -3.7721416e-01 8.1410401e-02 
-5.4064041e-01 -3.6862022e-01 2.3666572e-02 
-5.4060501e-01 -3.6862162e-01 2.3552306e-02 
-5.4085541e-01 -3.6890799e-01 3.2262243e-02 
-5.3761506e-01 -3.6655614e-01 5.4726116e-02 
-5.3653383e-01 -3.6592209e-01 7.3761374e-02 
-5.3993344e-01 -3.6815920e-01 1.2695814e-03 
-5.3839898e-01 -3.6711651e-01 2.3347562e-02 
-5.3612226e-01 -3.6556339e-01 4.9846407e-02 
-5.3651637e-01 -3.6553931e-01 7.5369991e-02 
-5.4428732e-01 -3.7087283e-01 7.2410628e-02 
-5.3904051e-01 -3.6777368e-01 1.0806530e-02 
-5.3758126e-01 -3.6615765e-01 7.0112906e-02 
-5.4406798e-01 -3.7077966e-01 6.8409495e-02 
-5.3429008e-01 -3.6375022e-01 6.4446386e-03 
-5.3094178e-01 -3.6188650e-01 4.7345817e-02 
-5.3365850e-01 -3.6337641e-01 2.2733628e-03 
-5.3054464e-01 -3.6164996e-01 5.8451299e-02 
-5.3023672e-01 -3.6143577e-01 6.8276726e-02 
-5.2994871e-01 -3.6103296e-01 3.6354408e-02 
-5.2924734e-01 -3.6053723e-01 5.5600554e-02 
-5.2869749e-01 -3.5997689e-01 5.1117729e-02 
-5.2732778e-01 -3.5900849e-01 7.5395510e-02 
-5.3044671e-01 -3.6134589e-01 3.5528566e-03 
-5.2678758e-01 -3.5869005e-01 3.9110240e-02 
-5.2898973e-01 -3.6012334e-01 5.5526778e-02 
-5.2681428e-01 -3.5859635e-01 2.9537082e-02 
-5.3351307e-01 -3.6313674e-01 6.7535713e-02 
-5.2895570e-01 -3.6045903e-01 2.0467209e-02 
-5.3264916e-01 -3.6270538e-01 5.6184672e-02 
-5.3490794e-01 -3.6384618e-01 7.8787230e-02 
-5.2314144e-01 -3.5588154e-01 2.0717183e-02 
-5.2628249e-01 -3.5787028e-01 6.5867051e-02 
-5.2287614e-01 -3.5580778e-01 3.3333395e-02 
-5.2267742e-01 -3.5581174e-01 8.5542630e-03 
-5.1832110e-01 -3.5262194e-01 7.1646519e-02 
-5.2160329e-01 -3.5474467e-01 1.0222030e-04 
-5.1940447e-01 -3.5285681e-01 9.1235181e-03 
-5.2037561e-01 -3.5397574e-01 2.4660688e-02 
-5.1726913e-01 -3.5181955e-01 3.9949372e-02 
-5.1683056e-01 -3.5162595e-01 5.1619835e-02 
-5.1841033e-01 -3.5231668e-01 7.3009111e-02 
-5.1650399e-01 -3.5139894e-01 6.2028233e-02 
-5.2611673e-01 -3.5764444e-01 6.9846153e-02 
-5.2360225e-01 -3.5636517e-01 4.1302264e-02 
-5.2589285e-01 -3.5753879e-01 6.6078432e-02 
-5.1826817e-01 -3.5202822e-01 3.3486837e-03 
-5.1641822e-01 -3.5089901e-01 2.2099037e-02 
-5.1828867e-01 -3.5217577e-01 2.3053662e-04 
-5.1280737e-01 -3.4853062e-01 4.2853806e-02 
-5.1217526e-01 -3.4784076e-01 2.3116320e-02 
-5.1237971e-01 -3.4798896e-01 1.8960038e-02 
-5.1733190e-01 -3.5132921e-01 6.5043278e-02 
-5.1110524e-01 -3.4712839e-01 2.0271318e-02 
-5.0933450e-01 -3.4589642e-01 7.3209159e-02 
-5.1226926e-01 -3.4810469e-01 2.5157009e-03 
-5.1693612e-01 -3.5126218e-01 5.3133350e-02 
-5.0883156e-01 -3.4546146e-01 2.6608940e-02 
-5.0887972e-01 -3.4553748e-01 4.9457613e-02 
-5.0804603e-01 -3.4506974e-01 5.2561615e-02 
-5.1686412e-01 -3.5074359e-01 7.6176770e-02 
-5.0374269e-01 -3.4189457e-01 3.2952614e-02 
-5.0329942e-01 -3.4172702e-01 4.4676960e-02 
-5.0290686e-01 -3.4152046e-01 5.5424090e-02 
-5.0419140e-01 -3.4183201e-01 1.1399209e-02 
-5.0262308e-01 -3.4130490e-01 6.4954802e-02 
-5.0427425e-01 -3.4183881e-01 4.5589702e-03 
-5.0421154e-01 -3.4204724e-01 1.0784251e-02 
-5.0426567e-01 -3.4187993e-01 6.4424233e-04 
-5.0653112e-01 -3.4417444e-01 2.6736831e-02 
-5.0039339e-01 -3.3957618e-01 6.9528222e-02 
-5.0353062e-01 -3.4158695e-01 -8.9450629e-04 
-5.0288731e-01 -3.4090906e-01 6.5511525e-02 
-5.0045818e-01 -3.3922303e-01 7.0784226e-02 
-5.0818741e-01 -3.4462276e-01 6.7315504e-02 
-5.0273675e-01 -3.4138608e-01 8.4450571e-03 
-4.9890980e-01 -3.3846399e-01 4.6066832e-02 
-5.0795859e-01 -3.4450969e-01 6.3761808e-02 
-4.9766159e-01 -3.3731991e-01 2.2465851e-02 
-4.9786684e-01 -3.3762121e-01 2.4325741e-02 
-4.9383765e-01 -3.3448458e-01 1.8965200e-02 
-4.9261290e-01 -3.3380026e-01 4.6372786e-02 
-4.9176833e-01 -3.3297983e-01 2.0524442e-02 
-4.9297827e-01 -3.3397448e-01 4.7205877e-02 
-4.9415854e-01 -3.3494097e-01 3.4825150e-02 
-4.9154940e-01 -3.3292910e-01 7.1010575e-02 
-4.9438584e-01 -3.3508921e-01 1.4056208e-03 
-4.9906486e-01 -3.3830920e-01 5.1112536e-02 
-4.9801159e-01 -3.3734050e-01 6.2697008e-02 
-4.8989856e-01 -3.3193389e-01 3.7593123e-02 
-4.8948491e-01 -3.3177543e-01 4.8818681e-02 
-4.8918334e-01 -3.3159149e-01 5.8804318e-02 
-4.9057907e-01 -3.3186322e-01 1.9182505e-03 
-4.9305886e-01 -3.3433947e-01 1.7666021e-02 
-4.9905375e-01 -3.3781648e-01 7.3574588e-02 
-4.8872474e-01 -3.3054060e-01 7.6110642e-03 
-4.8973456e-01 -3.3141083e-01 -1.5171826e-03 
-4.9069923e-01 -3.3203772e-01 6.0971588e-02 
-4.9017927e-01 -3.3204240e-01 3.7945185e-02 
-4.8268253e-01 -3.2677320e-01 6.7449771e-02 
-4.8584989e-01 -3.2878086e-01 -1.9628457e-03 
-4.8428899e-01 -3.2775986e-01 1.9239312e-02 
-4.8187038e-01 -3.2592538e-01 2.5859484e-02 
-4.8287031e-01 -3.2648715e-01 6.8587504e-02 
-4.9048069e-01 -3.3176205e-01 6.4771242e-02 
-4.8505029e-01 -3.2850859e-01 7.2786282e-03 
-4.8126680e-01 -3.2566714e-01 4.4178847e-02 
-4.9024105e-01 -3.3163583e-01 6.1421096e-02 
-4.8239905e-01 -3.2649830e-01 2.2865487e-02 
-4.7742578e-01 -3.2285428e-01 3.2192536e-02 
-4.7627306e-01 -3.2216161e-01 4.2130481e-02 
-4.7591859e-01 -3.2197654e-01 5.2378010e-02 
-4.7566593e-01 -3.2181111e-01 6.1573215e-02 
-4.8365068e-01 -3.2688493e-01 6.0590968e-02 
-4.7546634e-01 -3.2145786e-01 4.9338877e-02 
-4.7700605e-01 -3.2213265e-01 -4.4553887e-04 
-4.7698021e-01 -3.2222193e-01 -2.7530242e-03 
-4.7597623e-01 -3.2166129e-01 1.2834718e-02 
-4.7539923e-01 -3.2125226e-01 4.5246366e-02 
-4.7397336e-01 -3.2033572e-01 6.8870567e-02 
-4.7676653e-01 -3.2235399e-01 4.3895069e-04 
-4.8149160e-01 -3.2551989e-01 4.9081635e-02 
-4.7568086e-01 -3.2144812e-01 4.9227607e-02 
-4.7457054e-01 -3.2025409e-01 3.2598451e-03 
-4.8144275e-01 -3.2505745e-01 7.0956618e-02 
-4.7050831e-01 -3.1762135e-01 1.7741479e-02 
-4.6838421e-01 -3.1626242e-01 2.8861681e-02 
-4.7255269e-01 -3.1944120e-01 2.4105396e-02 
-4.6675196e-01 -3.1488386e-01 1.8988937e-02 
-4.6646410e-01 -3.1490070e-01 4.7158204e-02 
-4.6525833e-01 -3.1425190e-01 6.5306477e-02 
-4.6828613e-01 -3.1605929e-01 -2.8988691e-03 
-4.6828264e-01 -3.1644970e-01 9.0250587e-03 
-4.6543819e-01 -3.1397527e-01 6.6193014e-02 
-4.7299841e-01 -3.1911272e-01 6.2247504e-02 
-4.6316189e-01 -3.1261182e-01 3.5329804e-02 
-4.6281284e-01 -3.1252009e-01 4.6035539e-02 
-4.7275248e-01 -3.1898108e-01 5.9117813e-02 
-4.6253547e-01 -3.1233248e-01 5.5665240e-02 
-4.6524164e-01 -3.1369069e-01 6.0587239e-02 
-4.6377751e-01 -3.1290162e-01 2.3718953e-02 
-4.6354625e-01 -3.1235665e-01 5.9411186e-04 
-4.6265665e-01 -3.1183198e-01 -3.0965593e-03 
-4.6077493e-01 -3.1066695e-01 1.9821746e-02 
-4.5903093e-01 -3.0960497e-01 3.7574109e-02 
-4.5981848e-01 -3.0966270e-01 5.6538871e-03 
-4.5948598e-01 -3.0974618e-01 1.4838727e-02 
-4.6455142e-01 -3.1309229e-01 5.7612803e-02 
-4.5672473e-01 -3.0792606e-01 6.6541418e-02 
-4.5943314e-01 -3.0988029e-01 -6.1620277e-04 
-4.5819157e-01 -3.0892545e-01 3.0719979e-02 
-4.5550078e-01 -3.0688524e-01 2.3947861e-02 
-4.5521563e-01 -3.0689093e-01 4.6200767e-02 
-4.6237487e-01 -3.1168595e-01 4.8479583e-02 
-4.6408898e-01 -3.1256327e-01 6.8371169e-02 
-4.5321426e-01 -3.0516541e-01 1.7853163e-02 
-4.5150310e-01 -3.0417666e-01 3.0178597e-02 
-4.4990557e-01 -3.0316073e-01 3.9634056e-02 
-4.4958702e-01 -3.0302894e-01 4.9464621e-02 
-4.4936052e-01 -3.0284405e-01 5.8299806e-02 
-4.5541388e-01 -3.0694321e-01 3.4440499e-02 
-4.4815317e-01 -3.0190334e-01 6.3267663e-02 
-4.5027778e-01 -3.0289853e-01 -1.7647769e-03 
-4.4947696e-01 -3.0262274e-01 4.2850919e-02 
-4.5110816e-01 -3.0369005e-01 -3.8025524e-03 
-4.4840142e-01 -3.0167693e-01 6.3984171e-02 
-4.4825637e-01 -3.0135196e-01 2.0951154e-03 
-4.5574480e-01 -3.0672193e-01 5.9739135e-02 
-4.5041254e-01 -3.0351213e-01 4.8851152e-03 
-4.5549753e-01 -3.0658203e-01 5.6818046e-02 
-4.4884673e-01 -3.0181113e-01 5.5046670e-02 
-4.4474596e-01 -2.9909775e-01 7.6862611e-03 
-4.4230929e-01 -2.9765967e-01 3.7965942e-02 
-4.4220427e-01 -2.9743093e-01 2.6719550e-02 
-4.4134450e-01 -2.9663363e-01 1.7443608e-02 
-4.4227302e-01 -2.9739904e-01 4.2590421e-02 
-4.4738409e-01 -3.0078888e-01 5.5159569e-02 
-4.4830346e-01 -3.0160078e-01 4.7129430e-02 
-4.3981469e-01 -2.9570431e-01 6.4385369e-02 
-4.4127589e-01 -2.9678074e-01 1.5239066e-02 
-4.4241709e-01 -2.9767126e-01 -1.5634398e-03 
-4.4115451e-01 -2.9672754e-01 2.0826474e-02 
-4.3864769e-01 -2.9489246e-01 3.8503088e-02 
-4.3709564e-01 -2.9391435e-01 3.3072829e-02 
-4.3678871e-01 -2.9385003e-01 4.3391455e-02 
-4.4107428e-01 -2.9684174e-01 1.3424267e-02 
-4.4696027e-01 -3.0031267e-01 6.5794878e-02 
-4.3571612e-01 -2.9313788e-01 5.3044785e-02 
-4.3686521e-01 -2.9322448e-01 5.6744576e-03 
-4.3716916e-01 -2.9340133e-01 -7.0624147e-04 
-4.3827531e-01 -2.9465699e-01 2.1297805e-02 
-4.3690100e-01 -2.9338029e-01 -4.1398499e-03 
-4.3383387e-01 -2.9135606e-01 1.9784536e-02 
-4.3526265e-01 -2.9267848e-01 2.9335257e-03 
-4.3131331e-01 -2.8986001e-01 6.1208896e-02 
-4.3413657e-01 -2.9155654e-01 -4.6866778e-03 
-4.3868372e-01 -2.9453731e-01 5.7246953e-02 
-4.2989767e-01 -2.8845724e-01 1.5666593e-02 
-4.3844250e-01 -2.9439086e-01 5.4520931e-02 
-4.2917743e-01 -2.8816614e-01 3.0241698e-02 
-4.2949316e-01 -2.8801316e-01 8.7796794e-03 
-4.2985034e-01 -2.8843939e-01 6.2217966e-02 
-4.2873213e-01 -2.8793541e-01 3.9372128e-02 
-4.2580974e-01 -2.8581280e-01 2.8229080e-02 
-4.2415255e-01 -2.8477803e-01 3.7159726e-02 
-4.2390749e-01 -2.8470159e-01 4.6630021e-02 
-4.2373893e-01 -2.8457293e-01 5.5086862e-02 
-4.3035266e-01 -2.8864807e-01 5.2777577e-02 
-4.2401925e-01 -2.8437826e-01 4.3794848e-02 
-4.2302829e-01 -2.8382006e-01 6.2189266e-02 
-4.2423931e-01 -2.8453940e-01 1.0300299e-02 
-4.2552748e-01 -2.8559083e-01 -2.5100627e-03 
-4.2430389e-01 -2.8428262e-01 -2.9347604e-03 
-4.2989269e-01 -2.8847358e-01 4.3121561e-02 
-4.2336580e-01 -2.8349242e-01 1.6871310e-03 
-4.2427740e-01 -2.8436109e-01 -5.3744451e-03 
-4.2338398e-01 -2.8383172e-01 4.6951104e-02 
-4.2315117e-01 -2.8349388e-01 5.4879487e-02 
-4.2305613e-01 -2.8381193e-01 2.0285815e-02 
-4.3008825e-01 -2.8824586e-01 6.3189253e-02 
-4.1835225e-01 -2.8023481e-01 1.5417262e-02 
-4.1833681e-01 -2.8021300e-01 1.4509832e-02 
-4.1887239e-01 -2.8061572e-01 1.1709825e-02 
-4.1717041e-01 -2.7968058e-01 4.2494763e-02 
-4.1553923e-01 -2.7823091e-01 1.5931264e-02 
-4.2143568e-01 -2.8260967e-01 3.1315178e-02 
-4.1628766e-01 -2.7874523e-01 6.0420256e-02 
-4.1481614e-01 -2.7810436e-01 5.9141934e-02 
-4.1745752e-01 -2.7964240e-01 -5.4851980e-03 
-4.1456059e-01 -2.7777416e-01 3.2602098e-02 
-4.1611063e-01 -2.7879065e-01 1.4252515e-02 
-4.1678193e-01 -2.7945989e-01 2.8172338e-03 
-4.2192429e-01 -2.8255913e-01 5.4702014e-02 
-4.2167521e-01 -2.8240156e-01 5.2177690e-02 
-4.1170430e-01 -2.7583981e-01 3.0928390e-02 
-4.1141713e-01 -2.7575544e-01 4.0779676e-02 
-4.1120991e-01 -2.7565435e-01 4.9516026e-02 
-4.1147473e-01 -2.7509800e-01 -1.7911482e-03 
-4.1156942e-01 -2.7524331e-01 -4.9516512e-03 
-4.1088679e-01 -2.7494678e-01 6.3334364e-03 
-4.1317222e-01 -2.7639878e-01 5.0049033e-02 
-4.1503483e-01 -2.7783269e-01 4.2813350e-02 
-4.1383731e-01 -2.7685246e-01 5.0276250e-02 
-4.0777010e-01 -2.7246866e-01 3.7490411e-03 
-4.0761787e-01 -2.7267301e-01 1.5915167e-02 
-4.0673974e-01 -2.7212593e-01 6.0082823e-02 
-4.0894961e-01 -2.7374029e-01 2.8221708e-02 
-4.0903220e-01 -2.7384537e-01 -3.2845868e-03 
-4.0609744e-01 -2.7158162e-01 3.8999964e-02 
-4.0401155e-01 -2.7028596e-01 2.7981570e-02 
-4.0784714e-01 -2.7311081e-01 1.0847048e-02 
-4.0438691e-01 -2.7032164e-01 1.4265552e-02 
-4.0383407e-01 -2.7023920e-01 3.6136527e-02 
-4.1346869e-01 -2.7640828e-01 6.0558751e-02 
-4.0306324e-01 -2.6955909e-01 2.9856313e-02 
-4.0173534e-01 -2.6856408e-01 1.9866418e-02 
-3.9942864e-01 -2.6705739e-01 2.5197074e-02 
-3.9913309e-01 -2.6698193e-01 3.4882154e-02 
-3.9889434e-01 -2.6692382e-01 4.3831792e-02 
-3.9875484e-01 -2.6682627e-01 5.1939886e-02 
-3.9861432e-01 -2.6657072e-01 5.7165772e-02 
-4.0112060e-01 -2.6804945e-01 -6.2358379e-03 
-3.9878434e-01 -2.6606333e-01 -1.8823346e-05 
-3.9876735e-01 -2.6619196e-01 5.7167001e-02 
-3.9892548e-01 -2.6625043e-01 -4.0549850e-03 
-4.0043923e-01 -2.6791990e-01 1.7092974e-03 
-4.0549839e-01 -2.7088186e-01 5.2242469e-02 
-3.9893815e-01 -2.6633099e-01 -6.4334464e-03 
-4.0524077e-01 -2.7072105e-01 4.9914356e-02 
-3.9618918e-01 -2.6448661e-01 1.2391820e-02 
-3.9424241e-01 -2.6339951e-01 3.8676772e-02 
-3.9370409e-01 -2.6282626e-01 1.6007919e-02 
-3.9396206e-01 -2.6301453e-01 9.3990844e-03 
-3.9755353e-01 -2.6530406e-01 4.7926012e-02 
-3.9059734e-01 -2.6066294e-01 5.7974309e-02 
-3.9252093e-01 -2.6207712e-01 1.9371372e-02 
-3.9282236e-01 -2.6239344e-01 -4.1063940e-03 
-3.9703384e-01 -2.6509607e-01 3.9234154e-02 
-3.8946402e-01 -2.5974599e-01 1.4444432e-02 
-3.8955775e-01 -2.5995633e-01 2.1139553e-02 
-3.8976631e-01 -2.5999260e-01 1.1415951e-02 
-3.9061129e-01 -2.6036599e-01 5.0293569e-02 
-3.8699743e-01 -2.5835323e-01 2.8913824e-02 
-3.8678482e-01 -2.5829348e-01 3.8237885e-02 
-3.9720002e-01 -2.6487151e-01 5.7988688e-02 
-3.8660344e-01 -2.5818729e-01 4.6577353e-02 
-3.9073846e-01 -2.6102749e-01 1.9306708e-02 
-3.8612124e-01 -2.5761807e-01 2.8340133e-02 
-3.8616210e-01 -2.5719175e-01 4.0673716e-03 
-3.8651383e-01 -2.5739658e-01 -2.8114691e-03 
-3.8656029e-01 -2.5758606e-01 -5.9482679e-03 
-3.8388151e-01 -2.5587431e-01 1.6805427e-02 
-3.8364333e-01 -2.5581652e-01 3.7970014e-02 
-3.8253543e-01 -2.5522974e-01 5.5090323e-02 
-3.8506785e-01 -2.5669840e-01 -6.9096158e-03 
-3.8379410e-01 -2.5592282e-01 1.2173669e-02 
-3.8275200e-01 -2.5488430e-01 5.4968920e-02 
-3.8934261e-01 -2.5945953e-01 4.9782697e-02 
-3.8908833e-01 -2.5929478e-01 4.7647115e-02 
-3.8317710e-01 -2.5571272e-01 -4.0129380e-04 
-3.7956464e-01 -2.5296003e-01 2.5819935e-02 
-3.7823492e-01 -2.5169083e-01 6.7052748e-03 
-3.8177854e-01 -2.5414816e-01 4.5597397e-02 
-3.7769184e-01 -2.5149962e-01 9.3216067e-03 
-3.8155964e-01 -2.5433731e-01 2.8821781e-02 
-3.7507045e-01 -2.4983102e-01 2.3384465e-02 
-3.7480676e-01 -2.4981365e-01 3.2605521e-02 
-3.7554234e-01 -2.5015843e-01 3.7617922e-02 
-3.7461656e-01 -2.4976292e-01 4.1125640e-02 
-3.8154486e-01 -2.5403976e-01 4.5561586e-02 
-3.7460452e-01 -2.4972220e-01 4.8961882e-02 
-3.7479928e-01 -2.4949977e-01 5.5578195e-02 
-3.7696865e-01 -2.5115100e-01 -4.8266929e-03 
-3.8105631e-01 -2.5380906e-01 3.7323445e-02 
-3.7640789e-01 -2.5082892e-01 1.4318479e-02 
-3.7525070e-01 -2.4983346e-01 8.1723416e-03 
-3.7572685e-01 -2.5026512e-01 1.3720022e-02 
-3.7419730e-01 -2.4867824e-01 -9.1917242e-04 
-3.7620625e-01 -2.5028628e-01 3.8296703e-02 
-3.7434429e-01 -2.4889547e-01 -4.9817041e-03 
-3.7437040e-01 -2.4904905e-01 -7.3533319e-03 
-3.7557933e-01 -2.5039920e-01 8.5940054e-03 
-3.7363851e-01 -2.4862768e-01 3.6658052e-02 
-3.8124701e-01 -2.5361216e-01 5.5432338e-02 
-3.7168020e-01 -2.4723357e-01 1.4215489e-02 
-3.7122726e-01 -2.4716896e-01 3.2769442e-02 
-3.7024507e-01 -2.4662754e-01 -7.6946523e-04 
-3.6697188e-01 -2.4423383e-01 5.3041611e-02 
-3.6932009e-01 -2.4566567e-01 -7.5811120e-03 
-3.6710945e-01 -2.4395894e-01 5.2620787e-02 
-3.7357494e-01 -2.4834433e-01 4.7367871e-02 
-3.6742681e-01 -2.4399528e-01 4.6944514e-02 
-3.7331113e-01 -2.4817224e-01 4.5405585e-02 
-3.6549196e-01 -2.4290976e-01 1.0111926e-02 
-3.6301282e-01 -2.4144329e-01 2.6886512e-02 
-3.6427644e-01 -2.4216613e-01 1.6403178e-02 
-3.6283085e-01 -2.4146301e-01 3.5823103e-02 
-3.6314461e-01 -2.4123771e-01 1.3011022e-02 
-3.6270168e-01 -2.4137986e-01 4.3650493e-02 
-3.6227888e-01 -2.4032940e-01 -3.6508108e-03 
-3.6242408e-01 -2.4059537e-01 -6.7225709e-03 
-3.6129782e-01 -2.4009328e-01 1.0006054e-02 
-3.6594963e-01 -2.4306504e-01 4.3214414e-02 
-3.5960245e-01 -2.3890358e-01 2.0121135e-02 
-3.5949755e-01 -2.3892879e-01 2.7987648e-02 
-3.6047500e-01 -2.3942614e-01 3.1344632e-03 
-3.5940212e-01 -2.3877144e-01 5.3641390e-02 
-3.6133951e-01 -2.4026512e-01 -5.5282847e-03 
-3.5865745e-01 -2.3836710e-01 3.6458571e-02 
-3.6544704e-01 -2.4283765e-01 3.5425067e-02 
-3.5978481e-01 -2.3902793e-01 1.7759034e-02 
-3.6561522e-01 -2.4262506e-01 5.2911341e-02 
-3.6035401e-01 -2.3962753e-01 1.6756168e-02 
-3.5149229e-01 -2.3333508e-01 2.1715693e-02 
-3.5126787e-01 -2.3333433e-01 3.0416241e-02 
-3.5166392e-01 -2.3354252e-01 5.1078353e-02 
-3.5280466e-01 -2.3410939e-01 3.2110561e-02 
-3.5128850e-01 -2.3338006e-01 4.7126774e-02 
-3.5110170e-01 -2.3328085e-01 3.8512200e-02 
-3.5390562e-01 -2.3486383e-01 -8.1990268e-03 
-3.5189864e-01 -2.3324147e-01 5.0567944e-02 
-3.5317045e-01 -2.3465694e-01 -7.3343661e-04 
-3.5810646e-01 -2.3751292e-01 4.5020804e-02 
-3.5783911e-01 -2.3733942e-01 4.3217298e-02 
-3.5037377e-01 -2.3197678e-01 -1.5595637e-03 
-3.5053852e-01 -2.3221225e-01 -5.7157450e-03 
-3.5054070e-01 -2.3232269e-01 -8.1636095e-03 
-3.4827951e-01 -2.3092610e-01 1.5046633e-02 
-3.5156584e-01 -2.3293760e-01 4.1248932e-02 
-3.5315007e-01 -2.3435204e-01 2.7821068e-02 
-3.4735641e-01 -2.3042229e-01 3.4978881e-02 
-3.4910959e-01 -2.3170811e-01 1.6708283e-02 
-3.4679589e-01 -2.2989172e-01 7.0687826e-03 
-3.5062805e-01 -2.3235893e-01 4.1009072e-02 
-3.4422708e-01 -2.2832559e-01 2.6571084e-02 
-3.4433955e-01 -2.2816144e-01 5.1562343e-02 
-3.4602493e-01 -2.2954781e-01 -6.2350673e-03 
-3.5010913e-01 -2.3210348e-01 3.3536147e-02 
-3.4477830e-01 -2.2858806e-01 1.6447639e-02 
-3.5027820e-01 -2.3189601e-01 5.0461777e-02 
-3.3986834e-01 -2.2534822e-01 2.5037659e-02 
-3.3967596e-01 -2.2536148e-01 3.3468015e-02 
-3.3958948e-01 -2.2533435e-01 4.0922802e-02 
-3.3885232e-01 -2.2399098e-01 -4.3572206e-03 
-3.3803624e-01 -2.2376087e-01 1.2074234e-02 
-3.3894935e-01 -2.2422116e-01 -7.5102057e-03 
-3.3664861e-01 -2.2276403e-01 1.1649897e-02 
-3.3680871e-01 -2.2320311e-01 4.9104225e-02 
-3.3787879e-01 -2.2372977e-01 3.0425755e-02 
-3.3884495e-01 -2.2433811e-01 -8.7372987e-03 
-3.3980286e-01 -2.2504124e-01 2.7512880e-02 
-3.3758864e-01 -2.2353254e-01 9.0596704e-03 
-3.3690846e-01 -2.2283968e-01 4.8580676e-02 
-3.4288532e-01 -2.2686248e-01 4.2708717e-02 
-3.3477554e-01 -2.2176896e-01 3.1567536e-02 
-3.4261277e-01 -2.2668327e-01 4.1033335e-02 
-3.3674970e-01 -2.2322625e-01 -2.5195971e-03 
-3.3290851e-01 -2.2039098e-01 2.1840518e-02 
-3.3321863e-01 -2.2011520e-01 4.2513523e-02 
-3.3552012e-01 -2.2176729e-01 3.8836211e-02 
-3.2845601e-01 -2.1750385e-01 2.8372161e-02 
-3.2949209e-01 -2.1791241e-01 4.9589746e-02 
-3.2835057e-01 -2.1749036e-01 3.6018323e-02 
-3.3120164e-01 -2.1916109e-01 -6.7286976e-03 
-3.3500454e-01 -2.2153124e-01 3.1698599e-02 
-3.2959068e-01 -2.1784620e-01 3.1997688e-02 
-3.2982296e-01 -2.1823871e-01 1.0565479e-02 
-3.2916853e-01 -2.1766329e-01 6.3754539e-03 
-3.2661605e-01 -2.1622859e-01 4.3398928e-02 
-3.2630005e-01 -2.1584947e-01 2.0871328e-02 
-3.2995820e-01 -2.1856913e-01 5.5599301e-03 
-3.2921860e-01 -2.1785836e-01 1.0925722e-02 
-3.2728520e-01 -2.1595627e-01 -2.1144913e-03 
-3.3519405e-01 -2.2133341e-01 4.8008539e-02 
-3.2747748e-01 -2.1614115e-01 -6.4329426e-03 
-3.2750317e-01 -2.1626385e-01 -8.9992713e-03 
-3.2471076e-01 -2.1456915e-01 1.4834519e-02 
-3.2377064e-01 -2.1374348e-01 4.7315918e-02 
-3.2353565e-01 -2.1372470e-01 3.1029368e-02 
-3.2207739e-01 -2.1296453e-01 4.7362078e-02 
-3.2468680e-01 -2.1483314e-01 -3.1703920e-03 
-3.2412237e-01 -2.1411598e-01 -9.2108166e-03 
-3.2274136e-01 -2.1313360e-01 6.4777252e-03 
-3.2075307e-01 -2.1203341e-01 3.1836811e-02 
-3.2795781e-01 -2.1641809e-01 4.0427279e-02 
-3.2768407e-01 -2.1623573e-01 3.8889177e-02 
-3.2427472e-01 -2.1421991e-01 2.3246659e-02 
-3.1878921e-01 -2.1035446e-01 1.0066128e-02 
-3.1738949e-01 -2.0971622e-01 2.3281155e-02 
-3.1722230e-01 -2.0974289e-01 3.1210367e-02 
-3.1865737e-01 -2.1041358e-01 2.0671234e-02 
-3.1719202e-01 -2.0977715e-01 3.8277801e-02 
-3.1765524e-01 -2.0973478e-01 1.5606237e-02 
-3.2084158e-01 -2.1156399e-01 3.6787130e-02 
-3.1624469e-01 -2.0904383e-01 4.3690275e-02 
-3.1625190e-01 -2.0829612e-01 -5.0672335e-03 
-3.1508380e-01 -2.0791112e-01 1.5548368e-02 
-3.2082662e-01 -2.1158241e-01 3.6565572e-02 
-3.1632698e-01 -2.0843248e-01 -8.1381211e-03 
-3.1499663e-01 -2.0783928e-01 4.7686264e-02 
-3.1578511e-01 -2.0842569e-01 7.0362715e-03 
-3.1658903e-01 -2.0883085e-01 2.7644048e-02 
-3.1413302e-01 -2.0740075e-01 2.3734592e-02 
-3.1659070e-01 -2.0912994e-01 -7.2673331e-03 
-3.2023957e-01 -2.1127602e-01 2.9826129e-02 
-3.1395906e-01 -2.0705986e-01 1.3832125e-03 
-3.1415191e-01 -2.0736204e-01 1.3399214e-02 
-3.1193045e-01 -2.0567866e-01 1.1744592e-02 
-3.2044867e-01 -2.1105139e-01 4.5595910e-02 
-3.1089839e-01 -2.0519902e-01 3.2358415e-02 
-3.1454763e-01 -2.0777568e-01 1.2652837e-02 
-3.1134519e-01 -2.0521113e-01 6.2068948e-03 
-3.0995759e-01 -2.0424467e-01 1.0398680e-02 
-3.0775183e-01 -2.0309791e-01 4.5498762e-02 
-3.0969045e-01 -2.0416364e-01 -9.6217645e-03 
-3.0644369e-01 -2.0227545e-01 2.6437724e-02 
-3.0635813e-01 -2.0225063e-01 3.3595860e-02 
-3.0797866e-01 -2.0274603e-01 4.4389810e-02 
-3.0615652e-01 -2.0212080e-01 4.1061345e-02 
-3.0898920e-01 -2.0402707e-01 -2.8344635e-03 
-3.1338540e-01 -2.0633924e-01 3.8146738e-02 
-3.0619264e-01 -2.0181812e-01 3.2920182e-02 
-3.0505145e-01 -2.0115928e-01 2.0196784e-02 
-3.1310394e-01 -2.0615660e-01 3.6758244e-02 
-3.0497691e-01 -2.0052536e-01 -2.5593447e-03 
-3.0540138e-01 -2.0123689e-01 1.5873741e-02 
-3.0526251e-01 -2.0071961e-01 -7.0706857e-03 
-3.0532870e-01 -2.0093998e-01 -9.4518615e-03 
-3.0338171e-01 -1.9993480e-01 1.9483820e-02 
-3.0283847e-01 -1.9964626e-01 2.7324961e-02 
-3.0302083e-01 -1.9963798e-01 1.9090468e-02 
-3.0192429e-01 -1.9888766e-01 1.5243182e-02 
-3.0657545e-01 -2.0174046e-01 3.4425948e-02 
-3.0190441e-01 -1.9879033e-01 2.5794128e-02 
-3.0089632e-01 -1.9813274e-01 4.5559827e-02 
-3.0160564e-01 -1.9863173e-01 6.2907496e-03 
-3.0239782e-01 -1.9940239e-01 -7.7719912e-03 
-3.0595005e-01 -2.0148386e-01 2.8078906e-02 
-2.9889745e-01 -1.9695219e-01 3.4735031e-02 
-3.0083576e-01 -1.9777563e-01 3.7617806e-02 
-3.0119002e-01 -1.9867606e-01 3.8103110e-03 
-2.9860082e-01 -1.9645508e-01 7.9873884e-03 
-3.0604824e-01 -2.0115347e-01 4.3226566e-02 
-2.9611358e-01 -1.9492930e-01 1.7176921e-02 
-2.9579592e-01 -1.9481854e-01 2.1672964e-02 
-2.9565179e-01 -1.9486715e-01 2.9048717e-02 
-2.9558957e-01 -1.9486631e-01 3.5725549e-02 
-2.9967231e-01 -1.9707844e-01 3.3689138e-02 
-2.9526898e-01 -1.9385305e-01 1.5418291e-04 
-2.9383031e-01 -1.9350131e-01 4.3583963e-02 
-2.9336387e-01 -1.9288352e-01 1.1915865e-02 
-2.9570720e-01 -1.9453649e-01 -9.9560898e-03 
-2.9490995e-01 -1.9391070e-01 -8.3830376e-04 
-2.9442069e-01 -1.9321609e-01 -5.5366061e-03 
-2.9451457e-01 -1.9339243e-01 -8.6509492e-03 
-2.9402789e-01 -1.9315600e-01 4.2375624e-02 
-2.9266477e-01 -1.9262841e-01 2.1835187e-02 
-2.9430780e-01 -1.9367342e-01 1.0211341e-02 
-2.9506701e-01 -1.9443069e-01 -3.5817539e-03 
-2.9924053e-01 -1.9667965e-01 3.6016859e-02 
-2.9894739e-01 -1.9649234e-01 3.4731191e-02 
-2.9146525e-01 -1.9162470e-01 1.2822322e-02 
-2.9012546e-01 -1.9089006e-01 3.0997200e-02 
-2.8695440e-01 -1.8871279e-01 1.8923262e-02 
-2.9252639e-01 -1.9215392e-01 3.2547668e-02 
-2.8709656e-01 -1.8862717e-01 4.3725617e-02 
-2.8856105e-01 -1.8981294e-01 -8.3801346e-03 
-2.8674901e-01 -1.8829349e-01 4.8769847e-03 
-2.8667152e-01 -1.8835710e-01 1.2512908e-02 
-2.8519341e-01 -1.8766548e-01 2.4572844e-02 
-2.8513265e-01 -1.8770543e-01 3.1321011e-02 
-2.9056349e-01 -1.9091119e-01 2.7290827e-02 
-2.8395748e-01 -1.8691537e-01 3.8236093e-02 
-2.8609434e-01 -1.8794665e-01 2.1072963e-02 
-2.8769171e-01 -1.8935776e-01 1.0341796e-02 
-2.8337336e-01 -1.8598282e-01 9.0931663e-03 
-2.9204178e-01 -1.9155461e-01 4.0935602e-02 
-2.8358683e-01 -1.8623026e-01 1.3120599e-02 
-2.8354466e-01 -1.8578260e-01 -2.9603960e-03 
-2.8384724e-01 -1.8599507e-01 -7.5066905e-03 
-2.8222531e-01 -1.8541396e-01 1.7835734e-02 
-2.8386387e-01 -1.8620108e-01 -9.8460540e-03 
-2.8020996e-01 -1.8420023e-01 4.1756868e-02 
-2.8486747e-01 -1.8726394e-01 1.7892960e-02 
-2.8194588e-01 -1.8506223e-01 -1.0406002e-02 
-2.8074136e-01 -1.8430883e-01 2.7644988e-02 
-2.8089070e-01 -1.8445511e-01 5.6455075e-03 
-2.8052425e-01 -1.8396221e-01 4.0540013e-02 
-2.8101414e-01 -1.8418750e-01 3.4771882e-02 
-2.7929994e-01 -1.8338181e-01 2.5664045e-02 
-2.7858940e-01 -1.8306574e-01 2.7011838e-02 
-2.8539857e-01 -1.8717557e-01 3.3934589e-02 
-2.8510454e-01 -1.8698469e-01 3.2726564e-02 
-2.7694732e-01 -1.8195513e-01 2.0265345e-02 
-2.8018096e-01 -1.8421701e-01 -5.1029958e-03 
-2.7707210e-01 -1.8179013e-01 5.5923439e-03 
-2.7629706e-01 -1.8113396e-01 5.8376365e-03 
-2.7485600e-01 -1.8066914e-01 2.7065417e-02 
-2.7480122e-01 -1.8069400e-01 3.3287589e-02 
-2.7484444e-01 -1.8065681e-01 3.8703635e-02 
-2.7432978e-01 -1.7975001e-01 6.3687200e-03 
-2.7604979e-01 -1.8120687e-01 8.8801207e-03 
-2.7371976e-01 -1.7960611e-01 4.1832175e-02 
-2.7506751e-01 -1.8057139e-01 -8.7160422e-03 
-2.7341145e-01 -1.7880526e-01 -5.8975942e-03 
-2.7821428e-01 -1.8250272e-01 2.4624707e-02 
-2.7355883e-01 -1.7907283e-01 -9.0039130e-03 
-2.7227744e-01 -1.7811966e-01 -3.6361683e-04 
-2.7747992e-01 -1.8186069e-01 3.0445974e-02 
-2.7348557e-01 -1.7941624e-01 8.6358814e-03 
-2.7391788e-01 -1.8000101e-01 2.0906262e-03 
-2.7835223e-01 -1.8216889e-01 3.8679373e-02 
-2.6877704e-01 -1.7626987e-01 1.6749786e-02 
-2.7244124e-01 -1.7839649e-01 2.9864449e-02 
-2.6843393e-01 -1.7578499e-01 7.3759030e-03 
-2.6706731e-01 -1.7517595e-01 1.6833225e-02 
-2.6789623e-01 -1.7546083e-01 6.4955438e-03 
-2.6692706e-01 -1.7517775e-01 4.0088497e-02 
-2.6855919e-01 -1.7596015e-01 -1.0692292e-02 
-2.6755190e-01 -1.7537758e-01 4.9045505e-03 
-2.6723990e-01 -1.7490609e-01 3.8740780e-02 
-2.6802850e-01 -1.7591517e-01 -4.7669495e-03 
-2.6479432e-01 -1.7379823e-01 2.2771500e-02 
-2.7185318e-01 -1.7793782e-01 3.1861760e-02 
-2.6478064e-01 -1.7379858e-01 2.9161388e-02 
-2.6473144e-01 -1.7376681e-01 3.4992281e-02 
-2.6530188e-01 -1.7389281e-01 1.8488165e-02 
-2.7156222e-01 -1.7774944e-01 3.0744944e-02 
-2.6476157e-01 -1.7351291e-01 2.1558654e-02 
-2.6296985e-01 -1.7176482e-01 -3.1804789e-03 
-2.6326701e-01 -1.7198049e-01 -7.7751619e-03 
-2.6336816e-01 -1.7220113e-01 -1.0182521e-02 
-2.6158091e-01 -1.7125794e-01 3.8390225e-03 
-2.6556799e-01 -1.7372806e-01 2.8690975e-02 
-2.6063025e-01 -1.7062937e-01 4.0145539e-02 
-2.6187953e-01 -1.7162523e-01 -9.0805357e-03 
-2.5887096e-01 -1.6947886e-01 1.2945751e-02 
-2.5876021e-01 -1.6951248e-01 1.8945748e-02 
-2.5813109e-01 -1.6882239e-01 7.8571076e-03 
-2.6363894e-01 -1.7252387e-01 2.3891283e-02 
-2.5974154e-01 -1.7011735e-01 1.3568996e-02 
-2.6503277e-01 -1.7309031e-01 3.6454577e-02 
-2.5488237e-01 -1.6696367e-01 1.8568719e-02 
-2.5486290e-01 -1.6709711e-01 2.5096284e-02 
-2.5490850e-01 -1.6718079e-01 3.1010218e-02 
-2.5866976e-01 -1.6959415e-01 7.8950673e-03 
-2.5493553e-01 -1.6710128e-01 3.6206879e-02 
-2.5413594e-01 -1.6642837e-01 3.8522959e-02 
-2.5838608e-01 -1.6921222e-01 1.5282259e-02 
-2.5570297e-01 -1.6717018e-01 -1.0768654e-02 
-2.5469518e-01 -1.6663297e-01 4.0178597e-03 
-2.5452751e-01 -1.6631335e-01 3.7022196e-02 
-2.5320840e-01 -1.6511624e-01 -6.2017185e-03 
-2.5879663e-01 -1.6902870e-01 2.9895477e-02 
-2.5336838e-01 -1.6536267e-01 -9.3222661e-03 
-2.5203672e-01 -1.6500619e-01 2.3559259e-02 
-2.5408649e-01 -1.6588528e-01 3.1257637e-02 
-2.5850016e-01 -1.6883892e-01 2.8847629e-02 
-2.5398600e-01 -1.6639563e-01 -6.1525675e-03 
-2.4891409e-01 -1.6267432e-01 9.0755057e-03 
-2.4910675e-01 -1.6271938e-01 4.6971985e-03 
-2.5011966e-01 -1.6365431e-01 6.8859649e-03 
-2.4876088e-01 -1.6260290e-01 2.0454859e-02 
-2.4807407e-01 -1.6215470e-01 3.8460400e-02 
-2.4764514e-01 -1.6200012e-01 2.2264184e-02 
-2.4917664e-01 -1.6297249e-01 -9.3569802e-03 
-2.5208360e-01 -1.6473734e-01 2.1440655e-02 
-2.5142828e-01 -1.6413297e-01 2.6738459e-02 
-2.4776711e-01 -1.6199906e-01 6.7618922e-03 
-2.4530540e-01 -1.6047032e-01 1.4666609e-02 
-2.4525207e-01 -1.6060548e-01 2.1119799e-02 
-2.4524739e-01 -1.6064253e-01 2.7117949e-02 
-2.4523163e-01 -1.6062200e-01 3.2555960e-02 
-2.4815388e-01 -1.6258229e-01 4.6333665e-04 
-2.5213861e-01 -1.6433235e-01 3.4321692e-02 
-2.4674007e-01 -1.6095974e-01 2.6325693e-02 
-2.4323671e-01 -1.5843801e-01 -3.3621185e-03 
-2.4253772e-01 -1.5854637e-01 1.4785857e-02 
-2.4353641e-01 -1.5865019e-01 -7.9696104e-03 
-2.4360254e-01 -1.5887396e-01 -1.0533106e-02 
-2.4159423e-01 -1.5805140e-01 3.6893159e-02 
-2.4312457e-01 -1.5877005e-01 -1.1172262e-02 
-2.4188890e-01 -1.5771361e-01 3.5258163e-02 
-2.4256973e-01 -1.5875351e-01 -5.8573014e-03 
-2.4609755e-01 -1.6046056e-01 2.8023450e-02 
-2.3957886e-01 -1.5664485e-01 2.2380738e-02 
-2.4580367e-01 -1.6027497e-01 2.7034858e-02 
-2.3960140e-01 -1.5631466e-01 2.9034063e-03 
-2.3906554e-01 -1.5595409e-01 5.9186076e-03 
-2.3833303e-01 -1.5558828e-01 9.1010630e-03 
-2.3575258e-01 -1.5411428e-01 1.7111171e-02 
-2.3572548e-01 -1.5425119e-01 2.3308400e-02 
-2.3575149e-01 -1.5433416e-01 2.8846512e-02 
-2.3583485e-01 -1.5434179e-01 3.3709861e-02 
-2.3613004e-01 -1.5428601e-01 2.4878558e-02 
-2.4021688e-01 -1.5657318e-01 2.5158301e-02 
-2.3568013e-01 -1.5378837e-01 3.6818631e-02 
-2.3610881e-01 -1.5411043e-01 2.4819861e-03 
-2.3420697e-01 -1.5272847e-01 6.8971859e-03 
-2.3692019e-01 -1.5478116e-01 -9.7211087e-03 
-2.3393080e-01 -1.5214328e-01 -6.3529355e-03 
-2.3411076e-01 -1.5233716e-01 -9.4642695e-03 
-2.3836400e-01 -1.5543111e-01 2.0722494e-02 
-2.3472410e-01 -1.5324949e-01 1.1341863e-02 
-2.3965988e-01 -1.5592684e-01 3.2280616e-02 
-2.3256965e-01 -1.5157650e-01 -2.8053422e-03 
-2.3139645e-01 -1.5106706e-01 1.6555101e-02 
-2.3441826e-01 -1.5320659e-01 5.6194831e-03 
-2.3014759e-01 -1.5019609e-01 1.3881409e-02 
-2.3006281e-01 -1.4989802e-01 3.9795861e-03 
-2.2950986e-01 -1.4995480e-01 3.5230968e-02 
-2.3344055e-01 -1.5238942e-01 1.2823716e-02 
-2.3100550e-01 -1.5056249e-01 -1.1267114e-02 
-2.2984061e-01 -1.4983909e-01 2.1195088e-02 
-2.2949648e-01 -1.4976907e-01 4.2281505e-03 
-2.3381840e-01 -1.5218039e-01 2.6220880e-02 
-2.2852911e-01 -1.4880140e-01 3.4033597e-02 
-2.3353185e-01 -1.5199940e-01 2.5277548e-02 
-2.2650275e-01 -1.4800115e-01 1.9543752e-02 
-2.2650808e-01 -1.4807433e-01 2.5162227e-02 
-2.2938976e-01 -1.4988241e-01 -7.0376117e-03 
-2.2652331e-01 -1.4810833e-01 3.0328756e-02 
-2.2704239e-01 -1.4805947e-01 1.6461115e-02 
-2.2495368e-01 -1.4680186e-01 1.4065178e-02 
-2.2437848e-01 -1.4574802e-01 -3.4502600e-03 
-2.2472358e-01 -1.4597385e-01 -8.2008652e-03 
-2.2350678e-01 -1.4561859e-01 8.7477602e-03 
-2.2479627e-01 -1.4621657e-01 -1.0528094e-02 
-2.2380158e-01 -1.4583051e-01 3.5056718e-02 
-2.2484931e-01 -1.4665429e-01 -9.9891089e-03 
-2.2750759e-01 -1.4820878e-01 1.8452482e-02 
-2.2690497e-01 -1.4765382e-01 2.3348751e-02 
-2.2375238e-01 -1.4544788e-01 2.7579982e-02 
-2.2189109e-01 -1.4449792e-01 6.0859760e-03 
-2.2391349e-01 -1.4626999e-01 -1.1563725e-03 
-2.2098431e-01 -1.4416187e-01 1.5865987e-02 
-2.2107445e-01 -1.4423892e-01 2.0536661e-02 
-2.2756426e-01 -1.4781956e-01 3.0332342e-02 
-2.1874669e-01 -1.4233693e-01 5.4496098e-03 
-2.2255868e-01 -1.4474474e-01 2.3113132e-02 
-2.1744724e-01 -1.4184076e-01 1.5844995e-02 
-2.1741788e-01 -1.4197865e-01 2.1632230e-02 
-2.1749017e-01 -1.4210936e-01 2.6747020e-02 
-2.1818975e-01 -1.4192331e-01 3.4756437e-03 
-2.1757734e-01 -1.4207053e-01 3.1317074e-02 
-2.1777141e-01 -1.4209400e-01 3.3777330e-02 
-2.1907951e-01 -1.4253557e-01 -1.1450048e-02 
-2.1895182e-01 -1.4266193e-01 1.2110015e-02 
-2.1821263e-01 -1.4214101e-01 2.1606027e-03 
-2.1823351e-01 -1.4192116e-01 3.2082152e-02 
-2.1863684e-01 -1.4262687e-01 -6.8902774e-03 
-2.2189644e-01 -1.4423573e-01 2.4515554e-02 
-2.2160995e-01 -1.4405581e-01 2.3588875e-02 
-2.1549088e-01 -1.3976818e-01 -6.4634988e-03 
-2.1567427e-01 -1.4002097e-01 -9.4899219e-03 
-2.1436413e-01 -1.3967900e-01 2.1653106e-02 
-2.1436934e-01 -1.3937752e-01 -4.9967607e-03 
-2.1262838e-01 -1.3836357e-01 7.7826362e-03 
-2.1211286e-01 -1.3815467e-01 1.2717930e-02 
-2.1157990e-01 -1.3756813e-01 6.0083861e-03 
-2.1638232e-01 -1.4063248e-01 2.1943806e-02 
-2.1218468e-01 -1.3821864e-01 3.3601608e-02 
-2.1319616e-01 -1.3883074e-01 -1.0178549e-02 
-2.1226129e-01 -1.3819513e-01 4.4855285e-03 
-2.1150894e-01 -1.3767093e-01 1.9332338e-02 
-2.1459371e-01 -1.3954747e-01 1.7726425e-02 
-2.0861916e-01 -1.3609044e-01 1.8075425e-02 
-2.0868756e-01 -1.3623396e-01 2.3378436e-02 
-2.1582496e-01 -1.3998361e-01 2.8439546e-02 
-2.0873067e-01 -1.3619514e-01 2.8119491e-02 
-2.1164535e-01 -1.3803455e-01 3.6712873e-03 
-2.0749180e-01 -1.3518707e-01 1.3549156e-02 
-2.0623858e-01 -1.3431747e-01 1.7012529e-02 
-2.0637019e-01 -1.3375789e-01 -3.4622943e-03 
-2.0637377e-01 -1.3454019e-01 3.2335710e-02 
-2.0999995e-01 -1.3674989e-01 1.0507226e-02 
-2.0774053e-01 -1.3493004e-01 -1.1440583e-02 
-2.0677707e-01 -1.3400987e-01 -8.2180537e-03 
-2.0601286e-01 -1.3380037e-01 2.5609338e-03 
-2.0694119e-01 -1.3422751e-01 -1.0609806e-02 
-2.0677200e-01 -1.3450485e-01 1.5221307e-03 
-2.0672281e-01 -1.3425264e-01 3.0616866e-02 
-2.1032375e-01 -1.3649952e-01 2.2831520e-02 
-2.0636353e-01 -1.3393651e-01 2.5137771e-02 
-2.1004565e-01 -1.3632539e-01 2.1924466e-02 
-2.0620146e-01 -1.3428365e-01 -7.8463908e-03 
-2.0309936e-01 -1.3200140e-01 6.7053088e-03 
-2.0033930e-01 -1.3034046e-01 1.0685199e-02 
-2.0130862e-01 -1.3084431e-01 6.7961230e-03 
-2.0106876e-01 -1.3086720e-01 2.0980043e-02 
-2.0002399e-01 -1.3030164e-01 1.4616955e-02 
-2.0268618e-01 -1.3185287e-01 3.4056990e-03 
-2.0004332e-01 -1.3044174e-01 2.0050883e-02 
-2.0008865e-01 -1.3053745e-01 2.4820665e-02 
-2.0174237e-01 -1.3114005e-01 1.6222313e-02 
-2.0110966e-01 -1.3072328e-01 3.2056112e-02 
-2.0019378e-01 -1.3057971e-01 2.9155899e-02 
-2.0200849e-01 -1.3135262e-01 -1.0250041e-02 
-2.0441833e-01 -1.3282721e-01 1.5629310e-02 
-2.0388277e-01 -1.3231322e-01 2.0265909e-02 
-2.0071450e-01 -1.3052297e-01 3.4887125e-03 
-1.9905730e-01 -1.2901230e-01 -1.2772309e-03 
-1.9863217e-01 -1.2917180e-01 1.0001721e-02 
-2.0108165e-01 -1.3105042e-01 -2.3956101e-03 
-2.0445111e-01 -1.3242839e-01 2.6603697e-02 
-1.9869290e-01 -1.2897384e-01 -3.6447330e-03 
-1.9762149e-01 -1.2867594e-01 1.8346213e-02 
-1.9794139e-01 -1.2815331e-01 -6.4200712e-03 
-1.9820622e-01 -1.2835523e-01 -9.5711704e-03 
-1.9986884e-01 -1.2962981e-01 2.0253126e-02 
-1.9515173e-01 -1.2680699e-01 7.5763236e-03 
-1.9539799e-01 -1.2729318e-01 3.0900788e-02 
-1.9665658e-01 -1.2762630e-01 -1.1526035e-02 
-1.9582222e-01 -1.2698184e-01 2.9293278e-02 
-1.9617189e-01 -1.2775816e-01 -7.5224787e-03 
-1.9916257e-01 -1.2912050e-01 2.1275889e-02 
-1.9888464e-01 -1.2894981e-01 2.0361913e-02 
-1.9239408e-01 -1.2487528e-01 4.1973395e-03 
-1.9166747e-01 -1.2483278e-01 1.6706171e-02 
-1.9167094e-01 -1.2491442e-01 2.1637451e-02 
-1.9172642e-01 -1.2498561e-01 2.6093859e-02 
-1.9120641e-01 -1.2442671e-01 1.2143925e-02 
-1.9202296e-01 -1.2457503e-01 1.2370114e-03 
-1.9039562e-01 -1.2358764e-01 5.2055563e-03 
-1.9109851e-01 -1.2438085e-01 2.4463708e-02 
-1.9404276e-01 -1.2578602e-01 1.9028667e-02 
-1.9075203e-01 -1.2391660e-01 1.2984425e-02 
-1.9034335e-01 -1.2373219e-01 3.0655051e-02 
-1.9060706e-01 -1.2374164e-01 3.2834502e-04 
-1.9121695e-01 -1.2429260e-01 -1.0475566e-02 
-1.8927912e-01 -1.2247598e-01 -3.3471249e-03 
-1.8968612e-01 -1.2268500e-01 -8.2575604e-03 
-1.8837675e-01 -1.2227863e-01 5.7547656e-03 
-1.8981379e-01 -1.2286986e-01 -1.0486131e-02 
-1.9233516e-01 -1.2477548e-01 1.4957234e-02 
-1.8925871e-01 -1.2297855e-01 7.4376627e-03 
-1.8814705e-01 -1.2221765e-01 1.0226391e-02 
-1.9347696e-01 -1.2516893e-01 2.4853593e-02 
-1.8677215e-01 -1.2146597e-01 1.7433789e-02 
-1.8595217e-01 -1.2075807e-01 7.8009092e-03 
-1.8879296e-01 -1.2281581e-01 1.9159112e-03 
-1.8482743e-01 -1.2030367e-01 2.9528672e-02 
-1.8807064e-01 -1.2220929e-01 8.3577652e-03 
-1.8602976e-01 -1.2059741e-01 -1.1478423e-02 
-1.8347418e-01 -1.1940220e-01 1.3457427e-02 
-1.8502875e-01 -1.2014692e-01 1.6907834e-02 
-1.8352847e-01 -1.1955607e-01 1.8536152e-02 
-1.8361227e-01 -1.1965849e-01 2.3014855e-02 
-1.8368386e-01 -1.1964500e-01 2.7028074e-02 
-1.8384337e-01 -1.1918383e-01 2.3569097e-03 
-1.8834873e-01 -1.2195413e-01 1.9746680e-02 
-1.8218628e-01 -1.1836910e-01 9.6787838e-03 
-1.8427789e-01 -1.1948785e-01 2.8213095e-02 
-1.8808310e-01 -1.2179226e-01 1.8832326e-02 
-1.8468544e-01 -1.2013672e-01 -8.4072351e-03 
-1.8124993e-01 -1.1778573e-01 1.2870872e-02 
-1.8089820e-01 -1.1701677e-01 -1.3838757e-03 
-1.8134205e-01 -1.1712787e-01 -6.3211140e-03 
-1.8166164e-01 -1.1741812e-01 -9.4514647e-03 
-1.8010938e-01 -1.1680571e-01 5.0954535e-03 
-1.8172303e-01 -1.1761835e-01 -1.1232683e-02 
-1.8126893e-01 -1.1780225e-01 1.9169758e-03 
-1.7988986e-01 -1.1677856e-01 2.9326553e-02 
-1.8074410e-01 -1.1730586e-01 -1.0682395e-02 
-1.7897473e-01 -1.1628722e-01 2.0204237e-02 
-1.8284433e-01 -1.1857217e-01 1.3032420e-02 
-1.8235771e-01 -1.1809733e-01 1.7493898e-02 
-1.7953107e-01 -1.1653407e-01 2.3655533e-03 
-1.7988405e-01 -1.1630788e-01 2.2132214e-02 
-1.7992491e-01 -1.1709356e-01 -3.7032170e-03 
-1.8287961e-01 -1.1820459e-01 2.3166636e-02 
-1.7552412e-01 -1.1402705e-01 1.0561110e-02 
-1.7552285e-01 -1.1421466e-01 1.5442069e-02 
-1.7560703e-01 -1.1435051e-01 2.0036858e-02 
-1.7571610e-01 -1.1443196e-01 2.4165602e-02 
-1.7601727e-01 -1.1416121e-01 5.7849428e-03 
-1.7867771e-01 -1.1565586e-01 1.7665586e-02 
-1.7630689e-01 -1.1427101e-01 -1.4020632e-03 
-1.7579725e-01 -1.1402642e-01 2.0487536e-02 
-1.7453764e-01 -1.1351130e-01 2.8141364e-02 
-1.7571343e-01 -1.1382694e-01 -1.1489553e-02 
-1.7342597e-01 -1.1244439e-01 5.5238795e-03 
-1.7491381e-01 -1.1343420e-01 -5.2841140e-05 
-1.7488849e-01 -1.1335105e-01 2.6296513e-02 
-1.7331426e-01 -1.1255766e-01 1.0188512e-02 
-1.7535195e-01 -1.1395659e-01 -8.1253145e-03 
-1.7313060e-01 -1.1182836e-01 -3.2649008e-03 
-1.7796826e-01 -1.1516953e-01 1.8352056e-02 
-1.7354463e-01 -1.1202416e-01 -8.0669960e-03 
-1.7770293e-01 -1.1501230e-01 1.7406259e-02 
-1.7302270e-01 -1.1183581e-01 -1.0764114e-02 
-1.7061026e-01 -1.1053152e-01 4.5348285e-03 
-1.6963558e-01 -1.1017276e-01 1.7748801e-02 
-1.7318203e-01 -1.1208202e-01 1.6412934e-02 
-1.6989756e-01 -1.1016288e-01 2.7842948e-02 
-1.7060971e-01 -1.1061620e-01 -1.0700365e-02 
-1.6877122e-01 -1.0985574e-01 2.5254272e-02 
-1.6780320e-01 -1.0907310e-01 1.2424889e-02 
-1.6789441e-01 -1.0926861e-01 1.7128605e-02 
-1.6794604e-01 -1.0938267e-01 2.1367894e-02 
-1.6980310e-01 -1.1012281e-01 1.7730946e-03 
-1.7159636e-01 -1.1117011e-01 1.2421449e-02 
-1.7265797e-01 -1.1151388e-01 2.1581773e-02 
-1.6877779e-01 -1.0974607e-01 2.8823080e-04 
-1.6618565e-01 -1.0798649e-01 1.5740832e-02 
-1.6568376e-01 -1.0745334e-01 7.6189917e-03 
-1.6563900e-01 -1.0685032e-01 -6.1711934e-03 
-1.6592242e-01 -1.0708302e-01 -9.3450369e-03 
-1.6585732e-01 -1.0755879e-01 1.2184800e-02 
-1.6474022e-01 -1.0708931e-01 2.6867371e-02 
-1.6760522e-01 -1.0880166e-01 6.3729505e-03 
-1.6585602e-01 -1.0728458e-01 -1.1497766e-02 
-1.6500303e-01 -1.0694177e-01 -5.8649358e-04 
-1.6501775e-01 -1.0675797e-01 2.5295949e-02 
-1.6787742e-01 -1.0854167e-01 1.6989145e-02 
-1.6366638e-01 -1.0592762e-01 -7.8274106e-04 
-1.6467132e-01 -1.0648747e-01 2.0186469e-02 
-1.6762358e-01 -1.0839133e-01 1.6008442e-02 
-1.6459909e-01 -1.0683503e-01 -8.8360561e-03 
-1.6119602e-01 -1.0492923e-01 2.2815879e-02 
-1.6115405e-01 -1.0428657e-01 2.3025600e-03 
-1.6167241e-01 -1.0477589e-01 5.7844617e-03 
-1.6031204e-01 -1.0408050e-01 9.6749794e-03 
-1.6033833e-01 -1.0427241e-01 1.4273953e-02 
-1.6041777e-01 -1.0441898e-01 1.8567845e-02 
-1.6141243e-01 -1.0471939e-01 5.0013000e-04 
-1.6058788e-01 -1.0405920e-01 1.2887595e-02 
-1.5933938e-01 -1.0281256e-01 -3.6830532e-03 
-1.5969968e-01 -1.0372537e-01 2.0945765e-02 
-1.6021448e-01 -1.0389595e-01 2.6666261e-02 
-1.6093723e-01 -1.0422841e-01 -1.0655874e-02 
-1.6272391e-01 -1.0541484e-01 1.0618376e-02 
-1.6232330e-01 -1.0498896e-01 1.5029849e-02 
-1.5824808e-01 -1.0269637e-01 9.3387915e-03 
-1.5979299e-01 -1.0362367e-01 1.0248709e-03 
-1.6022928e-01 -1.0416750e-01 -4.8206355e-03 
-1.5827914e-01 -1.0201618e-01 -7.9083471e-03 
-1.5839869e-01 -1.0225883e-01 -1.0241572e-02 
-1.6276921e-01 -1.0505167e-01 2.0035166e-02 
-1.5628347e-01 -1.0147600e-01 1.4492642e-02 
-1.5892868e-01 -1.0272585e-01 1.5406400e-02 
-1.5526295e-01 -1.0093194e-01 2.5621524e-02 
-1.5577167e-01 -1.0094643e-01 1.3182512e-02 
-1.5626334e-01 -1.0101061e-01 -1.1527939e-02 
-1.5496202e-01 -1.0024960e-01 1.1632323e-03 
-1.5563640e-01 -1.0068809e-01 2.4190957e-02 
-1.5597494e-01 -1.0123005e-01 -8.5183689e-03 
-1.5816399e-01 -1.0223508e-01 1.5686905e-02 
-1.5296923e-01 -9.9429376e-02 1.1486043e-02 
-1.5305367e-01 -9.9609070e-02 1.5857561e-02 
-1.5315275e-01 -9.9758200e-02 1.9752389e-02 
-1.5331058e-01 -9.9779740e-02 2.3233665e-02 
-1.5791363e-01 -1.0208990e-01 1.4661877e-02 
-1.5208519e-01 -9.8459080e-02 3.8133624e-03 
-1.5221258e-01 -9.8570839e-02 3.2973948e-03 
-1.5099768e-01 -9.7919121e-02 6.9007650e-03 
-1.5068108e-01 -9.7136386e-02 -5.9372289e-03 
-1.5383497e-01 -9.9446282e-02 1.4104889e-02 
-1.5104048e-01 -9.7312786e-02 -9.0203704e-03 
-1.5089129e-01 -9.7944841e-02 2.5435677e-02 
-1.5126410e-01 -9.7598523e-02 -1.0934556e-02 
-1.5099475e-01 -9.7736344e-02 -1.3956310e-03 
-1.5158111e-01 -9.8169260e-02 -1.0718922e-02 
-1.5096129e-01 -9.7795956e-02 5.4360740e-03 
-1.4924493e-01 -9.6931875e-02 1.6206821e-02 
-1.4881937e-01 -9.6650831e-02 1.2239923e-02 
-1.5228783e-01 -9.8590255e-02 1.0091570e-02 
-1.5326875e-01 -9.8860554e-02 1.8524837e-02 
-1.5018646e-01 -9.7635023e-02 -1.0997896e-03 
-1.4908636e-01 -9.6700273e-02 2.9871757e-03 
-1.4875960e-01 -9.6240923e-02 1.4519372e-02 
-1.4591084e-01 -9.4926991e-02 1.3217022e-02 
-1.4608105e-01 -9.5118977e-02 1.7236805e-02 
-1.4611256e-01 -9.5163792e-02 2.1175003e-02 
-1.4671919e-01 -9.4887011e-02 -2.4955778e-03 
-1.4613466e-01 -9.5075473e-02 2.4545439e-02 
-1.4869763e-01 -9.6522316e-02 4.6327477e-03 
-1.4711957e-01 -9.5087491e-02 -1.1342650e-02 
-1.4481913e-01 -9.4045535e-02 9.2646675e-03 
-1.4612836e-01 -9.4692864e-02 -4.8737170e-04 
-1.4888707e-01 -9.6176505e-02 1.4418058e-02 
-1.4574353e-01 -9.4346583e-02 2.3321087e-02 
-1.4863764e-01 -9.6038818e-02 1.3359302e-02 
-1.4396350e-01 -9.3407653e-02 8.5340207e-03 
-1.4599091e-01 -9.4721355e-02 -9.1037862e-03 
-1.4337397e-01 -9.2430003e-02 -2.8913158e-03 
-1.4392553e-01 -9.2678763e-02 -7.6614199e-03 
-1.4327233e-01 -9.3008496e-02 1.6877104e-02 
-1.4355545e-01 -9.2953131e-02 -1.6616783e-04 
-1.4332601e-01 -9.2434980e-02 -1.0554513e-02 
-1.4184162e-01 -9.2138335e-02 1.3314132e-02 
-1.4199550e-01 -9.2042737e-02 2.4382016e-02 
-1.4216828e-01 -9.2126705e-02 1.0899825e-02 
-1.4267582e-01 -9.2473708e-02 -1.0705143e-02 
-1.4106975e-01 -9.1300070e-02 1.5503712e-03 
-1.4425606e-01 -9.3455724e-02 8.5435398e-03 
-1.4039922e-01 -9.0820953e-02 2.6201375e-03 
-1.4389491e-01 -9.3023546e-02 1.2820790e-02 
-1.4205855e-01 -9.1685541e-02 1.7585920e-02 
-1.4197905e-01 -9.2275389e-02 -5.3476384e-03 
-1.3910797e-01 -9.0605997e-02 1.4636052e-02 
-1.3923702e-01 -9.0770692e-02 1.8354723e-02 
-1.4420363e-01 -9.2990607e-02 1.7067347e-02 
-1.3904324e-01 -9.0590104e-02 2.1940967e-02 
-1.3802797e-01 -8.9752845e-02 1.0552683e-02 
-1.3912573e-01 -8.9955539e-02 -3.2014484e-03 
-1.4083420e-01 -9.1086686e-02 1.3353427e-02 
-1.3724174e-01 -8.9132309e-02 9.9248486e-03 
-1.3741687e-01 -8.9359887e-02 2.3510998e-02 
-1.3852409e-01 -8.9756280e-02 5.4499735e-03 
-1.3838056e-01 -8.9463547e-02 -1.1186677e-02 
-1.3677147e-01 -8.8084236e-02 -5.5852025e-03 
-1.3782129e-01 -8.9105606e-02 2.1887485e-02 
-1.3713503e-01 -8.8302590e-02 -8.8026468e-03 
-1.3815479e-01 -8.9768648e-02 -8.9075100e-03 
-1.3644829e-01 -8.8664293e-02 1.6179085e-02 
-1.3735950e-01 -8.8583790e-02 -1.0507922e-02 
-1.4010772e-01 -9.0529099e-02 1.3313131e-02 
-1.3489960e-01 -8.7324440e-02 3.2866010e-03 
-1.3985895e-01 -9.0400174e-02 1.2200654e-02 
-1.3427682e-01 -8.7036505e-02 5.2189445e-03 
-1.3481635e-01 -8.7477922e-02 1.5626835e-02 
-1.3532849e-01 -8.7685458e-02 -6.0307451e-05 
-1.3385122e-01 -8.6766973e-02 7.1062003e-03 
-1.3238883e-01 -8.6217113e-02 1.2120847e-02 
-1.3251983e-01 -8.6449705e-02 1.5929878e-02 
-1.3269012e-01 -8.6516023e-02 1.9287238e-02 
-1.3619280e-01 -8.8056386e-02 1.2078736e-02 
-1.3287458e-01 -8.6568661e-02 2.1999899e-02 
-1.3349847e-01 -8.6561762e-02 2.3342922e-02 
-1.3409919e-01 -8.6854346e-02 -1.0749977e-02 
-1.3154756e-01 -8.5513555e-02 8.9020068e-03 
-1.3563462e-01 -8.7858550e-02 7.5764097e-03 
-1.3252740e-01 -8.5936770e-02 6.6238772e-03 
-1.3560519e-01 -8.7442584e-02 1.5753552e-02 
-1.3068266e-01 -8.4964767e-02 1.1118091e-02 
-1.3031885e-01 -8.3865128e-02 -7.3486702e-03 
-1.3058865e-01 -8.4178917e-02 -9.5168948e-03 
-1.2990348e-01 -8.4468484e-02 1.5520644e-02 
-1.2888473e-01 -8.3076328e-02 -3.3521890e-03 
-1.2850010e-01 -8.3411850e-02 6.0844128e-03 
-1.2832296e-01 -8.3157606e-02 3.6474636e-03 
-1.2901351e-01 -8.3440237e-02 -5.3974043e-04 
-1.2905885e-01 -8.4056437e-02 2.2459956e-02 
-1.2995541e-01 -8.3942890e-02 -1.1067524e-02 
-1.2924695e-01 -8.3697431e-02 -1.9096714e-03 
-1.3100824e-01 -8.5007951e-02 4.4296975e-03 
-1.3168260e-01 -8.5077450e-02 1.2241927e-02 
-1.2825951e-01 -8.3291806e-02 1.5696958e-02 
-1.2853016e-01 -8.3183080e-02 2.1315053e-02 
-1.3143292e-01 -8.4954791e-02 1.1059491e-02 
-1.2895963e-01 -8.3759710e-02 -9.5069762e-03 
-1.2615439e-01 -8.1928611e-02 6.4739101e-03 
-1.2690745e-01 -8.2794629e-02 2.0414539e-02 
-1.2600258e-01 -8.2046121e-02 9.8250043e-03 
-1.2605156e-01 -8.2219228e-02 1.3577421e-02 
-1.2617776e-01 -8.2373492e-02 1.6922273e-02 
-1.2812720e-01 -8.3344661e-02 -8.8887842e-04 
-1.2542948e-01 -8.1395566e-02 8.0350153e-03 
-1.2818073e-01 -8.3078831e-02 7.2181262e-03 
-1.2460760e-01 -8.1041157e-02 1.1864454e-02 
-1.2619264e-01 -8.1978478e-02 -1.8648884e-03 
-1.2521994e-01 -8.1276476e-02 2.2144103e-02 
-1.2584533e-01 -8.1506051e-02 -1.0507955e-02 
-1.2392566e-01 -8.0507062e-02 7.7324496e-03 
-1.2471967e-01 -8.0702901e-02 -2.6574749e-03 
-1.2704302e-01 -8.2187690e-02 1.0941585e-02 
-1.2377795e-01 -7.9690978e-02 -5.2898922e-03 
-1.2493667e-01 -8.0890439e-02 1.1246017e-02 
-1.2489893e-01 -8.1011407e-02 -9.6970249e-04 
-1.2528706e-01 -8.0911703e-02 1.6323533e-02 
-1.2408794e-01 -7.9942957e-02 -8.3695352e-03 
-1.2537207e-01 -8.1651457e-02 -6.3606557e-03 
-1.2310197e-01 -7.9750143e-02 2.7159178e-03 
-1.2359450e-01 -8.0445178e-02 1.7061085e-02 
-1.2423567e-01 -8.0085486e-02 -1.0065514e-02 
-1.2729019e-01 -8.2110025e-02 1.4524317e-02 
-1.2424653e-01 -8.0394931e-02 1.1449922e-02 
-1.2321731e-01 -7.9948917e-02 5.6865127e-03 
-1.2097435e-01 -7.8847557e-02 2.1383090e-02 
-1.2187173e-01 -7.8754708e-02 -1.0742123e-02 
-1.1965539e-01 -7.7849716e-02 7.5015319e-03 
-1.1975800e-01 -7.8102104e-02 1.1258729e-02 
-1.1992166e-01 -7.8320406e-02 1.4690402e-02 
-1.2006965e-01 -7.8453191e-02 1.7717913e-02 
-1.2145697e-01 -7.8606941e-02 1.9752396e-02 
-1.1917403e-01 -7.7249989e-02 2.8684649e-03 
-1.2171517e-01 -7.9102553e-02 -9.1598127e-03 
-1.2349931e-01 -7.9869598e-02 1.1249264e-02 
-1.2325266e-01 -7.9758242e-02 9.9874698e-03 
-1.1986418e-01 -7.7852860e-02 1.2473768e-02 
-1.1891539e-01 -7.6888129e-02 -2.7671133e-03 
-1.1847933e-01 -7.7189833e-02 1.6151296e-02 
-1.1728993e-01 -7.6115437e-02 3.8089433e-03 
-1.2063395e-01 -7.8341767e-02 5.6330953e-03 
-1.1776181e-01 -7.5821981e-02 -6.9183935e-03 
-1.1990945e-01 -7.7635393e-02 1.0242004e-02 
-1.1740711e-01 -7.6284006e-02 2.1005448e-02 
-1.1693468e-01 -7.5997643e-02 6.7210407e-03 
-1.1799312e-01 -7.6484732e-02 -1.0417243e-02 
-1.1624912e-01 -7.5684570e-02 8.6632911e-03 
-1.1729684e-01 -7.5944215e-02 -3.0787769e-03 
-1.1745815e-01 -7.5760938e-02 -9.9973967e-03 
-1.1559045e-01 -7.5126857e-02 5.4414496e-03 
-1.1655305e-01 -7.5679608e-02 1.4163365e-03 
-1.1924136e-01 -7.6989852e-02 1.3357956e-02 
-1.1482009e-01 -7.4042067e-02 -3.7946547e-03 
-1.1374402e-01 -7.4213453e-02 8.9184996e-03 
-1.1390110e-01 -7.4452013e-02 1.2474954e-02 
-1.1407925e-01 -7.4634120e-02 1.5651921e-02 
-1.1424564e-01 -7.4704640e-02 1.8759076e-02 
-1.1434813e-01 -7.4016906e-02 -4.0125413e-04 
-1.1466348e-01 -7.4599847e-02 1.3901167e-02 
-1.1473585e-01 -7.3918834e-02 -8.4184241e-03 
-1.1469880e-01 -7.4496068e-02 4.2949775e-03 
-1.1290964e-01 -7.3509067e-02 6.3425414e-03 
-1.1573675e-01 -7.5464323e-02 -3.8938406e-03 
-1.1341549e-01 -7.4020132e-02 2.0272560e-02 
-1.1425842e-01 -7.3883906e-02 -1.0451824e-02 
-1.1348867e-01 -7.3612951e-02 -2.1497773e-03 
-1.1405523e-01 -7.4181020e-02 -9.0858657e-03 
-1.1233627e-01 -7.3207371e-02 1.0845639e-02 
-1.1172423e-01 -7.2537057e-02 3.1851470e-03 
-1.1557619e-01 -7.4817561e-02 1.0297910e-02 
-1.1166121e-01 -7.2223820e-02 -6.9586729e-04 
-1.1216942e-01 -7.3109940e-02 1.3558119e-02 
-1.1533020e-01 -7.4709952e-02 8.9455619e-03 
-1.1341233e-01 -7.3970318e-02 -6.9701481e-03 
-1.1369391e-01 -7.4110925e-02 5.3835334e-04 
-1.1115447e-01 -7.1839534e-02 -1.9147332e-03 
-1.1246943e-01 -7.2763510e-02 1.7930146e-02 
-1.1165828e-01 -7.2641172e-02 1.5596025e-04 
-1.1171295e-01 -7.2113737e-02 1.3734061e-02 
-1.0944413e-01 -7.1272478e-02 6.7799250e-03 
-1.0998227e-01 -7.1560837e-02 1.9976558e-02 
-1.0978612e-01 -7.0897534e-02 -9.4907731e-03 
-1.0899276e-01 -7.1301579e-02 1.8765913e-02 
-1.1161222e-01 -7.2573863e-02 4.7859703e-03 
-1.0808720e-01 -7.0678420e-02 1.0333544e-02 
-1.0783917e-01 -7.0362113e-02 7.3523582e-03 
-1.0825608e-01 -7.0886664e-02 1.3648560e-02 
-1.1016455e-01 -7.1462020e-02 -1.0128793e-02 
-1.0837264e-01 -7.0965275e-02 1.6386451e-02 
-1.0958618e-01 -7.1233347e-02 -1.6073633e-03 
-1.1060434e-01 -7.1593009e-02 1.0363162e-02 
-1.0868364e-01 -7.0043229e-02 -6.9745122e-03 
-1.0808454e-01 -6.9785394e-02 -3.0826270e-03 
-1.0880184e-01 -7.0821449e-02 1.0386358e-02 
-1.0909896e-01 -7.0735261e-02 1.3041542e-02 
-1.1154199e-01 -7.2068572e-02 1.2178041e-02 
-1.0913005e-01 -7.0881791e-02 3.8848331e-03 
-1.0897149e-01 -7.0829660e-02 3.8011640e-03 
-1.0646123e-01 -6.9250450e-02 3.9353613e-03 
-1.0693529e-01 -6.9796011e-02 1.1999796e-02 
-1.0809305e-01 -7.0179380e-02 6.5839626e-03 
-1.0907215e-01 -7.0707448e-02 9.1726929e-03 
-1.0655596e-01 -6.9264673e-02 1.0882217e-02 
-1.0614859e-01 -6.9355562e-02 1.9347789e-02 
-1.0698084e-01 -6.9308229e-02 -1.0386264e-02 
-1.0475770e-01 -6.8070136e-02 2.5332884e-03 
-1.0852323e-01 -7.0306018e-02 9.4516752e-03 
-1.0503965e-01 -6.8538263e-02 8.3887475e-03 
-1.0676611e-01 -6.9478408e-02 -9.4022229e-03 
-1.0645151e-01 -6.9436327e-02 -8.1932638e-03 
-1.0785587e-01 -6.9934279e-02 7.9817269e-03 
-1.0618389e-01 -6.9412142e-02 -6.6306298e-03 
-1.0589872e-01 -6.9199637e-02 -5.0241300e-03 
-1.0558339e-01 -6.8984836e-02 -3.3452357e-03 
-1.0297503e-01 -6.7515172e-02 1.1809558e-02 
-1.0321651e-01 -6.7717992e-02 1.4629944e-02 
-1.0439392e-01 -6.7804717e-02 1.8507745e-02 
-1.0371135e-01 -6.7477420e-02 4.7983173e-03 
-1.0333361e-01 -6.7742169e-02 1.7081102e-02 
-1.0243340e-01 -6.7006849e-02 8.4647564e-03 
-1.0426894e-01 -6.7498274e-02 1.4633957e-02 
-1.0293092e-01 -6.6381760e-02 -5.3353137e-03 
-1.0330761e-01 -6.6611499e-02 -7.9242205e-03 
-1.0359736e-01 -6.6960044e-02 -9.6221808e-03 
-1.0477994e-01 -6.8301342e-02 2.4209842e-03 
-1.0343757e-01 -6.7357831e-02 -1.2437552e-03 
-1.0298937e-01 -6.6849127e-02 -3.5609026e-03 
-1.0388340e-01 -6.7177482e-02 1.1873876e-02 
-1.0331196e-01 -6.6968225e-02 1.6620934e-02 
-1.0392898e-01 -6.7882702e-02 -1.6210374e-03 
-1.0321417e-01 -6.7206502e-02 9.7426542e-05 
-1.0454781e-01 -6.8005569e-02 4.8500872e-03 
-1.0296551e-01 -6.7014694e-02 1.5754100e-03 
-1.0118411e-01 -6.5957233e-02 5.2473503e-03 
-1.0161977e-01 -6.6410862e-02 1.0513314e-02 
-1.0187040e-01 -6.6527456e-02 1.3139741e-02 
-1.0297963e-01 -6.6690125e-02 1.2905043e-02 
-1.0085150e-01 -6.5480568e-02 8.8178564e-04 
-1.0335574e-01 -6.7495383e-02 1.0860130e-04 
-1.0337090e-01 -6.6942334e-02 9.3308445e-03 
-1.0131054e-01 -6.5750852e-02 -1.3620399e-03 
-1.0425353e-01 -6.7488179e-02 1.1117135e-02 
-1.0170350e-01 -6.6135503e-02 1.0914712e-02 
-1.0261114e-01 -6.6455714e-02 1.0148006e-02 
-1.0267571e-01 -6.6603854e-02 8.4103458e-03 
-1.0138544e-01 -6.5896645e-02 5.7843723e-03 
-1.0127466e-01 -6.5886639e-02 -9.9192997e-03 
-9.9507719e-02 -6.4616010e-02 5.5507239e-04 
-1.0134017e-01 -6.5936714e-02 3.7164912e-03 
-1.0023414e-01 -6.5274343e-02 5.3614010e-03 
-1.0006853e-01 -6.5231524e-02 1.3719737e-02 
-1.0152463e-01 -6.5860212e-02 8.4692044e-03 
-1.0107265e-01 -6.5849707e-02 3.2073653e-03 
-9.9294581e-02 -6.5012619e-02 1.8381160e-02 
-9.9966049e-02 -6.4812906e-02 -9.9908449e-03 
-9.9836275e-02 -6.4882621e-02 7.4460274e-03 
-9.7574465e-02 -6.3868470e-02 7.1778139e-03 
-9.7786054e-02 -6.4204752e-02 1.2712545e-02 
-9.7947985e-02 -6.3327253e-02 -3.3446855e-03 
-9.7459644e-02 -6.3909553e-02 9.9412547e-03 
-9.7940862e-02 -6.4336732e-02 1.5247763e-02 
-9.8945081e-02 -6.4460255e-02 1.8322185e-02 
-9.8060235e-02 -6.4360127e-02 1.7335629e-02 
-9.8879121e-02 -6.4365491e-02 -3.0364546e-03 
-9.9100783e-02 -6.4659528e-02 -8.7336507e-03 
-9.7724780e-02 -6.3051812e-02 -6.5069362e-03 
-9.8115474e-02 -6.3369311e-02 -8.5312985e-03 
-9.8769151e-02 -6.4639255e-02 -7.4371421e-03 
-9.7883128e-02 -6.3515745e-02 -5.7068099e-03 
-9.8527573e-02 -6.4516515e-02 -6.0746735e-03 
-9.8071031e-02 -6.3704044e-02 1.6949385e-02 
-9.8298684e-02 -6.4362034e-02 -4.4942321e-03 
-9.7963318e-02 -6.3526683e-02 1.4877354e-02 
-9.6630253e-02 -6.2823690e-02 1.1378751e-03 
-9.6729197e-02 -6.3269399e-02 1.2190217e-02 
-9.7799897e-02 -6.3389815e-02 1.3031028e-02 
-9.7162969e-02 -6.3259073e-02 -3.0413361e-03 
-9.7981192e-02 -6.4205162e-02 -2.9224178e-03 
-9.8752819e-02 -6.4150363e-02 6.2367637e-03 
-9.7553946e-02 -6.3182555e-02 1.1739387e-02 
-9.7683579e-02 -6.3959770e-02 -1.2088072e-03 
-9.7334340e-02 -6.3076377e-02 1.0457977e-02 
-9.5155567e-02 -6.2111735e-02 4.3564774e-03 
-9.7336143e-02 -6.3648030e-02 6.6123257e-04 
-9.6498057e-02 -6.2957160e-02 -1.7943189e-03 
-9.5199846e-02 -6.2293917e-02 9.2702368e-03 
-9.7033538e-02 -6.2935725e-02 9.1180643e-03 
-9.7039573e-02 -6.3332908e-02 2.7656599e-03 
-9.6501045e-02 -6.2930919e-02 2.9067372e-03 
-9.6733019e-02 -6.2797993e-02 8.3294995e-03 
-9.5946118e-02 -6.2440637e-02 6.3187554e-03 
-9.6903749e-02 -6.2903777e-02 7.9959789e-03 
-9.7387247e-02 -6.3094653e-02 1.0037214e-02 
-9.5751405e-02 -6.2317092e-02 5.0097653e-03 
-9.6369259e-02 -6.2567703e-02 7.7581732e-03 
-9.4556153e-02 -6.1380707e-02 -2.7414227e-03 
-9.4783410e-02 -6.1748311e-02 1.0716509e-02 
-9.5361523e-02 -6.2219553e-02 2.6288647e-03 
-9.4525576e-02 -6.1485611e-02 8.7867444e-03 
-9.3733065e-02 -6.1128139e-02 4.2578820e-03 
-9.4185576e-02 -6.1530333e-02 8.6923035e-05 
-9.1879509e-02 -5.9891146e-02 2.2438667e-03 
-9.2788175e-02 -5.9985995e-02 -5.1100357e-03 
-9.2062242e-02 -6.0479321e-02 9.5300823e-03 
-9.2275336e-02 -6.0739670e-02 1.3081115e-02 
-9.3250878e-02 -6.0232949e-02 -7.4823610e-03 
-9.2542261e-02 -6.0945489e-02 1.5851138e-02 
-9.3388952e-02 -6.0483534e-02 -8.8180378e-03 
-9.2793308e-02 -6.0920440e-02 1.7464232e-02 
-9.3456499e-02 -6.0671300e-02 -9.6039567e-03 
-9.3002126e-02 -6.0819913e-02 1.7664004e-02 
-9.3441665e-02 -6.0838304e-02 -9.5503237e-03 
-9.3117297e-02 -6.0697477e-02 1.7043123e-02 
-9.3402043e-02 -6.0958996e-02 -9.0077212e-03 
-9.3116462e-02 -6.0461469e-02 1.5320987e-02 
-9.3181700e-02 -6.0973335e-02 -8.0592027e-03 
-9.2837095e-02 -6.0540199e-02 1.8541414e-03 
-9.2180900e-02 -6.0285732e-02 1.1524197e-02 
-9.2946671e-02 -6.0274344e-02 1.3284954e-02 
-9.2941679e-02 -6.0968593e-02 -6.7944061e-03 
-9.2722252e-02 -6.0122706e-02 1.1786859e-02 
-9.2694558e-02 -6.0828324e-02 -5.4295007e-03 
-9.2474826e-02 -5.9968505e-02 1.0572328e-02 
-9.2381038e-02 -6.0670689e-02 -3.9975466e-03 
-9.1110036e-02 -5.9733707e-02 1.1235173e-02 
-9.1363192e-02 -5.9445392e-02 -2.7289947e-03 
-9.0360917e-02 -5.8983788e-02 3.1013447e-03 
-9.2222705e-02 -5.9867445e-02 9.2763612e-03 
-9.2089593e-02 -6.0481202e-02 -2.4424884e-03 
-9.1959953e-02 -5.9763312e-02 8.2143750e-03 
-9.1706134e-02 -6.0155746e-02 -7.3067844e-04 
-9.1600306e-02 -5.9541900e-02 7.5044013e-03 
-9.1381192e-02 -5.9863545e-02 1.1767518e-03 
-9.0868823e-02 -5.9218463e-02 5.4579666e-03 
-8.9784376e-02 -5.8433771e-02 -1.3807883e-03 
-9.0705298e-02 -5.9305482e-02 -1.4413180e-03 
-8.9207575e-02 -5.8504004e-02 8.6300140e-03 
-8.8679940e-02 -5.7871450e-02 2.2035614e-03 
-9.1232166e-02 -5.9309889e-02 7.1178116e-03 
-9.1070145e-02 -5.9470903e-02 3.2918490e-03 
-9.0341397e-02 -5.8854606e-02 6.2100543e-03 
-9.0537921e-02 -5.9142325e-02 2.9441377e-03 
-9.0916410e-02 -5.9084605e-02 7.4742339e-03 
-9.0898097e-02 -5.9113272e-02 5.8833361e-03 
-8.8171341e-02 -5.8125332e-02 1.2090822e-02 
-8.9173146e-02 -5.8314428e-02 1.1309966e-02 
-8.9853667e-02 -5.8640771e-02 3.5928118e-03 
-8.7658145e-02 -5.7603721e-02 7.1556773e-03 
-8.8383608e-02 -5.8238134e-02 1.6112281e-02 
-9.0944700e-02 -5.9011925e-02 9.0703806e-03 
-8.8392593e-02 -5.7182603e-02 -6.1421455e-03 
-8.8660292e-02 -5.7437256e-02 -7.9350621e-03 
-8.8491336e-02 -5.7762310e-02 9.0405056e-03 
-8.7157145e-02 -5.6499399e-02 -2.9574798e-03 
-8.8582397e-02 -5.7991728e-02 3.4255252e-04 
-8.7999567e-02 -5.7459410e-02 1.3308859e-03 
-8.8282786e-02 -5.7550352e-02 1.5656445e-02 
-8.6850159e-02 -5.7307631e-02 1.3971695e-02 
-8.8211127e-02 -5.7363980e-02 1.3745083e-02 
-8.8078149e-02 -5.7206128e-02 1.1913837e-02 
-8.7289713e-02 -5.7203826e-02 1.6783539e-02 
-8.7756783e-02 -5.7489313e-02 -8.4595354e-03 
-8.7855391e-02 -5.7045616e-02 1.0632679e-02 
-8.6645700e-02 -5.7018694e-02 1.6676072e-02 
-8.7357581e-02 -5.6746479e-02 -9.2203971e-03 
-8.7572314e-02 -5.7479899e-02 -7.3774992e-03 
-8.5375942e-02 -5.6033563e-02 5.1904088e-03 
-8.7601230e-02 -5.6923464e-02 9.4217192e-03 
-8.6126931e-02 -5.6632541e-02 1.1485583e-02 
-8.7336108e-02 -5.7428345e-02 -6.2666917e-03 
-8.5273407e-02 -5.6231678e-02 9.6144732e-03 
-8.5383974e-02 -5.5844534e-02 2.7820924e-03 
-8.5619166e-02 -5.6209534e-02 6.8220459e-03 
-8.7355085e-02 -5.6821648e-02 8.2164379e-03 
-8.7018333e-02 -5.7266969e-02 -4.9089333e-03 
-8.7041818e-02 -5.6668952e-02 7.3692906e-03 
-8.6766064e-02 -5.7104655e-02 -3.4233443e-03 
-8.5267842e-02 -5.5536211e-02 -1.0910877e-03 
-8.6340740e-02 -5.6337688e-02 5.7495241e-03 
-8.6020000e-02 -5.6221768e-02 1.7087416e-03 
-8.6227886e-02 -5.6274936e-02 -9.2749633e-03 
-8.6480096e-02 -5.6895744e-02 -1.9005160e-03 
-8.6715043e-02 -5.6472756e-02 6.7203771e-03 
-8.5120142e-02 -5.5765767e-02 5.0914777e-03 
-8.6181074e-02 -5.6611799e-02 -2.1810684e-04 
-8.4653333e-02 -5.5602014e-02 1.2647099e-02 
-8.5877188e-02 -5.6300148e-02 1.6649205e-03 
-8.5356377e-02 -5.5781469e-02 4.1113840e-03 
-8.4881268e-02 -5.5480443e-02 9.5851235e-03 
-8.4686838e-02 -5.5282570e-02 7.8361640e-03 
-8.5553229e-02 -5.5741038e-02 6.6614677e-03 
-8.3856039e-02 -5.4320596e-02 -6.8220082e-03 
-8.3447896e-02 -5.5141199e-02 1.5278064e-02 
-8.4166259e-02 -5.4595273e-02 -8.4304567e-03 
-8.2865261e-02 -5.4784641e-02 1.1615043e-02 
-8.2770802e-02 -5.4316476e-02 4.5643589e-03 
-8.2335442e-02 -5.4271273e-02 6.9685220e-03 
-8.2977638e-02 -5.3809382e-02 -4.2380244e-03 
-8.3674684e-02 -5.4566406e-02 1.4158571e-02 
-8.3998024e-02 -5.5034220e-02 2.6817243e-03 
-8.4951937e-02 -5.5215310e-02 8.1450976e-03 
-8.3559133e-02 -5.4837786e-02 -1.1914633e-03 
-8.3353788e-02 -5.4245416e-02 1.0572936e-02 
-8.3873287e-02 -5.4801069e-02 4.4137016e-03 
-8.2734145e-02 -5.4182719e-02 1.5485900e-02 
-8.2642317e-02 -5.3810321e-02 1.2064685e-02 
-8.2884587e-02 -5.4044660e-02 8.2174521e-03 
-8.2546219e-02 -5.4417022e-02 -5.7477504e-03 
-8.1585251e-02 -5.3190947e-02 -3.1002902e-03 
-8.0003470e-02 -5.2401874e-02 2.0024339e-03 
-8.0718145e-02 -5.3483423e-02 1.3344020e-02 
-8.2645424e-02 -5.3883970e-02 6.5198205e-03 
-8.1821464e-02 -5.3514037e-02 -2.7418758e-03 
-8.2297318e-02 -5.3571422e-02 9.4712079e-03 
-8.2120448e-02 -5.4088838e-02 -6.7103216e-03 
-8.0897339e-02 -5.3325638e-02 1.0082789e-02 
-8.0400907e-02 -5.2941162e-02 6.6312589e-03 
-8.0126286e-02 -5.2428402e-02 1.2954522e-03 
-7.9989471e-02 -5.2961241e-02 9.2307823e-03 
-8.0878094e-02 -5.3420234e-02 1.5807584e-02 
-8.1584036e-02 -5.3080793e-02 -8.9298114e-03 
-8.0444381e-02 -5.2563097e-02 -2.2490209e-04 
-8.1580728e-02 -5.3533159e-02 -8.7798005e-03 
-8.1885301e-02 -5.3354453e-02 7.2047203e-03 
-8.1399217e-02 -5.3497195e-02 -8.0288630e-03 
-8.0988266e-02 -5.3183548e-02 6.1759457e-04 
-8.0171071e-02 -5.2576050e-02 8.2565127e-03 
-8.1118122e-02 -5.3458992e-02 -1.2950673e-03 
-7.9979055e-02 -5.1915783e-02 -7.6572113e-03 
-8.0678567e-02 -5.3280219e-02 -4.4391160e-03 
-8.1120677e-02 -5.2953999e-02 6.0449275e-03 
-7.8766957e-02 -5.1266663e-02 -2.2352734e-03 
-8.0108337e-02 -5.2613012e-02 -1.1730792e-03 
-7.9195946e-02 -5.1358126e-02 -5.5219126e-03 
-8.0443442e-02 -5.3086236e-02 -3.0111603e-03 
-7.8231908e-02 -5.1658437e-02 8.3816005e-03 
-7.8369193e-02 -5.1957399e-02 1.4609111e-02 
-7.9944655e-02 -5.2657798e-02 1.8674540e-04 
-7.7840962e-02 -5.1663391e-02 1.1184679e-02 
-7.8641787e-02 -5.1727295e-02 9.0700639e-03 
-7.9543039e-02 -5.2149210e-02 3.5881510e-03 
-7.7342302e-02 -5.1157087e-02 6.8042460e-03 
-7.9140007e-02 -5.1922522e-02 -2.4721758e-03 
-7.9250000e-02 -5.1879589e-02 4.6525341e-03 
-7.7704810e-02 -5.1161643e-02 4.5343814e-03 
-7.8330688e-02 -5.1398791e-02 3.2037778e-03 
-7.9087593e-02 -5.1675141e-02 -8.8762399e-03 
-7.8910910e-02 -5.1713772e-02 8.5251704e-03 
-7.9700865e-02 -5.2373044e-02 2.0626071e-03 
-7.8421377e-02 -5.1320363e-02 -2.8928011e-03 
-7.8477211e-02 -5.1626660e-02 1.5427494e-02 
-7.9371914e-02 -5.1741242e-02 7.3179556e-03 
-7.8306749e-02 -5.1556859e-02 -2.6226467e-03 
-7.5807661e-02 -5.0418407e-02 1.2860405e-02 
-7.6821700e-02 -5.0392631e-02 -2.7410693e-03 
-7.5963080e-02 -5.0242051e-02 9.7501064e-03 
-7.6950848e-02 -5.0369758e-02 1.3184060e-02 
-7.5112864e-02 -4.9865428e-02 8.9096809e-03 
-7.5147353e-02 -4.9426250e-02 2.7334301e-03 
-7.4758671e-02 -4.9372811e-02 4.7982647e-03 
-7.5542159e-02 -4.9346957e-02 -1.9636753e-03 
-7.6258257e-02 -5.0061014e-02 8.5581765e-03 
-7.6805353e-02 -5.0132364e-02 9.5957341e-03 
-7.7025160e-02 -5.0413121e-02 5.8916365e-03 
-7.7134468e-02 -5.0562005e-02 4.0031425e-03 
-7.6065920e-02 -4.9629275e-02 -8.6311847e-03 
-7.5455658e-02 -4.9981233e-02 1.5039202e-02 
-7.6810770e-02 -5.0212845e-02 7.1417256e-03 
-7.4640773e-02 -4.8746306e-02 -1.1403159e-03 
-7.4743100e-02 -4.8642918e-02 -3.9427611e-03 
-7.5986907e-02 -4.9947895e-02 -8.3780587e-03 
-7.5154312e-02 -4.8824906e-02 -6.3095344e-03 
-7.6058820e-02 -5.0256222e-02 -6.1844867e-03 
-7.6692581e-02 -5.0159439e-02 5.7465490e-03 
-7.5441368e-02 -4.9686495e-02 -3.9838441e-03 
-7.5247146e-02 -4.9419954e-02 4.2411066e-03 
-7.3619813e-02 -4.8935965e-02 1.4004228e-02 
-7.3434509e-02 -4.8618007e-02 8.1906021e-03 
-7.3072538e-02 -4.8653524e-02 1.0825870e-02 
-7.2614715e-02 -4.8174828e-02 6.5269703e-03 
-7.4364558e-02 -4.9207125e-02 -1.3869003e-03 
-7.3068760e-02 -4.7926348e-02 -1.2942590e-03 
-7.4405961e-02 -4.9087744e-02 1.1121319e-03 
-7.3145300e-02 -4.8320692e-02 1.4758284e-02 
-7.3508404e-02 -4.8207656e-02 -8.6573111e-03 
-7.3002063e-02 -4.7907222e-02 -3.2027829e-03 
-7.3430367e-02 -4.8394833e-02 7.4855390e-04 
-7.1536385e-02 -4.7103737e-02 2.0418435e-03 
-7.3455185e-02 -4.8479922e-02 -1.0808184e-03 
-7.2472155e-02 -4.7933470e-02 9.8427534e-03 
-7.4238934e-02 -4.8501324e-02 6.5994929e-03 
-7.3331967e-02 -4.8598818e-02 -3.8957605e-03 
-7.2439298e-02 -4.7682814e-02 -1.3323574e-03 
-7.1082011e-02 -4.6894487e-02 3.0116506e-03 
-7.1149647e-02 -4.7426373e-02 1.2274963e-02 
-7.0683450e-02 -4.7116783e-02 8.6336490e-03 
-7.1294710e-02 -4.7277149e-02 9.3381358e-03 
-7.1267307e-02 -4.6971023e-02 2.4089010e-03 
-7.0891485e-02 -4.6999108e-02 6.3081854e-03 
-7.1224287e-02 -4.6987280e-02 3.6155130e-03 
-7.0978239e-02 -4.6195976e-02 -5.0938567e-03 
-7.0328951e-02 -4.5936711e-02 -2.5335762e-03 
-7.1267977e-02 -4.6449210e-02 -7.0770090e-03 
-7.1327955e-02 -4.7032915e-02 8.3565004e-03 
-6.9491707e-02 -4.5803756e-02 1.8043374e-03 
-7.2002478e-02 -4.7255758e-02 5.2083880e-03 
-7.0902780e-02 -4.6350982e-02 -8.2016150e-03 
-7.0354789e-02 -4.6809893e-02 1.4323856e-02 
-7.1790591e-02 -4.7246575e-02 3.5655564e-03 
-7.0838004e-02 -4.6558548e-02 1.3067762e-02 
-7.0346870e-02 -4.6325199e-02 -3.0891446e-03 
-7.0556425e-02 -4.6465017e-02 -8.2542952e-03 
-6.8974040e-02 -4.5350909e-02 1.9517017e-04 
-6.9092982e-02 -4.6110362e-02 1.3385780e-02 
-6.8913631e-02 -4.5807164e-02 7.8215534e-03 
-6.8576172e-02 -4.5834791e-02 1.0350069e-02 
-6.8098053e-02 -4.5333363e-02 6.3944622e-03 
-7.0031501e-02 -4.6043277e-02 5.2331262e-03 
-6.8397306e-02 -4.4928100e-02 -2.2265634e-03 
-6.9564603e-02 -4.6102930e-02 6.9557957e-04 
-6.8175972e-02 -4.5232940e-02 1.4029671e-02 
-6.8510614e-02 -4.4989333e-02 -8.3610546e-03 
-6.8306319e-02 -4.5031898e-02 6.7784684e-03 
-6.7811504e-02 -4.4571333e-02 -3.1914427e-03 
-6.9363348e-02 -4.5499235e-02 5.9243017e-03 
-6.7844376e-02 -4.4301454e-02 -7.2001317e-03 
-6.8296522e-02 -4.4863038e-02 9.9932691e-03 
-6.6784829e-02 -4.3671194e-02 -3.5706370e-03 
-6.6766337e-02 -4.4732921e-02 1.1818873e-02 
-6.7195110e-02 -4.3824039e-02 -5.7531889e-03 
-6.6922046e-02 -4.4551581e-02 9.0614399e-03 
-6.6249929e-02 -4.4291761e-02 8.3078993e-03 
-6.8020456e-02 -4.4869341e-02 4.9418202e-03 
-6.6891454e-02 -4.4289012e-02 3.2935133e-03 
-6.7703836e-02 -4.4715215e-02 -2.8904381e-03 
-6.7913592e-02 -4.4979662e-02 -7.4268910e-03 
-6.8119399e-02 -4.4770379e-02 6.4724241e-03 
-6.5912612e-02 -4.3280721e-02 -9.5382624e-04 
-6.5858245e-02 -4.3567032e-02 2.4660747e-03 
-6.5308370e-02 -4.3427814e-02 4.4213091e-03 
-6.6332035e-02 -4.4018626e-02 8.2088113e-03 
-6.6765606e-02 -4.4178691e-02 -7.0750352e-04 
-6.6939972e-02 -4.4575009e-02 -5.2864309e-03 
-6.6431865e-02 -4.3924130e-02 1.2755673e-02 
-6.7316592e-02 -4.4334672e-02 4.7378130e-03 
-6.7096010e-02 -4.4324327e-02 3.0263544e-03 
-6.6104740e-02 -4.3322969e-02 -7.7658352e-03 
-6.5550976e-02 -4.3817230e-02 1.3688748e-02 
-6.5833122e-02 -4.3605648e-02 7.9595065e-03 
-6.5682858e-02 -4.3272555e-02 -3.2523728e-03 
-6.6160426e-02 -4.3671206e-02 -8.0096424e-03 
-6.4846009e-02 -4.3489873e-02 1.2820773e-02 
-6.4652361e-02 -4.3119114e-02 7.5760693e-03 
-6.4332977e-02 -4.3172523e-02 9.9847745e-03 
-6.4112790e-02 -4.2607632e-02 4.1000494e-03 
-6.3457020e-02 -4.2413458e-02 5.8649182e-03 
-6.5865353e-02 -4.3396454e-02 4.8339069e-03 
-6.3733570e-02 -4.1939113e-02 -2.2353015e-03 
-6.3578062e-02 -4.2082097e-02 1.3261543e-03 
-6.3158765e-02 -4.1434512e-02 -2.4538818e-03 
-6.3395083e-02 -4.1467343e-02 -4.6079624e-03 
-6.2489960e-02 -4.1411027e-02 1.6716508e-03 
-6.3680209e-02 -4.1674558e-02 -6.5566949e-03 
-6.3537620e-02 -4.2328265e-02 1.3346609e-02 
-6.3868247e-02 -4.2025514e-02 -8.0525577e-03 
-6.4518176e-02 -4.2856861e-02 5.9200224e-04 
-6.2592708e-02 -4.2104650e-02 1.1324207e-02 
-6.4779818e-02 -4.2641003e-02 5.2921749e-03 
-6.2104478e-02 -4.1703403e-02 7.9662111e-03 
-6.2363088e-02 -4.1628692e-02 5.9040422e-03 
-6.2727243e-02 -4.1919369e-02 9.3158465e-03 
-6.3324414e-02 -4.1989014e-02 2.7703324e-03 
-6.3680157e-02 -4.2279273e-02 2.2671961e-04 
-6.3243747e-02 -4.1816544e-02 -3.2823810e-03 
-6.2583886e-02 -4.1576523e-02 3.2940651e-03 
-6.1747253e-02 -4.0813617e-02 1.2468011e-04 
-6.3050702e-02 -4.1838713e-02 -4.1656285e-03 
-6.2852450e-02 -4.1971441e-02 -2.3063621e-03 
-6.0195956e-02 -3.9983764e-02 1.6666689e-03 
-6.2851086e-02 -4.1513294e-02 4.3058097e-03 
-6.2642112e-02 -4.1516833e-02 2.5340682e-03 
-6.0820095e-02 -4.0953893e-02 1.2317945e-02 
-6.0305864e-02 -4.0660422e-02 9.5497640e-03 
-6.0696043e-02 -4.0683322e-02 8.1574237e-03 
-6.1564762e-02 -4.0413052e-02 -7.5596687e-03 
-6.1028916e-02 -4.0998444e-02 1.3001741e-02 
-6.1512370e-02 -4.0762592e-02 1.1875990e-02 
-6.1591715e-02 -4.0790625e-02 -7.7559710e-03 
-6.1187543e-02 -4.0444158e-02 -3.2916379e-03 
-5.9399463e-02 -3.9887242e-02 5.7423268e-03 
-5.9609637e-02 -3.9188541e-02 -3.1302774e-03 
-5.9990555e-02 -3.9354134e-02 -5.3357380e-03 
-6.0223069e-02 -3.9474778e-02 -6.7047756e-03 
-6.0419980e-02 -4.0195908e-02 8.2005002e-03 
-6.1043121e-02 -4.0355440e-02 4.5743464e-03 
-6.0919870e-02 -4.0606949e-02 3.2573877e-04 
-5.8419764e-02 -3.8880032e-02 1.6289048e-03 
-6.0053367e-02 -3.9933696e-02 8.2470285e-04 
-5.8684684e-02 -3.9678801e-02 1.0872654e-02 
-5.9165858e-02 -3.9584756e-02 7.3405784e-03 
-5.8203541e-02 -3.9298780e-02 7.7579329e-03 
-5.9253689e-02 -3.9171811e-02 -3.0834740e-03 
-5.8483414e-02 -3.9239544e-02 5.8453158e-03 
-5.9884824e-02 -3.9779518e-02 3.1083787e-03 
-5.8718458e-02 -3.9115045e-02 2.7712281e-03 
-6.0437035e-02 -3.9932281e-02 4.7384407e-03 
-5.9226979e-02 -3.9601505e-02 1.2748817e-02 
-5.9424616e-02 -3.9247960e-02 -7.7776932e-03 
-5.8072418e-02 -3.8498651e-02 -2.9802110e-04 
-5.8726560e-02 -3.9131045e-02 2.7485981e-03 
-5.7730868e-02 -3.8629189e-02 3.6018947e-03 
-5.9217032e-02 -3.9536450e-02 -6.9094943e-03 
-5.8420617e-02 -3.9093703e-02 8.1036296e-03 
-5.9283361e-02 -3.9204504e-02 5.7560951e-03 
-5.8794308e-02 -3.9484236e-02 -4.6750475e-03 
-5.7520833e-02 -3.8094446e-02 -1.2097917e-03 
-5.6326620e-02 -3.7837889e-02 4.1714129e-03 
-5.7117369e-02 -3.8641658e-02 1.1886365e-02 
-5.6537196e-02 -3.8333915e-02 9.2508448e-03 
-5.6827329e-02 -3.8258985e-02 7.1089361e-03 
-5.6170717e-02 -3.7876301e-02 5.7777558e-03 
-5.8581088e-02 -3.8868945e-02 3.8995196e-03 
-5.8380030e-02 -3.8883429e-02 2.0738270e-03 
-5.7852920e-02 -3.8428798e-02 -7.7060750e-03 
-5.6032635e-02 -3.7086297e-02 -1.2964847e-03 
-5.6489248e-02 -3.7155032e-02 -4.1341963e-03 
-5.7202745e-02 -3.7723850e-02 -7.1559404e-03 
-5.6785963e-02 -3.8297277e-02 1.2455783e-02 
-5.6776818e-02 -3.7348419e-02 -5.8176606e-03 
-5.7073701e-02 -3.7962634e-02 -3.3193643e-03 
-5.7204269e-02 -3.8142163e-02 1.1491353e-02 
-5.5615287e-02 -3.7248481e-02 2.7628012e-03 
-5.7361204e-02 -3.8002484e-02 8.8266674e-03 
-5.7228919e-02 -3.7989382e-02 4.2266306e-03 
-5.5718478e-02 -3.7539870e-02 8.5000945e-03 
-5.6763668e-02 -3.7899312e-02 1.2605201e-03 
-5.4974306e-02 -3.7344672e-02 1.0479958e-02 
-5.5755019e-02 -3.7287898e-02 6.4795297e-03 
-5.4489400e-02 -3.6950141e-02 7.4871816e-03 
-5.6432422e-02 -3.7858896e-02 -4.5087023e-04 
-5.4605529e-02 -3.6327798e-02 -2.0819007e-04 
-5.3924356e-02 -3.6365118e-02 4.4000181e-03 
-5.4178637e-02 -3.6433611e-02 3.9748386e-03 
-5.6297421e-02 -3.7369605e-02 4.2093149e-03 
-5.4960553e-02 -3.6948465e-02 1.2222807e-02 
-5.5255171e-02 -3.6885846e-02 5.6905020e-03 
-5.5291478e-02 -3.6693014e-02 -7.5098043e-03 
-5.4837625e-02 -3.6494788e-02 -3.1253044e-03 
-5.4381214e-02 -3.6122818e-02 -1.9144744e-03 
-5.4921895e-02 -3.6717258e-02 -2.7952101e-03 
-5.3020861e-02 -3.5909444e-02 5.5689886e-03 
-5.3477395e-02 -3.6369599e-02 1.1398651e-02 
-5.3626962e-02 -3.5982702e-02 3.8375130e-03 
-5.2774165e-02 -3.5456613e-02 2.5952526e-03 
-5.3107269e-02 -3.5127018e-02 -2.6787345e-03 
-5.2909173e-02 -3.6030415e-02 8.9504877e-03 
-5.4606076e-02 -3.6857553e-02 -2.7598874e-03 
-5.3432457e-02 -3.5265870e-02 -4.8179277e-03 
-5.3617857e-02 -3.6090072e-02 8.0851251e-03 
-5.3649668e-02 -3.5447117e-02 -6.1091180e-03 
-5.4551043e-02 -3.6343761e-02 3.5327624e-03 
-5.3976063e-02 -3.6149196e-02 1.6683636e-03 
-5.1978365e-02 -3.4864362e-02 1.5441161e-03 
-5.4353684e-02 -3.6371958e-02 1.6673844e-03 
-5.3214747e-02 -3.5652306e-02 1.7624234e-03 
-5.3182445e-02 -3.5191655e-02 -6.8649389e-03 
-5.2777167e-02 -3.5845764e-02 1.1881670e-02 
-5.3201433e-02 -3.5611339e-02 1.0928217e-02 
-5.3347562e-02 -3.5624914e-02 -7.5258273e-03 
-5.2038345e-02 -3.5233550e-02 8.2376460e-03 
-5.1459290e-02 -3.5140850e-02 1.0112270e-02 
-5.0793666e-02 -3.4393363e-02 4.1727871e-03 
-5.2902684e-02 -3.5658009e-02 -4.1807746e-04 
-5.2936073e-02 -3.5344031e-02 3.9807726e-03 
-5.1299930e-02 -3.4760077e-02 6.1788722e-03 
-5.1262945e-02 -3.4186903e-02 -1.1774459e-03 
-5.0959945e-02 -3.4116007e-02 2.9297743e-04 
-5.1389579e-02 -3.4326702e-02 -1.3969627e-03 
-5.2410599e-02 -3.4943689e-02 3.7185396e-03 
-4.9966250e-02 -3.4041140e-02 6.0682152e-03 
-5.0735395e-02 -3.4196969e-02 3.3548444e-03 
-5.1097952e-02 -3.4567397e-02 1.1595764e-02 
-5.1405404e-02 -3.4167837e-02 -7.2712013e-03 
-5.0930206e-02 -3.4010671e-02 -3.0472686e-03 
-5.0267532e-02 -3.3282354e-02 -3.6955622e-03 
-5.1042181e-02 -3.4175873e-02 -3.3433253e-03 
-5.0591156e-02 -3.3482615e-02 -5.2735209e-03 
-5.1252667e-02 -3.4249991e-02 8.3391797e-03 
-5.1288072e-02 -3.4599598e-02 -6.9264858e-03 
-5.1450882e-02 -3.4702025e-02 9.4574361e-06 
-5.1342379e-02 -3.4271684e-02 5.2698674e-03 
-5.0003760e-02 -3.4172814e-02 1.0949698e-02 
-4.9888216e-02 -3.3918217e-02 7.3653692e-03 
-5.1105976e-02 -3.4586430e-02 -4.9863895e-03 
-4.9448904e-02 -3.2937501e-02 -1.4952086e-03 
-4.9256079e-02 -3.3204664e-02 2.0627039e-03 
-4.9327616e-02 -3.3763371e-02 8.4520541e-03 
-4.8726223e-02 -3.2982394e-02 3.0732581e-03 
-5.0100960e-02 -3.3651859e-02 1.4543857e-03 
-5.0303791e-02 -3.3802092e-02 -4.5431736e-03 
-5.0783835e-02 -3.4004536e-02 3.1599414e-03 
-5.0587974e-02 -3.4043830e-02 1.2676498e-03 
-4.8775088e-02 -3.2767650e-02 5.0797057e-04 
-4.8471231e-02 -3.2932140e-02 4.3431805e-03 
-4.9792584e-02 -3.3431970e-02 5.9045544e-03 
-4.9881119e-02 -3.3552293e-02 -4.6558832e-04 
-4.9853776e-02 -3.3540882e-02 1.0722434e-02 
-4.9985331e-02 -3.3449747e-02 -7.2977035e-03 
-4.8581347e-02 -3.3014230e-02 5.3086709e-03 
-4.9430765e-02 -3.2823838e-02 -6.6089653e-03 
-4.8970938e-02 -3.3456266e-02 1.1373332e-02 
-4.9232624e-02 -3.3257626e-02 6.9185942e-03 
-4.7570940e-02 -3.2403849e-02 4.3267873e-03 
-4.8086803e-02 -3.3007540e-02 9.7555509e-03 
-4.8375476e-02 -3.2373387e-02 -1.8244102e-03 
-4.9631011e-02 -3.3229683e-02 3.5842883e-03 
-4.8218641e-02 -3.2751206e-02 6.5427609e-03 
-4.8320238e-02 -3.2549027e-02 8.2900736e-04 
-4.7177643e-02 -3.2369521e-02 7.0873993e-03 
-4.8874188e-02 -3.3156227e-02 -1.0370171e-03 
-4.7304060e-02 -3.1492218e-02 -2.5925669e-03 
-4.6859384e-02 -3.1634081e-02 1.4118430e-03 
-4.7525853e-02 -3.1570308e-02 -4.3492392e-03 
-4.7794569e-02 -3.1715635e-02 -5.6374851e-03 
-4.8747856e-02 -3.2686353e-02 3.2593752e-03 
-4.8297267e-02 -3.2544270e-02 2.6070059e-03 
-4.7327653e-02 -3.1701278e-02 -2.8105422e-03 
-4.7438886e-02 -3.2255586e-02 1.1106181e-02 
-4.7710445e-02 -3.1869762e-02 -7.0212525e-03 
-4.6074726e-02 -3.1586662e-02 5.5603194e-03 
-4.6761394e-02 -3.2148376e-02 1.0571674e-02 
-4.6193182e-02 -3.1296641e-02 2.0464454e-03 
-4.6273019e-02 -3.1854406e-02 8.3055450e-03 
-4.6587132e-02 -3.1844363e-02 7.1657137e-03 
-4.6472579e-02 -3.1427510e-02 1.6328278e-03 
-4.6025340e-02 -3.1401604e-02 4.4165272e-03 
-4.7246132e-02 -3.2182630e-02 -3.1481925e-03 
-4.7218658e-02 -3.1767521e-02 2.8567519e-03 
-4.5802418e-02 -3.1108908e-02 3.3933260e-03 
-4.7033466e-02 -3.1813674e-02 9.2974608e-04 
-4.5547519e-02 -3.0617051e-02 -1.0685263e-03 
-4.4764694e-02 -3.0328458e-02 1.4835811e-03 
-4.5442257e-02 -3.1196095e-02 1.0897011e-02 
-4.5842063e-02 -3.0573193e-02 -6.2435437e-03 
-4.4962808e-02 -3.1037122e-02 9.3993945e-03 
-4.4354811e-02 -3.0360691e-02 4.0764408e-03 
-4.5247711e-02 -3.0970700e-02 7.7483500e-03 
-4.4844583e-02 -3.0735614e-02 6.0409554e-03 
-4.4494413e-02 -3.0675493e-02 6.7446558e-03 
-4.5890573e-02 -3.1047849e-02 9.9897971e-03 
-4.5989513e-02 -3.0983465e-02 -7.0951292e-03 
-4.5517433e-02 -3.0634675e-02 -3.1902108e-03 
-4.4657022e-02 -2.9793195e-02 -3.2478862e-03 
-4.4981148e-02 -2.9958142e-02 -4.8266891e-03 
-4.5750033e-02 -3.1157196e-02 -9.6604181e-04 
-4.5809325e-02 -3.0821174e-02 3.4872114e-03 
-4.4391688e-02 -3.0333191e-02 7.4372194e-03 
-4.5318231e-02 -3.0533610e-02 2.8438785e-03 
-4.4686008e-02 -3.0422075e-02 -2.3824316e-03 
-4.3680176e-02 -3.0190386e-02 1.0170491e-02 
-4.3178655e-02 -2.9916110e-02 8.0032917e-03 
-4.3045394e-02 -2.9309100e-02 2.1541081e-03 
-4.2808484e-02 -2.9498724e-02 5.1420336e-03 
-4.3079309e-02 -2.9517448e-02 3.9414428e-03 
-4.4026755e-02 -3.0118220e-02 1.0651621e-02 
-4.4250552e-02 -2.9697735e-02 -6.6895685e-03 
-4.4442952e-02 -3.0209959e-02 -8.3015759e-05 
-4.4507779e-02 -3.0298056e-02 8.8155837e-05 
-4.4447806e-02 -2.9913789e-02 4.7969650e-03 
-4.3915201e-02 -2.9768685e-02 -2.5797635e-03 
-4.4123258e-02 -3.0012917e-02 -6.7505511e-03 
-4.3988194e-02 -2.9858416e-02 -7.7083867e-05 
-4.4187978e-02 -3.0273972e-02 -5.0149951e-03 
-4.3681618e-02 -2.9627411e-02 5.3867111e-03 
-4.2971022e-02 -2.8967440e-02 -1.7068916e-03 
-4.3895017e-02 -2.9675441e-02 2.5578921e-03 
-4.3712996e-02 -2.9733166e-02 6.1353721e-04 
-4.2435840e-02 -2.8949056e-02 2.4960933e-03 
-4.2954631e-02 -2.9269857e-02 6.1298092e-03 
-4.1908726e-02 -2.8166236e-02 -1.8589017e-03 
-4.1975435e-02 -2.9167933e-02 9.0520903e-03 
-4.2192757e-02 -2.8238719e-02 -3.9050297e-03 
-4.1567203e-02 -2.8834561e-02 6.5657664e-03 
-4.2994056e-02 -2.9038375e-02 -6.8751602e-03 
-4.2424079e-02 -2.8397098e-02 -5.1853065e-03 
-4.2111862e-02 -2.9019106e-02 7.5058956e-03 
-4.1242372e-02 -2.8356660e-02 3.5063261e-03 
-4.2135984e-02 -2.9121606e-02 1.0415932e-02 
-4.2471524e-02 -2.8492525e-02 -6.0200943e-03 
-4.2602818e-02 -2.8993469e-02 9.5143737e-03 
-4.2760596e-02 -2.8891893e-02 7.4991742e-03 
-4.2210303e-02 -2.8560670e-02 -3.1490403e-03 
-4.2872362e-02 -2.8977541e-02 3.1069843e-03 
-4.1696820e-02 -2.8492479e-02 3.8454107e-03 
-4.2201318e-02 -2.8953781e-02 -1.5050062e-03 
-4.1798610e-02 -2.8451581e-02 -4.1732700e-03 
-4.0462118e-02 -2.7646743e-02 1.5408000e-03 
-4.1186351e-02 -2.8336801e-02 8.0790874e-03 
-4.2087115e-02 -2.8523587e-02 2.4726987e-03 
-4.0794648e-02 -2.8365193e-02 9.7171851e-03 
-4.1015327e-02 -2.7758667e-02 -2.5012651e-03 
-4.0368017e-02 -2.8142203e-02 7.7714524e-03 
-4.0551193e-02 -2.8053883e-02 6.1876727e-03 
-3.9987717e-02 -2.7729619e-02 5.0166282e-03 
-4.0270746e-02 -2.7746035e-02 3.9016232e-03 
-4.0392403e-02 -2.7387414e-02 -9.8253810e-04 
-4.0772587e-02 -2.8053774e-02 1.0126271e-02 
-4.0988609e-02 -2.7660100e-02 -6.4629125e-03 
-4.0141854e-02 -2.7531728e-02 3.1176603e-03 
-4.0743954e-02 -2.7765492e-02 2.2850859e-03 
-4.0752795e-02 -2.8108910e-02 -3.4936452e-03 
-3.9553445e-02 -2.6645388e-02 -2.8516334e-03 
-3.9843142e-02 -2.6779426e-02 -4.3707811e-03 
-4.0745221e-02 -2.7697364e-02 2.3178330e-03 
-3.9459996e-02 -2.7032074e-02 1.6240582e-03 
-4.0566597e-02 -2.7762681e-02 3.3186463e-04 
-3.9213765e-02 -2.7391812e-02 8.7468578e-03 
-3.8799889e-02 -2.7085422e-02 6.3957209e-03 
-3.9811991e-02 -2.7164975e-02 -6.6933961e-04 
-4.0039517e-02 -2.7494421e-02 -3.8289221e-03 
-3.8440507e-02 -2.6613675e-02 3.4569565e-03 
-3.8412724e-02 -2.6358875e-02 1.4354371e-03 
-3.9011706e-02 -2.7154919e-02 9.9578900e-03 
-3.9273046e-02 -2.6482651e-02 -5.6786337e-03 
-3.9437689e-02 -2.6990967e-02 9.1160294e-03 
-3.9477419e-02 -2.6837384e-02 -6.7017586e-03 
-3.9598752e-02 -2.7037157e-02 1.8471499e-03 
-3.9051753e-02 -2.6548535e-02 -3.1224075e-03 
-3.9419796e-02 -2.7197573e-02 -1.4505371e-03 
-3.9500751e-02 -2.6876971e-02 3.0561269e-03 
-3.8970422e-02 -2.6698207e-02 1.2185395e-03 
-3.7729163e-02 -2.5937472e-02 1.4138337e-03 
-3.7825357e-02 -2.6265534e-02 4.6609053e-03 
-3.7943203e-02 -2.5889991e-02 -4.8438594e-04 
-3.8102083e-02 -2.6665343e-02 9.3879374e-03 
-3.8080767e-02 -2.5904313e-02 -1.6185179e-03 
-3.7664399e-02 -2.6395511e-02 7.5217616e-03 
-3.7927650e-02 -2.6383787e-02 6.5369932e-03 
-3.9032336e-02 -2.6595430e-02 2.1290586e-03 
-3.7652798e-02 -2.6157748e-02 7.1024201e-03 
-3.6836911e-02 -2.5696998e-02 4.6425909e-03 
-3.8323238e-02 -2.6337916e-02 1.0313892e-04 
-3.7089035e-02 -2.5151825e-02 -1.9115736e-03 
-3.7375513e-02 -2.5227338e-02 -3.4400609e-03 
-3.7817996e-02 -2.6180411e-02 9.7388532e-03 
-3.7595842e-02 -2.5383202e-02 -4.7056368e-03 
-3.7954908e-02 -2.5716841e-02 -6.1928239e-03 
-3.8292814e-02 -2.6061697e-02 4.3445337e-03 
-3.6694862e-02 -2.5734521e-02 5.9526307e-03 
-3.7983317e-02 -2.6359370e-02 -5.1639359e-03 
-3.7725825e-02 -2.5846669e-02 -2.5892798e-03 
-3.7952140e-02 -2.6110737e-02 -6.4548585e-03 
-3.6579695e-02 -2.5727257e-02 8.4140133e-03 
-3.5999250e-02 -2.5016634e-02 2.9672498e-03 
-3.7775710e-02 -2.5817471e-02 2.0718682e-03 
-3.7582021e-02 -2.5903678e-02 4.3006639e-05 
-3.6101080e-02 -2.5085380e-02 3.4212715e-03 
-3.6472868e-02 -2.5326332e-02 7.6397271e-03 
-3.5791356e-02 -2.4557279e-02 2.2954951e-05 
-3.6560707e-02 -2.5237774e-02 4.4210590e-03 
-3.6881778e-02 -2.5135444e-02 -6.4813788e-03 
-3.6216825e-02 -2.5064819e-02 4.0352903e-03 
-3.6102306e-02 -2.5323186e-02 9.5118219e-03 
-3.6409970e-02 -2.4662649e-02 -5.4425499e-03 
-3.5760291e-02 -2.4467163e-02 -9.2600484e-04 
-3.6849666e-02 -2.5192952e-02 2.6706578e-03 
-3.6525473e-02 -2.5159024e-02 8.7074162e-03 
-3.6153000e-02 -2.4721406e-02 -3.1157827e-03 
-3.5568379e-02 -2.4581539e-02 1.8871611e-03 
-3.6525685e-02 -2.4978219e-02 6.9269757e-03 
-3.5181679e-02 -2.4056468e-02 -7.4896665e-04 
-3.5505410e-02 -2.5022600e-02 9.0315742e-03 
-3.6280751e-02 -2.4944279e-02 1.8435637e-03 
-3.6235545e-02 -2.5198938e-02 -1.9002578e-03 
-3.4880023e-02 -2.4638336e-02 6.9391956e-03 
-3.5977356e-02 -2.4798172e-02 1.6370687e-03 
-3.5022344e-02 -2.3798568e-02 -2.4686549e-03 
-3.6127742e-02 -2.4789564e-02 1.7983228e-03 
-3.5898753e-02 -2.4762601e-02 -1.7093113e-05 
-3.5258025e-02 -2.3885829e-02 -3.9161127e-03 
-3.4409050e-02 -2.4207739e-02 5.1048920e-03 
-3.5220537e-02 -2.4005381e-02 -3.3435347e-03 
-3.4651484e-02 -2.4304580e-02 5.5334489e-03 
-3.4132764e-02 -2.3905374e-02 3.5062025e-03 
-3.4744829e-02 -2.4327220e-02 6.8168500e-03 
-3.4972917e-02 -2.4381714e-02 9.2702610e-03 
-3.5090618e-02 -2.3926573e-02 -5.9796339e-03 
-3.4482971e-02 -2.3846390e-02 5.9582421e-04 
-3.4105297e-02 -2.4150919e-02 8.1352992e-03 
-3.3766687e-02 -2.3547029e-02 2.6163454e-03 
-3.4983471e-02 -2.4498897e-02 -3.6606535e-03 
-3.4400657e-02 -2.3774277e-02 -2.9418478e-04 
-3.4954604e-02 -2.4062146e-02 1.8226624e-03 
-3.4786943e-02 -2.4143696e-02 -1.8209574e-04 
-3.4370992e-02 -2.3762511e-02 -2.6664147e-03 
-3.3646703e-02 -2.3107842e-02 -1.4816857e-03 
-3.2848090e-02 -2.2830786e-02 1.3852521e-03 
-3.3345859e-02 -2.3263406e-02 2.8386142e-03 
-3.3536427e-02 -2.3395786e-02 5.3647300e-03 
-3.3359025e-02 -2.3561426e-02 9.0280622e-03 
-3.3584516e-02 -2.2896733e-02 -5.1327213e-03 
-3.3111211e-02 -2.3468554e-02 8.5730515e-03 
-3.3741076e-02 -2.3367058e-02 8.3787544e-03 
-3.3753134e-02 -2.3208909e-02 -6.3244863e-03 
-3.2743994e-02 -2.2447314e-02 -1.3790084e-03 
-3.2719757e-02 -2.3250887e-02 7.0481510e-03 
-3.2986272e-02 -2.3237249e-02 6.3192714e-03 
-3.3026848e-02 -2.2506423e-02 -3.0588054e-03 
-3.3341460e-02 -2.2922976e-02 -3.0032860e-03 
-3.2347932e-02 -2.2827186e-02 4.1070152e-03 
-3.3780526e-02 -2.3654789e-02 -1.8239645e-03 
-3.2487281e-02 -2.3054972e-02 5.7809781e-03 
-3.3212863e-02 -2.2613777e-02 -4.2582103e-03 
-3.3857360e-02 -2.3331052e-02 2.6280887e-03 
-3.3438724e-02 -2.3103047e-02 1.4962442e-03 
-3.1998537e-02 -2.2571133e-02 4.6060453e-03 
-3.2957841e-02 -2.2875343e-02 1.9985172e-03 
-3.1842660e-02 -2.2376651e-02 3.1772724e-03 
-3.2019224e-02 -2.2163145e-02 -2.1611660e-04 
-3.1656530e-02 -2.2052566e-02 1.1266116e-03 
-3.2547452e-02 -2.2545984e-02 -2.1190203e-03 
-3.2923251e-02 -2.2917870e-02 1.4283176e-04 
-3.2176487e-02 -2.2180486e-02 -1.7392503e-03 
-3.2855321e-02 -2.2597710e-02 3.9112098e-03 
-3.2567315e-02 -2.2738617e-02 -3.5676635e-03 
-3.1753324e-02 -2.2623425e-02 7.8284340e-03 
-3.2289736e-02 -2.2694934e-02 8.8408068e-03 
-3.2401010e-02 -2.2213591e-02 -5.6897374e-03 
-3.2500986e-02 -2.2879723e-02 -5.1969010e-03 
-3.2171533e-02 -2.2440432e-02 5.1463326e-03 
-3.2392826e-02 -2.2539368e-02 -6.1834045e-03 
-3.2216303e-02 -2.2373213e-02 5.2095163e-03 
-3.2344744e-02 -2.2404412e-02 1.6219760e-03 
-3.2163762e-02 -2.2507416e-02 -4.0875579e-04 
-3.0690689e-02 -2.1924891e-02 6.3132984e-03 
-3.0890986e-02 -2.1195410e-02 -2.1365453e-03 
-3.0620273e-02 -2.1192184e-02 -5.2461884e-04 
-3.1105414e-02 -2.1296781e-02 -3.5033263e-03 
-3.0421250e-02 -2.1684762e-02 4.9555846e-03 
-3.1050835e-02 -2.1761864e-02 2.7471592e-03 
-3.0832177e-02 -2.2009006e-02 8.3979648e-03 
-3.0173218e-02 -2.1392606e-02 3.4793091e-03 
-3.1450599e-02 -2.1699980e-02 -6.0837553e-03 
-3.1532567e-02 -2.1838706e-02 2.2884835e-03 
-3.0852592e-02 -2.1913568e-02 8.6959517e-03 
-3.1048069e-02 -2.1228708e-02 -4.8669758e-03 
-3.0577598e-02 -2.1692019e-02 5.9697777e-03 
-3.1244049e-02 -2.1889893e-02 -6.9733354e-04 
-3.1210672e-02 -2.1778231e-02 7.9776188e-03 
-3.0839033e-02 -2.1308528e-02 -2.9339879e-03 
-3.1179186e-02 -2.1585619e-02 6.3594407e-03 
-3.0016404e-02 -2.0912152e-02 2.6221963e-04 
-3.1004433e-02 -2.1907367e-02 -2.2402182e-03 
-2.9794041e-02 -2.1034339e-02 2.6103461e-03 
-3.0902410e-02 -2.1503722e-02 1.2085992e-03 
-2.9947244e-02 -2.0995893e-02 1.4946710e-03 
-2.9943682e-02 -2.1242321e-02 6.1261510e-03 
-2.9535616e-02 -2.1003373e-02 4.4978173e-03 
-3.0255042e-02 -2.1138975e-02 -1.3869908e-03 
-2.9800007e-02 -2.1090994e-02 8.4953438e-03 
-2.9941397e-02 -2.0603402e-02 -5.4515270e-03 
-2.9281907e-02 -2.1030355e-02 7.7586886e-03 
-2.8986361e-02 -2.0847552e-02 6.7413109e-03 
-2.9905403e-02 -2.1287287e-02 -3.8068257e-03 
-2.9839557e-02 -2.1079691e-02 -1.6739399e-03 
-2.9915623e-02 -2.0939918e-02 5.3053984e-04 
-2.8849011e-02 -2.0003222e-02 -1.0898630e-03 
-2.8694637e-02 -2.0623006e-02 5.5662827e-03 
-2.9085251e-02 -2.0022461e-02 -2.6911269e-03 
-2.9883748e-02 -2.0833064e-02 1.4014692e-03 
-2.9331569e-02 -2.0142585e-02 -3.8904070e-03 
-2.9592356e-02 -2.0582069e-02 -3.5364386e-03 
-2.9713228e-02 -2.0918293e-02 -6.0973846e-04 
-2.9300829e-02 -2.0478787e-02 6.3245672e-05 
-2.8402466e-02 -2.0314030e-02 4.0102480e-03 
-2.9371234e-02 -2.0465702e-02 3.2562395e-03 
-2.7991910e-02 -1.9736115e-02 1.3221940e-03 
-2.8767241e-02 -2.0314744e-02 3.8263530e-03 
-2.9027836e-02 -2.0335186e-02 2.3154931e-03 
-2.8419230e-02 -1.9774832e-02 -1.4042634e-03 
-2.8340936e-02 -2.0261932e-02 5.8170669e-03 
-2.8348338e-02 -2.0367544e-02 8.0713686e-03 
-2.8447730e-02 -2.0354314e-02 8.3821155e-03 
-2.8627871e-02 -1.9724697e-02 -4.6610855e-03 
-2.8840911e-02 -2.0494463e-02 -2.0740225e-03 
-2.8986271e-02 -2.0179326e-02 2.2541631e-03 
-2.8733326e-02 -2.0215582e-02 7.6551647e-03 
-2.8802728e-02 -2.0034138e-02 -5.8412328e-03 
-2.8428758e-02 -1.9774571e-02 -2.8795507e-03 
-2.7831674e-02 -1.9928247e-02 4.9299840e-03 
-2.7627645e-02 -1.9750204e-02 3.9347326e-03 
-2.8543221e-02 -2.0006288e-02 9.5098832e-04 
-2.8374584e-02 -1.9981073e-02 -3.4631826e-03 
-2.7361194e-02 -1.9438090e-02 2.3550631e-03 
-2.7678674e-02 -1.9625362e-02 2.9586297e-03 
-2.7138131e-02 -1.9211827e-02 1.5675920e-03 
-2.8223485e-02 -1.9895138e-02 -5.2851351e-04 
-2.7351419e-02 -1.9794157e-02 7.0689418e-03 
-2.7522640e-02 -1.9677533e-02 6.0734260e-03 
-2.7065426e-02 -1.9594535e-02 6.0493420e-03 
-2.7214168e-02 -1.8866487e-02 -1.8259999e-03 
-2.6818592e-02 -1.9372869e-02 4.8191715e-03 
-2.8036674e-02 -1.9534875e-02 3.5966150e-03 
-2.7438642e-02 -1.8933380e-02 -3.4207497e-03 
-2.6922781e-02 -1.8897498e-02 6.2217550e-05 
-2.7607640e-02 -1.9447057e-02 -1.8841079e-04 
-2.6589323e-02 -1.9102858e-02 3.4485767e-03 
-2.7825184e-02 -1.9876007e-02 -5.1580505e-03 
-2.7456727e-02 -1.9559458e-02 8.1595778e-03 
-2.7603418e-02 -1.9129446e-02 -5.1927678e-03 
-2.6585970e-02 -1.8616803e-02 -3.3066419e-04 
-2.7597073e-02 -1.9435972e-02 -5.8796508e-03 
-2.7356200e-02 -1.9141408e-02 -3.2589289e-03 
-2.7590914e-02 -1.9382462e-02 1.2139217e-03 
-2.7433002e-02 -1.9488454e-02 -7.8942848e-04 
-2.7432846e-02 -1.9451775e-02 -1.1061432e-03 
-2.6942659e-02 -1.8973375e-02 -4.3911561e-03 
-2.5759963e-02 -1.8421153e-02 2.2971919e-03 
-2.6027892e-02 -1.8746307e-02 4.4037956e-03 
-2.5814399e-02 -1.8402403e-02 1.8937897e-03 
-2.6168078e-02 -1.8839300e-02 5.1314496e-03 
-2.6887182e-02 -1.8892042e-02 1.9554771e-03 
-2.6326824e-02 -1.8406123e-02 -1.8628571e-03 
-2.6059873e-02 -1.8536780e-02 1.8347893e-03 
-2.6777096e-02 -1.8710099e-02 -5.5824672e-03 
-2.6310403e-02 -1.8580711e-02 -1.8583628e-04 
-2.6170313e-02 -1.8890118e-02 7.9732249e-03 
-2.6403107e-02 -1.8300749e-02 -4.4038552e-03 
-2.6537403e-02 -1.8775141e-02 7.3276646e-03 
-2.6029054e-02 -1.8624758e-02 4.9555288e-03 
-2.6602615e-02 -1.8722204e-02 2.2472152e-03 
-2.6198450e-02 -1.8634761e-02 4.9745343e-03 
-2.5786750e-02 -1.8749813e-02 7.3081478e-03 
-2.6557529e-02 -1.8619610e-02 5.8488115e-03 
-2.6425231e-02 -1.8967425e-02 -2.4413678e-03 
-2.5513129e-02 -1.8599471e-02 6.4288019e-03 
-2.5441123e-02 -1.8241877e-02 2.7189138e-03 
-2.6341693e-02 -1.8604105e-02 7.1228069e-04 
-2.5255090e-02 -1.8400891e-02 5.3691883e-03 
-2.5362888e-02 -1.7756307e-02 -1.0950655e-03 
-2.5580119e-02 -1.7796833e-02 -2.3635286e-03 
-2.5788834e-02 -1.7870724e-02 -3.4862689e-03 
-2.5022710e-02 -1.8159319e-02 4.1198176e-03 
-2.4843082e-02 -1.7893951e-02 2.7585225e-03 
-2.5076773e-02 -1.7756745e-02 3.4752692e-04 
-2.5535705e-02 -1.8085727e-02 4.1359076e-03 
-2.4979172e-02 -1.7567441e-02 -1.2115085e-03 
-2.5312854e-02 -1.8166037e-02 7.7969958e-03 
-2.5411235e-02 -1.7746300e-02 -4.9676280e-03 
-2.4832670e-02 -1.7824918e-02 2.9715078e-03 
-2.5120838e-02 -1.7637497e-02 -2.5210204e-03 
-2.5458351e-02 -1.7997794e-02 1.0440133e-03 
-2.4723172e-02 -1.7911894e-02 5.4885647e-03 
-2.4532028e-02 -1.7704643e-02 3.4769783e-03 
-2.5294662e-02 -1.8039342e-02 -2.8729585e-03 
-2.5304673e-02 -1.8106818e-02 -9.5425273e-04 
-2.4496678e-02 -1.7772594e-02 4.7866246e-03 
-2.5097648e-02 -1.7954389e-02 -1.8282321e-03 
-2.4132188e-02 -1.7369274e-02 2.2690052e-03 
-2.4973363e-02 -1.7674977e-02 -3.0190002e-03 
-2.4840573e-02 -1.7625159e-02 6.6149404e-04 
-2.5054350e-02 -1.7825205e-02 1.3577811e-04 
-2.4978906e-02 -1.7777357e-02 -8.4088977e-05 
-2.4865864e-02 -1.8011950e-02 -3.7580957e-03 
-2.4347231e-02 -1.7770067e-02 7.3906584e-03 
-2.3726201e-02 -1.6997885e-02 1.2939451e-03 
-2.4183901e-02 -1.7271832e-02 1.1979927e-03 
-2.4779001e-02 -1.7608795e-02 1.3762285e-03 
-2.4058707e-02 -1.7636981e-02 6.6878065e-03 
-2.4398973e-02 -1.7375607e-02 -3.6308589e-05 
-2.3794597e-02 -1.7463492e-02 5.7879831e-03 
-2.3834314e-02 -1.6745634e-02 -1.5362512e-03 
-2.3561338e-02 -1.7249083e-02 4.7036186e-03 
-2.4038555e-02 -1.6789051e-02 -2.8175607e-03 
-2.4673382e-02 -1.7382236e-02 1.9598086e-03 
-2.4113646e-02 -1.7539579e-02 7.6638535e-03 
-2.4246531e-02 -1.6902126e-02 -4.1843611e-03 
-2.3368217e-02 -1.7021013e-02 3.4107675e-03 
-2.4368338e-02 -1.7384848e-02 6.9932211e-03 
-2.4416691e-02 -1.7189588e-02 -5.4534958e-03 
-2.4358965e-02 -1.7619846e-02 -2.5317047e-03 
-2.4274845e-02 -1.7269485e-02 5.1134132e-04 
-2.3696601e-02 -1.7219162e-02 5.7017766e-03 
-2.3867484e-02 -1.6844824e-02 3.2944228e-03 
-2.3372304e-02 -1.6879521e-02 5.9952033e-03 
-2.3680378e-02 -1.7152235e-02 -4.9374746e-03 
-2.2873320e-02 -1.6694365e-02 4.2919810e-03 
-2.2814123e-02 -1.6271487e-02 -7.6035554e-05 
-2.2684971e-02 -1.6524479e-02 3.3522802e-03 
-2.2876395e-02 -1.6228134e-02 -1.1475688e-03 
-2.3289768e-02 -1.6819403e-02 7.4156597e-03 
-2.3328949e-02 -1.6355177e-02 -4.7650975e-03 
-2.3448983e-02 -1.6685523e-02 9.1735483e-04 
-2.2967711e-02 -1.6535681e-02 2.6668019e-03 
-2.3311639e-02 -1.6822772e-02 -1.0750177e-03 
-2.3119362e-02 -1.6571844e-02 3.5030532e-03 
-2.2767592e-02 -1.6747072e-02 7.0321071e-03 
-2.3426229e-02 -1.6730784e-02 -5.6659933e-03 
-2.3129430e-02 -1.6394868e-02 -3.1034127e-03 
-2.2778077e-02 -1.6148061e-02 -1.9520419e-03 
-2.2442479e-02 -1.6579732e-02 6.1135865e-03 
-2.3103358e-02 -1.6625540e-02 -6.4989569e-04 
-2.2204064e-02 -1.6400917e-02 5.1570060e-03 
-2.2423906e-02 -1.6204653e-02 1.9887900e-03 
-2.2190245e-02 -1.5766457e-02 -6.1901798e-04 
-2.2395318e-02 -1.5769539e-02 -2.0470191e-03 
-2.1976992e-02 -1.6184546e-02 4.0161135e-03 
-2.2581492e-02 -1.5840624e-02 -3.1470095e-03 
-2.1852650e-02 -1.5964597e-02 2.8219323e-03 
-2.2800470e-02 -1.6348796e-02 -2.2537222e-03 
-2.2265704e-02 -1.6283561e-02 4.8752199e-03 
-2.2838825e-02 -1.6269006e-02 -4.2554950e-03 
-2.2505533e-02 -1.6127063e-02 -1.0756552e-03 
-2.2654116e-02 -1.6004784e-02 -5.1713036e-03 
-2.2702510e-02 -1.6145622e-02 1.8331265e-03 
-2.2691460e-02 -1.6130239e-02 5.5192574e-03 
-2.2156127e-02 -1.6234184e-02 7.3155793e-03 
-2.2251613e-02 -1.5630629e-02 -3.9565549e-03 
-2.2490909e-02 -1.6241843e-02 -1.1234336e-03 
-2.2418821e-02 -1.6366914e-02 -2.5666908e-03 
-2.2462772e-02 -1.6163643e-02 6.7258859e-03 
-2.1535117e-02 -1.5685473e-02 2.2954294e-03 
-2.1974087e-02 -1.6065523e-02 5.5107642e-03 
-2.2400573e-02 -1.6144926e-02 -9.9684438e-04 
-2.2346338e-02 -1.6017579e-02 3.5888323e-04 
-2.1115016e-02 -1.5508293e-02 3.6529505e-03 
-2.1850284e-02 -1.5773140e-02 -3.8722507e-03 
-2.1124635e-02 -1.5705340e-02 6.3690692e-03 
-2.1253867e-02 -1.5721053e-02 6.9334456e-03 
-2.0882914e-02 -1.5549722e-02 5.5468809e-03 
-2.1558743e-02 -1.5521019e-02 1.2498149e-03 
-2.0651473e-02 -1.5343034e-02 4.5272969e-03 
-2.0862497e-02 -1.4810367e-02 -1.2762520e-03 
-2.1376178e-02 -1.5583121e-02 7.1289307e-03 
-2.1591900e-02 -1.5493378e-02 7.7834685e-04 
-2.1101529e-02 -1.4889785e-02 -2.7634928e-03 
-2.1426920e-02 -1.5154783e-02 -4.5606038e-03 
-2.0990781e-02 -1.5299154e-02 2.9740571e-03 
-2.0980448e-02 -1.5062217e-02 -2.3751309e-04 
-2.1428593e-02 -1.5595192e-02 -1.1851229e-03 
-2.0469230e-02 -1.5124720e-02 3.3820521e-03 
-2.1158583e-02 -1.5067765e-02 -2.3891872e-03 
-2.1132432e-02 -1.5289529e-02 1.4667510e-03 
-2.1466706e-02 -1.5280661e-02 3.8306226e-03 
-2.1242158e-02 -1.5339384e-02 -1.6429076e-05 
-2.0697400e-02 -1.5263816e-02 5.2099316e-03 
-2.0529831e-02 -1.5167923e-02 4.5556137e-03 
-2.0999204e-02 -1.5139498e-02 3.6951432e-03 
-1.9993056e-02 -1.4559402e-02 1.2697615e-03 
-2.0277416e-02 -1.4597542e-02 1.2298060e-05 
-2.0990871e-02 -1.4990486e-02 2.0834664e-03 
-1.9914679e-02 -1.4566889e-02 1.8634968e-03 
-2.0377841e-02 -1.4912165e-02 4.3323762e-03 
-2.0170627e-02 -1.4707669e-02 1.9957700e-03 
-2.0697473e-02 -1.5252466e-02 -3.7689377e-03 
-2.0317372e-02 -1.5028081e-02 7.0106448e-03 
-2.0622788e-02 -1.5166348e-02 -2.6241753e-03 
-2.0430779e-02 -1.4431475e-02 -3.7292652e-03 
-2.0624910e-02 -1.4935913e-02 6.4455271e-03 
-2.0576736e-02 -1.4680503e-02 -5.0647086e-03 
-2.0545984e-02 -1.4864262e-02 1.5952502e-04 
-2.0306844e-02 -1.4773702e-02 4.6149027e-03 
-2.0269299e-02 -1.4539256e-02 -2.7068546e-03 
-2.0057013e-02 -1.4482695e-02 -2.8584851e-04 
-1.9895310e-02 -1.4841767e-02 6.5758582e-03 
-1.9634556e-02 -1.4707834e-02 5.8349152e-03 
-1.9416943e-02 -1.4549197e-02 4.9651610e-03 
-1.9364303e-02 -1.3927059e-02 -4.2820669e-04 
-1.9214414e-02 -1.4353794e-02 3.9266804e-03 
-1.9566545e-02 -1.3915810e-02 -1.7698406e-03 
-1.9741625e-02 -1.3982887e-02 -2.8336535e-03 
-1.9081011e-02 -1.4162655e-02 2.9242078e-03 
-1.9842699e-02 -1.4371555e-02 -1.7812224e-03 
-1.9021267e-02 -1.3920315e-02 1.3199500e-03 
-1.9830028e-02 -1.4331441e-02 6.4405677e-04 
-1.9562854e-02 -1.4393155e-02 6.8359035e-03 
-1.9691609e-02 -1.4439905e-02 -1.2866177e-03 
-1.9626182e-02 -1.3951319e-02 -4.3340274e-03 
-1.8936602e-02 -1.4053419e-02 3.2879850e-03 
-1.9816242e-02 -1.4243879e-02 5.1490306e-03 
-1.9654712e-02 -1.4238001e-02 -5.3497571e-03 
-1.9087253e-02 -1.3717495e-02 -1.0026004e-03 
-1.9487856e-02 -1.4197871e-02 -1.3018926e-04 
-1.9095859e-02 -1.4157276e-02 5.2090371e-03 
-1.8805102e-02 -1.4008284e-02 4.4539156e-03 
-1.9229760e-02 -1.3900852e-02 -2.8559584e-03 
-1.8626107e-02 -1.3536513e-02 3.0446533e-04 
-1.8437944e-02 -1.3618406e-02 2.0510452e-03 
-1.9198218e-02 -1.3951442e-02 1.6675799e-03 
-1.8845508e-02 -1.3810612e-02 2.4346265e-03 
-1.9156355e-02 -1.4107391e-02 -3.4833779e-03 
-1.9201500e-02 -1.3814122e-02 1.6269960e-03 
-1.8455150e-02 -1.3523352e-02 1.0945302e-03 
-1.8475555e-02 -1.3917515e-02 6.0092732e-03 
-1.8229621e-02 -1.3229468e-02 8.5512082e-05 
-1.8034967e-02 -1.3402092e-02 2.3825224e-03 
-1.8963890e-02 -1.3892795e-02 -7.4263313e-04 
-1.8731596e-02 -1.3651310e-02 9.2470937e-04 
-1.8906608e-02 -1.4039205e-02 -2.6614419e-03 
-1.8239044e-02 -1.3771144e-02 5.2813995e-03 
-1.8611586e-02 -1.3878123e-02 6.6969944e-03 
-1.8699341e-02 -1.3300355e-02 -3.5527977e-03 
-1.8862844e-02 -1.3747167e-02 5.0895915e-06 
-1.8042883e-02 -1.3603615e-02 4.3698843e-03 
-1.8863361e-02 -1.3746127e-02 6.2001133e-03 
-1.8852042e-02 -1.3504596e-02 -4.8835538e-03 
-1.8769177e-02 -1.3725935e-02 -2.1502164e-03 
-1.8580098e-02 -1.3650972e-02 4.4641206e-03 
-1.8172607e-02 -1.3059588e-02 -1.0430702e-03 
-1.8340988e-02 -1.3078524e-02 -2.1770534e-03 
-1.8770114e-02 -1.3788570e-02 -1.5091032e-03 
-1.7871980e-02 -1.3395524e-02 3.3268796e-03 
-1.8798562e-02 -1.3636725e-02 8.0496096e-04 
-1.8293429e-02 -1.3112037e-02 -2.2990389e-03 
-1.8170008e-02 -1.3204627e-02 -1.9713449e-04 
-1.8523240e-02 -1.3321569e-02 2.9293136e-03 
-1.7616503e-02 -1.3138957e-02 2.8466519e-03 
-1.8229641e-02 -1.3514973e-02 -4.7969315e-03 
-1.7714521e-02 -1.3112654e-02 2.5274425e-03 
-1.8105621e-02 -1.3220163e-02 3.7165456e-03 
-1.8182656e-02 -1.3235872e-02 5.3005776e-04 
-1.7776199e-02 -1.3253962e-02 5.1471358e-03 
-1.8052984e-02 -1.3353345e-02 -1.3698344e-03 
-1.7465742e-02 -1.3119237e-02 4.0353816e-03 
-1.7934466e-02 -1.3281802e-02 6.5140389e-03 
-1.7979413e-02 -1.2824834e-02 -4.1658534e-03 
-1.7365457e-02 -1.2672541e-02 2.6976113e-05 
-1.7410079e-02 -1.2607941e-02 -9.4827206e-04 
-1.7682683e-02 -1.2798473e-02 -2.8256844e-03 
-1.7341891e-02 -1.3114526e-02 6.1149010e-03 
-1.6866852e-02 -1.2478600e-02 1.2337901e-03 
-1.7124863e-02 -1.3021794e-02 5.5298470e-03 
-1.6928351e-02 -1.2875468e-02 4.7451071e-03 
-1.7024096e-02 -1.2703716e-02 2.7496342e-03 
-1.6755940e-02 -1.2688775e-02 3.8275018e-03 
-1.6834222e-02 -1.2258885e-02 -2.7907192e-04 
-1.7009854e-02 -1.2241847e-02 -1.5261930e-03 
-1.7144155e-02 -1.2274091e-02 -2.5171856e-03 
-1.7577220e-02 -1.2729950e-02 1.5262401e-03 
-1.6600629e-02 -1.2475345e-02 2.7837805e-03 
-1.7408052e-02 -1.2665998e-02 -3.9486396e-03 
-1.7363014e-02 -1.2727422e-02 8.0462318e-04 
-1.7382234e-02 -1.2827455e-02 -7.9794135e-04 
-1.7338468e-02 -1.2982504e-02 -2.6819149e-03 
-1.7057691e-02 -1.2620536e-02 2.5012640e-03 
-1.7278198e-02 -1.2693977e-02 -1.2563067e-04 
-1.7021181e-02 -1.2821784e-02 6.3888850e-03 
-1.6785655e-02 -1.2651348e-02 4.5298836e-03 
-1.7078392e-02 -1.2210786e-02 -3.3604924e-03 
-1.7252050e-02 -1.2684795e-02 5.9289127e-03 
-1.7019125e-02 -1.2468785e-02 -1.2078708e-03 
-1.6922209e-02 -1.2254847e-02 -2.4462743e-03 
-1.6379315e-02 -1.2253040e-02 2.4047003e-03 
-1.7055051e-02 -1.2835651e-02 -3.7074825e-03 
-1.6778802e-02 -1.2319058e-02 -1.8742296e-04 
-1.7081430e-02 -1.2300770e-02 -4.5710807e-03 
-1.7012978e-02 -1.2502487e-02 6.0618528e-05 
-1.6937027e-02 -1.2533986e-02 -1.4658485e-03 
-1.6538046e-02 -1.2188490e-02 5.5820937e-04 
-1.6410673e-02 -1.2064187e-02 3.1083979e-04 
-1.6791455e-02 -1.2384094e-02 -3.5568308e-03 
-1.6101992e-02 -1.1849955e-02 3.5611651e-04 
-1.6648421e-02 -1.2201811e-02 4.3983603e-04 
-1.6282450e-02 -1.2383187e-02 6.1438000e-03 
-1.6290786e-02 -1.1824024e-02 -1.7608613e-03 
-1.6522149e-02 -1.2330963e-02 -1.4266944e-03 
-1.6675809e-02 -1.2159234e-02 4.8813671e-03 
-1.6058946e-02 -1.2278120e-02 5.6603295e-03 
-1.6159903e-02 -1.2102743e-02 3.1224175e-03 
-1.6217425e-02 -1.2213855e-02 5.0389534e-03 
-1.6397001e-02 -1.2283481e-02 6.2308917e-03 
-1.5872927e-02 -1.2157309e-02 5.0623710e-03 
-1.6401589e-02 -1.1787677e-02 -3.9624874e-03 
-1.6291998e-02 -1.2018332e-02 1.3304529e-03 
-1.6324116e-02 -1.2110793e-02 4.2616972e-03 
-1.5684195e-02 -1.1996162e-02 4.2400565e-03 
-1.6467439e-02 -1.2058806e-02 -4.9304669e-03 
-1.5620835e-02 -1.1500790e-02 1.7985704e-04 
-1.5743727e-02 -1.1467078e-02 -8.4020413e-04 
-1.5532662e-02 -1.1817141e-02 3.2743481e-03 
-1.5407514e-02 -1.1621308e-02 2.2308386e-03 
-1.5815834e-02 -1.1418919e-02 -2.0063892e-03 
-1.5745673e-02 -1.1933142e-02 4.6501886e-03 
-1.5433908e-02 -1.1710766e-02 3.6098917e-03 
-1.5824614e-02 -1.1981689e-02 -2.6840793e-03 
-1.5919030e-02 -1.1785011e-02 5.7489406e-03 
-1.5722627e-02 -1.1504745e-02 -2.4176957e-03 
-1.5797127e-02 -1.1698851e-02 -2.3226543e-04 
-1.5897753e-02 -1.1624090e-02 1.2383985e-03 
-1.5533047e-02 -1.1807726e-02 6.1279852e-03 
-1.5421626e-02 -1.1389567e-02 2.3741723e-05 
-1.5555600e-02 -1.1196723e-02 -3.1593933e-03 
-1.5734855e-02 -1.1724187e-02 -9.6725626e-04 
-1.5736623e-02 -1.1420551e-02 -4.4821841e-03 
-1.5692810e-02 -1.1526201e-02 1.1678563e-03 
-1.5432063e-02 -1.1237602e-02 -2.3552277e-03 
-1.5022079e-02 -1.1091680e-02 4.4518823e-05 
-1.4897919e-02 -1.1282036e-02 2.4085841e-03 
-1.5541381e-02 -1.1478496e-02 6.7551830e-04 
-1.5006018e-02 -1.1006922e-02 -9.0908934e-04 
-1.5066917e-02 -1.1567674e-02 5.7652770e-03 
-1.4873798e-02 -1.1459452e-02 5.2466793e-03 
-1.5493825e-02 -1.1287800e-02 2.6554589e-03 
-1.5376407e-02 -1.1332900e-02 -3.5996006e-03 
-1.4693310e-02 -1.1339244e-02 4.5618936e-03 
-1.5279530e-02 -1.1362305e-02 -2.3452312e-04 
-1.5217209e-02 -1.1339086e-02 -1.2255422e-03 
-1.5321623e-02 -1.1552751e-02 -4.5832898e-03 
-1.4518186e-02 -1.1186447e-02 3.7150767e-03 
-1.4540973e-02 -1.0736563e-02 -1.3397048e-04 
-1.5204847e-02 -1.1232628e-02 3.5087822e-04 
-1.4699050e-02 -1.0710269e-02 -1.3018980e-03 
-1.4375612e-02 -1.0986354e-02 2.7318124e-03 
-1.5080697e-02 -1.1373540e-02 -1.4890463e-03 
-1.4769390e-02 -1.0694726e-02 -2.2577632e-03 
-1.4565324e-02 -1.0900522e-02 1.0163130e-03 
-1.4783287e-02 -1.1227094e-02 4.8586153e-03 
-1.4968132e-02 -1.1271596e-02 5.9469240e-03 
-1.4943972e-02 -1.0799651e-02 -3.7469496e-03 
-1.4989776e-02 -1.1114744e-02 -2.2026545e-03 
-1.4219115e-02 -1.0683129e-02 1.1824321e-03 
-1.4586482e-02 -1.1137384e-02 4.3641618e-03 
-1.4773476e-02 -1.1064230e-02 2.7732113e-03 
-1.4912576e-02 -1.1085078e-02 3.4055049e-03 
-1.4673264e-02 -1.0739671e-02 -1.6376275e-03 
-1.4844198e-02 -1.1009365e-02 1.7048882e-03 
-1.4286430e-02 -1.0924062e-02 3.1909088e-03 
-1.4754189e-02 -1.0810548e-02 -3.0377519e-03 
-1.4692319e-02 -1.0909444e-02 -3.4225278e-04 
-1.4672365e-02 -1.0776049e-02 1.3079916e-03 
-1.4418193e-02 -1.0781738e-02 -3.3545366e-04 
-1.3866361e-02 -1.0350022e-02 3.8480564e-04 
-1.4315744e-02 -1.0907643e-02 -2.5160667e-03 
-1.4137122e-02 -1.0839018e-02 5.8422238e-03 
-1.3933479e-02 -1.0796629e-02 5.3692004e-03 
-1.4175960e-02 -1.0245548e-02 -2.9813300e-03 
-1.4342974e-02 -1.0711726e-02 5.3820009e-03 
-1.3841206e-02 -1.0474097e-02 2.0214294e-03 
-1.3740070e-02 -1.0691144e-02 4.8044184e-03 
-1.3880344e-02 -1.0526685e-02 2.8956512e-03 
-1.4049204e-02 -1.0290368e-02 -2.2681800e-03 
-1.3562527e-02 -1.0541443e-02 4.0614186e-03 
-1.4223998e-02 -1.0598829e-02 1.3837405e-04 
-1.4207130e-02 -1.0339725e-02 -4.1713794e-03 
-1.3415694e-02 -1.0378335e-02 3.1992015e-03 
-1.3584783e-02 -1.0011515e-02 -6.5870985e-04 
-1.3721392e-02 -1.0007541e-02 -1.6870821e-03 
-1.3890591e-02 -1.0323952e-02 -8.6277263e-04 
-1.3660533e-02 -1.0215337e-02 4.1915744e-04 
-1.3775666e-02 -1.0256822e-02 -2.5672215e-04 
-1.3305468e-02 -1.0195972e-02 2.2382189e-03 
-1.3991063e-02 -1.0595349e-02 -1.9468938e-03 
-1.3352214e-02 -9.9692382e-03 2.7793003e-04 
-1.3675100e-02 -1.0484383e-02 4.6076691e-03 
-1.3383362e-02 -1.0250407e-02 2.6730909e-03 
-1.3474804e-02 -1.0382084e-02 4.0269517e-03 
-1.3843610e-02 -1.0613938e-02 -3.6824103e-03 
-1.3878115e-02 -1.0337183e-02 2.7468032e-04 
-1.3885761e-02 -1.0449057e-02 -3.3165489e-03 
-1.3336550e-02 -1.0270005e-02 3.4659756e-03 
-1.3768287e-02 -1.0455519e-02 -1.5376642e-03 
-1.3101417e-02 -9.9886032e-03 1.9539609e-03 
-1.3605520e-02 -1.0350741e-02 5.6853201e-03 
-1.3615392e-02 -9.8743113e-03 -3.5497183e-03 
-1.3520791e-02 -1.0189638e-02 3.9185602e-03 
-1.3615867e-02 -1.0065809e-02 -3.6801465e-03 
-1.3722062e-02 -1.0122132e-02 4.2886334e-03 
-1.3658225e-02 -1.0128645e-02 -4.5848554e-03 
-1.3533578e-02 -1.0241936e-02 -1.9082287e-03 
-1.3397632e-02 -1.0054569e-02 -3.6629044e-06 
-1.3409024e-02 -9.8725790e-03 -2.6973290e-03 
-1.2953527e-02 -9.6679498e-03 6.8875641e-05 
-1.3411474e-02 -1.0018076e-02 6.6893682e-04 
-1.3191748e-02 -9.9550774e-03 1.7998747e-03 
-1.3279896e-02 -9.8961825e-03 -1.6228595e-03 
-1.3115366e-02 -9.6725468e-03 -1.5073862e-03 
-1.3031923e-02 -1.0144731e-02 5.4151011e-03 
-1.3334665e-02 -9.9489801e-03 3.8706607e-03 
-1.2848452e-02 -1.0055609e-02 4.9530696e-03 
-1.3186961e-02 -9.9138105e-03 1.7802775e-03 
-1.2678384e-02 -9.9434480e-03 4.3413523e-03 
-1.3168721e-02 -1.0139819e-02 -2.6687169e-03 
-1.3168912e-02 -9.8584639e-03 -2.4502364e-03 
-1.3178314e-02 -9.9531841e-03 -7.0705125e-04 
-1.3143026e-02 -9.9000987e-03 -4.1858645e-04 
-1.3225183e-02 -9.8193074e-03 1.0483696e-03 
-1.2512633e-02 -9.7954022e-03 3.5759835e-03 
-1.3198042e-02 -9.9237375e-03 5.2182595e-03 
-1.2518462e-02 -9.3440767e-03 -2.3009231e-06 
-1.2605685e-02 -9.4932178e-03 5.9123291e-04 
-1.2663184e-02 -9.3149161e-03 -1.1071253e-03 
-1.2785379e-02 -9.3323179e-03 -2.0040425e-03 
-1.2602016e-02 -9.6028997e-03 1.6296859e-03 
-1.2334825e-02 -9.5782420e-03 2.6175994e-03 
-1.2853003e-02 -9.9367546e-03 5.5742678e-03 
-1.2882425e-02 -9.3757492e-03 -2.8034577e-03 
-1.3037072e-02 -9.5465761e-03 -4.0591499e-03 
-1.2804709e-02 -9.7709214e-03 4.1680373e-03 
-1.2591681e-02 -9.7514717e-03 4.1422020e-03 
-1.2866078e-02 -9.6885301e-03 -7.0620736e-04 
-1.2626840e-02 -9.6536893e-03 3.2845368e-03 
-1.2310417e-02 -9.5583163e-03 3.0841285e-03 
-1.2883590e-02 -9.4931992e-03 2.4190741e-03 
-1.2181588e-02 -9.4075399e-03 2.3519949e-03 
-1.2144742e-02 -9.2767691e-03 1.3971403e-03 
-1.2000821e-02 -9.1536539e-03 1.1311581e-03 
-1.2301577e-02 -9.1480203e-03 -7.3538005e-04 
-1.2687129e-02 -9.5272241e-03 3.5046405e-04 
-1.2730174e-02 -9.7603016e-03 -4.3487237e-03 
-1.2628110e-02 -9.4678570e-03 2.1587728e-04 
-1.2529493e-02 -9.6090492e-03 -1.5672616e-03 
-1.2232195e-02 -9.4876336e-03 4.8004673e-03 
-1.2383954e-02 -9.4775474e-03 -1.7204252e-03 
-1.2355633e-02 -9.4544059e-03 5.3855660e-03 
-1.2357522e-02 -9.0182507e-03 -3.3856689e-03 
-1.2017883e-02 -9.4511928e-03 5.0466782e-03 
-1.1836641e-02 -9.3437387e-03 4.5509986e-03 
-1.1673133e-02 -9.2160152e-03 3.8742064e-03 
-1.1722037e-02 -8.7477146e-03 -4.5583796e-04 
-1.1920905e-02 -8.9461198e-03 -3.9749674e-04 
-1.2176374e-02 -9.0645095e-03 -2.7507062e-03 
-1.1533252e-02 -9.0678604e-03 3.1036125e-03 
-1.1925796e-02 -8.7999590e-03 -1.7842178e-03 
-1.2116559e-02 -9.2336144e-03 -8.6018076e-04 
-1.1424118e-02 -8.8960566e-03 2.2195273e-03 
-1.2161412e-02 -9.0525961e-03 1.1584432e-03 
-1.1742966e-02 -8.6533017e-03 -1.5222671e-03 
-1.2097319e-02 -9.0714851e-03 1.3957128e-03 
-1.1813392e-02 -8.9521687e-03 4.9668294e-04 
-1.1941089e-02 -9.0647722e-03 -4.7427847e-04 
-1.1346016e-02 -8.6968653e-03 1.1256911e-03 
-1.1875737e-02 -8.9722667e-03 1.3158097e-03 
-1.1843739e-02 -9.2023462e-03 -2.4944551e-03 
-1.1754161e-02 -8.9813685e-03 3.6504900e-03 
-1.1343013e-02 -8.6140996e-03 4.9661734e-04 
-1.1663287e-02 -9.0821963e-03 5.3125117e-03 
-1.1666107e-02 -8.5330112e-03 -2.6338368e-03 
-1.1497878e-02 -8.8635599e-03 2.5490115e-03 
-1.1865593e-02 -8.9569921e-03 4.8771366e-03 
-1.1749029e-02 -8.8595496e-03 2.6320349e-04 
-1.1270254e-02 -8.8337921e-03 3.5806764e-03 
-1.1563252e-02 -8.7436019e-03 -8.8205584e-04 
-1.1735721e-02 -8.6338008e-03 -3.7962806e-03 
-1.1588479e-02 -8.5906740e-03 -2.3986928e-03 
-1.1024621e-02 -8.5479785e-03 1.7567163e-03 
-1.1043387e-02 -8.6130658e-03 2.3703484e-03 
-1.1537536e-02 -8.8646682e-03 -1.4728238e-03 
-1.1478130e-02 -8.6668283e-03 1.5300755e-04 
-1.1471075e-02 -8.9772893e-03 -3.5307007e-03 
-1.1119475e-02 -8.3349850e-03 -7.1238744e-04 
-1.1371219e-02 -8.8021066e-03 -1.5909598e-03 
-1.0760707e-02 -8.4006190e-03 1.9170875e-03 
-1.1048948e-02 -8.7746838e-03 4.6809618e-03 
-1.1427192e-02 -8.8196816e-03 -2.5855759e-03 
-1.0885246e-02 -8.6715491e-03 4.1149640e-03 
-1.1107421e-02 -8.7627890e-03 5.0383522e-03 
-1.0742078e-02 -8.5433098e-03 3.4285507e-03 
-1.0895432e-02 -8.4118489e-03 1.8179386e-03 
-1.0618913e-02 -8.3855214e-03 2.6343598e-03 
-1.1019841e-02 -8.5836602e-03 4.0697902e-03 
-1.0689379e-02 -8.0969203e-03 9.4636212e-05 
-1.1213397e-02 -8.6369086e-03 5.1382310e-03 
-1.0811059e-02 -8.0641527e-03 -9.0988952e-04 
-1.0951594e-02 -8.0810990e-03 -1.7844603e-03 
-1.1195572e-02 -8.2147624e-03 -3.1990483e-03 
-1.1268958e-02 -8.4395697e-03 3.9295368e-03 
-1.1242555e-02 -8.4314281e-03 -4.2663384e-03 
-1.0979652e-02 -8.1729814e-03 -1.8391366e-03 
-1.1117100e-02 -8.4388079e-03 2.9854074e-03 
-1.0722311e-02 -8.1841135e-03 5.7663029e-04 
-1.0766245e-02 -8.4551768e-03 3.9583198e-03 
-1.0993579e-02 -8.4433593e-03 -8.2289008e-04 
-1.0551663e-02 -8.3131976e-03 2.9854127e-03 
-1.0756530e-02 -8.2651973e-03 2.3048888e-03 
-1.0920678e-02 -8.2134372e-03 -2.5336007e-03 
-1.0736865e-02 -8.1256311e-03 -8.2123169e-04 
-1.0849096e-02 -8.5218679e-03 -2.6130534e-03 
-1.0898449e-02 -8.3125187e-03 -2.7888356e-04 
-1.0897224e-02 -8.2930438e-03 -2.8121001e-03 
-1.0821760e-02 -8.2923723e-03 -5.3716049e-04 
-1.0451196e-02 -7.9484312e-03 1.2666648e-04 
-1.0917837e-02 -8.2025826e-03 9.3409774e-04 
-1.0322775e-02 -8.0309911e-03 1.6259316e-03 
-1.0163235e-02 -7.8628017e-03 1.0855880e-03 
-1.0802750e-02 -8.1689926e-03 2.5599906e-03 
-1.0791376e-02 -8.1106434e-03 1.1495204e-03 
-1.0547339e-02 -8.2918284e-03 5.0505027e-03 
-1.0532189e-02 -7.7533256e-03 -2.4544625e-03 
-1.0742880e-02 -8.1654945e-03 4.6514859e-03 
-1.0695424e-02 -7.9278052e-03 -3.7334664e-03 
-1.0520740e-02 -8.1478078e-03 3.8261474e-03 
-1.0294761e-02 -8.2067354e-03 4.7273538e-03 
-1.0133662e-02 -8.1254924e-03 4.2965640e-03 
-1.0447487e-02 -7.9681175e-03 9.9025574e-04 
-1.0307978e-02 -7.7056149e-03 -1.3678169e-03 
-1.0651317e-02 -7.9259826e-03 2.2283923e-03 
-1.0485442e-02 -8.0166366e-03 -7.0883054e-04 
-1.0482645e-02 -8.0058379e-03 -6.9427326e-05 
-9.9892113e-03 -8.0125360e-03 3.6936409e-03 
-9.8670600e-03 -7.8831874e-03 2.9860032e-03 
-1.0492963e-02 -8.1619341e-03 -4.0847645e-03 
-1.0382502e-02 -7.9052635e-03 9.3368391e-05 
-1.0288257e-02 -8.0390628e-03 -1.5970289e-03 
-9.9183498e-03 -7.4901539e-03 -3.5982847e-04 
-9.7563546e-03 -7.7212076e-03 2.1912807e-03 
-1.0042137e-02 -7.4797915e-03 -1.2484594e-03 
-1.0383969e-02 -7.8630568e-03 1.2841804e-03 
-1.0329086e-02 -7.8806141e-03 7.5922749e-04 
-1.0272665e-02 -7.6867486e-03 -2.3574235e-03 
-9.7104236e-03 -7.5471038e-03 1.1532530e-03 
-9.8534124e-03 -7.6903817e-03 1.7220343e-03 
-9.8989671e-03 -7.5787283e-03 1.0560497e-04 
-9.9821361e-03 -7.6753483e-03 9.5788937e-04 
-9.7391335e-03 -7.4996226e-03 6.3778710e-04 
-9.6932640e-03 -7.6796417e-03 2.6364413e-03 
-1.0128644e-02 -7.8631761e-03 4.8708012e-03 
-1.0091505e-02 -7.4354564e-03 -3.0188919e-03 
-1.0047252e-02 -7.7181533e-03 3.3753079e-03 
-9.6638901e-03 -7.3477672e-03 -2.2870163e-04 
-9.7669885e-03 -7.7357655e-03 3.7713689e-03 
-9.9842278e-03 -7.7453363e-03 -1.2925799e-03 
-9.9496981e-03 -7.6886211e-03 -7.5636612e-04 
-9.6163535e-03 -7.6534427e-03 3.4082902e-03 
-9.9327620e-03 -7.6662875e-03 -1.1396430e-03 
-9.9885250e-03 -7.5291344e-03 1.0146762e-03 
-9.3919020e-03 -7.3891636e-03 1.7403268e-03 
-9.7851064e-03 -7.5569591e-03 -5.9046841e-04 
-9.6061751e-03 -7.6696011e-03 4.7170161e-03 
-9.7127073e-03 -7.6905885e-03 -2.4223931e-03 
-9.4348947e-03 -7.6067741e-03 4.3755458e-03 
-9.1322875e-03 -7.2402381e-03 1.8602794e-03 
-9.6768262e-03 -7.3905550e-03 -1.2355864e-03 
-9.5022665e-03 -7.1521876e-03 -1.2877225e-03 
-9.7405110e-03 -7.5981934e-03 -3.2130887e-03 
-9.2740329e-03 -7.5079636e-03 3.8879109e-03 
-9.4310809e-03 -7.3989788e-03 2.4277612e-03 
-9.5670810e-03 -7.2942846e-03 -9.2452834e-04 
-9.6679963e-03 -7.3943837e-03 1.7135167e-04 
-9.1474941e-03 -7.3915753e-03 3.2777910e-03 
-9.5272092e-03 -7.5353649e-03 4.8095323e-03 
-9.4954437e-03 -7.0252386e-03 -2.3152004e-03 
-9.6945418e-03 -7.4224053e-03 4.4241967e-03 
-9.0390872e-03 -7.2514568e-03 2.5504651e-03 
-9.0717115e-03 -6.9618630e-03 1.8787089e-04 
-9.1744447e-03 -6.9224187e-03 -7.3178945e-04 
-9.2867771e-03 -6.9175721e-03 -1.5461656e-03 
-9.5646866e-03 -7.0916424e-03 -3.4419335e-03 
-9.4235241e-03 -7.0709288e-03 -2.1912456e-03 
-9.6366415e-03 -7.2584641e-03 3.6255007e-03 
-9.2761489e-03 -7.3451046e-03 3.8234759e-03 
-9.5328735e-03 -7.1907016e-03 1.5244351e-03 
-9.4352355e-03 -7.1307439e-03 -2.4911065e-03 
-9.3786065e-03 -7.1913097e-03 4.6360772e-05 
-9.3944371e-03 -7.4717361e-03 -3.3647988e-03 
-9.2943292e-03 -7.3236935e-03 -1.5843047e-03 
-9.1423970e-03 -7.1532940e-03 2.9092005e-03 
-9.3528535e-03 -7.0847240e-03 2.0073422e-03 
-8.9392252e-03 -6.7937202e-03 -5.7175930e-04 
-9.1605233e-03 -7.0589697e-03 1.0032650e-04 
-8.8243354e-03 -7.0702923e-03 3.0991631e-03 
-8.5969623e-03 -6.7369081e-03 1.0270908e-03 
-8.7174457e-03 -6.9786245e-03 2.5891634e-03 
-8.6546494e-03 -6.8874746e-03 1.9905292e-03 
-9.1366358e-03 -7.1501350e-03 4.6583046e-03 
-9.0841157e-03 -6.7297802e-03 -2.8405825e-03 
-8.8148070e-03 -7.0413137e-03 3.3907744e-03 
-9.0682423e-03 -6.9516646e-03 2.0491509e-03 
-9.2013888e-03 -6.9700941e-03 -3.9099352e-03 
-9.0503609e-03 -7.0010214e-03 3.2415441e-03 
-8.9898938e-03 -7.0004351e-03 -6.9824251e-04 
-8.8263033e-03 -7.1147955e-03 4.4834451e-03 
-8.5570700e-03 -6.6966643e-03 9.9532132e-04 
-8.6243693e-03 -7.0201745e-03 4.0141759e-03 
-8.8554006e-03 -7.0778197e-03 -2.5224001e-03 
-8.4834388e-03 -6.9218343e-03 3.4917896e-03 
-8.8226749e-03 -6.8750517e-03 -6.2356523e-04 
-8.3552320e-03 -6.7140879e-03 2.1194152e-03 
-8.5442793e-03 -6.7211287e-03 1.4476904e-03 
-8.9133475e-03 -6.7751775e-03 7.9356780e-04 
-8.8576023e-03 -6.8626055e-03 -1.5539653e-03 
-8.3610099e-03 -6.7986320e-03 2.8643811e-03 
-8.3869575e-03 -6.4059156e-03 -2.3691122e-04 
-8.5975118e-03 -6.4630900e-03 -1.4154821e-03 
-8.4977811e-03 -6.3849627e-03 -1.0624885e-03 
-8.8025378e-03 -6.6936589e-03 1.1134731e-03 
-8.4621366e-03 -6.7276699e-03 2.4013063e-03 
-8.6857891e-03 -6.8323053e-03 -1.3203277e-03 
-8.4859375e-03 -6.5073390e-03 -2.5129708e-04 
-8.6791124e-03 -6.6754036e-03 -2.7116030e-03 
-8.5501438e-03 -6.8418132e-03 4.5676623e-03 
-8.5432269e-03 -6.3413233e-03 -2.1543626e-03 
-8.6152442e-03 -6.6579822e-03 2.7251689e-04 
-8.6038588e-03 -6.4849728e-03 -2.2402571e-03 
-8.7378463e-03 -6.7144223e-03 4.2035491e-03 
-8.6986385e-03 -6.4848559e-03 -3.3730993e-03 
-8.4162271e-03 -6.7204037e-03 3.6558094e-03 
-8.6519979e-03 -6.5185018e-03 1.9967780e-03 
-8.5669551e-03 -6.6144182e-03 -6.5102658e-06 
-8.3130989e-03 -6.4938306e-03 1.2040499e-03 
-8.1760930e-03 -6.2724710e-03 -1.9443207e-04 
-8.4545463e-03 -6.5247812e-03 7.2019079e-06 
-8.5533373e-03 -6.7511820e-03 -3.7872558e-03 
-8.3650639e-03 -6.6529294e-03 -1.5664166e-03 
-8.4159141e-03 -6.5214853e-03 -1.0299058e-04 
-8.4116599e-03 -6.6218949e-03 -1.9496296e-03 
-8.2743140e-03 -6.4592813e-03 2.0737580e-03 
-8.2386527e-03 -6.5060589e-03 3.4620764e-03 
-7.8869537e-03 -6.2113293e-03 9.5864403e-04 
-7.8703035e-03 -6.3276105e-03 2.1369816e-03 
-8.0016265e-03 -6.5433709e-03 4.0902440e-03 
-8.1860106e-03 -6.2934021e-03 -1.2277521e-03 
-8.0839945e-03 -6.5512685e-03 4.3656174e-03 
-7.8608366e-03 -6.4683487e-03 3.6639215e-03 
-8.2116127e-03 -6.4580557e-03 4.4000051e-03 
-7.7316700e-03 -6.3606147e-03 3.1094539e-03 
-8.1738476e-03 -6.0616392e-03 -2.6888887e-03 
-8.0001364e-03 -6.3308426e-03 2.4627978e-03 
-8.0968924e-03 -6.3491971e-03 -6.5886951e-04 
-7.6267454e-03 -6.2305918e-03 2.4668223e-03 
-8.0067907e-03 -6.0465746e-03 -1.6023145e-03 
-7.8097759e-03 -6.0757007e-03 3.8104563e-04 
-8.1179794e-03 -6.1841295e-03 8.9544774e-04 
-7.6343627e-03 -5.9378911e-03 2.5624142e-04 
-7.5490745e-03 -6.0831537e-03 1.7495594e-03 
-7.7366186e-03 -5.8900318e-03 -5.9651153e-04 
-7.8386301e-03 -5.8831391e-03 -1.3362465e-03 
-7.9377471e-03 -6.2347432e-03 -6.5708783e-04 
-7.9408148e-03 -6.1915726e-03 -1.0389003e-03 
-7.6934239e-03 -6.2394347e-03 3.1488677e-03 
-7.8774150e-03 -6.3371914e-03 -2.3211846e-03 
-7.9593202e-03 -6.1676330e-03 2.6066515e-03 
-7.8465547e-03 -6.0798004e-03 8.6239597e-05 
-7.5850985e-03 -6.1628199e-03 2.7366595e-03 
-7.4463217e-03 -5.9793089e-03 1.6638180e-03 
-7.6885726e-03 -6.1845230e-03 3.5367284e-03 
-7.8414688e-03 -6.0552075e-03 2.6703853e-04 
-7.4612931e-03 -5.7896120e-03 5.8343852e-05 
-7.8297881e-03 -6.0012601e-03 1.8598539e-03 
-7.2619854e-03 -5.7749562e-03 9.9037087e-04 
-7.6444359e-03 -5.6876121e-03 -2.0260245e-03 
-7.6729585e-03 -6.1726980e-03 4.3311943e-03 
-7.6895943e-03 -5.9876745e-03 8.5000606e-04 
-7.8488840e-03 -6.0649663e-03 4.0088617e-03 
-7.6261656e-03 -6.0523897e-03 -1.4233087e-03 
-7.7474108e-03 -6.0371095e-03 -3.8204312e-03 
-7.7734250e-03 -5.9100036e-03 3.2983655e-03 
-7.7028926e-03 -5.7485751e-03 -3.0993517e-03 
-7.3891906e-03 -5.9169512e-03 2.0980614e-03 
-7.5865965e-03 -5.8929133e-03 -2.6995180e-05 
-7.5889155e-03 -5.7365564e-03 -2.0235167e-03 
-7.6034092e-03 -6.1424999e-03 -3.1721408e-03 
-7.4275029e-03 -6.0781674e-03 4.1347374e-03 
-7.5153778e-03 -6.0177655e-03 -1.5519097e-03 
-7.3457160e-03 -5.6081726e-03 -8.2335545e-04 
-7.2802524e-03 -6.0149245e-03 3.7631844e-03 
-7.1514086e-03 -5.9292745e-03 3.2928726e-03 
-7.3412647e-03 -5.6606261e-03 -6.7192648e-04 
-7.0140553e-03 -5.7286499e-03 2.0270152e-03 
-7.0376652e-03 -5.8172876e-03 2.7388884e-03 
-7.4142120e-03 -5.8479020e-03 -2.0005060e-03 
-6.9828592e-03 -5.5216528e-03 6.8906875e-04 
-7.0245592e-03 -5.4279887e-03 -1.3702879e-04 
-7.4240412e-03 -5.6588044e-03 -2.6664936e-03 
-7.1230065e-03 -5.4030390e-03 -9.0153678e-04 
-7.2188866e-03 -5.4022972e-03 -1.5876805e-03 
-7.2731287e-03 -5.7225758e-03 -5.9846265e-04 
-6.9820494e-03 -5.5255261e-03 8.3888951e-04 
-7.2996593e-03 -5.4207528e-03 -2.5213996e-03 
-7.3371446e-03 -5.8152801e-03 4.1694590e-03 
-7.2082356e-03 -5.7210322e-03 2.7140230e-03 
-7.1407417e-03 -5.4027154e-03 -1.3613710e-03 
-7.3996936e-03 -5.6296554e-03 -3.5720305e-03 
-7.2542331e-03 -5.6873756e-03 2.9562104e-03 
-6.9081574e-03 -5.6461524e-03 2.4385671e-03 
-7.1284110e-03 -5.7929312e-03 -2.3821262e-03 
-7.1162200e-03 -5.6224028e-03 -6.7547639e-04 
-7.0585548e-03 -5.5695963e-03 1.2464520e-03 
-7.1751210e-03 -5.5278777e-03 6.7660917e-04 
-7.1771629e-03 -5.5780816e-03 -2.4614946e-03 
-6.9477935e-03 -5.4624751e-03 4.9321074e-04 
-7.0376266e-03 -5.4881643e-03 -5.8543199e-05 
-6.8805581e-03 -5.6246403e-03 3.0215851e-03 
-6.9879768e-03 -5.3966623e-03 -1.5388931e-03 
-6.7020245e-03 -5.2241264e-03 9.2387585e-05 
-7.0004426e-03 -5.4711187e-03 5.5106699e-05 
-6.7418232e-03 -5.5866768e-03 3.8098148e-03 
-6.5236297e-03 -5.1059849e-03 2.1752031e-04 
-6.8085664e-03 -5.0849407e-03 -1.8939463e-03 
-6.6044522e-03 -5.5126776e-03 3.4189932e-03 
-6.8523404e-03 -5.5538160e-03 4.0999055e-03 
-6.9882236e-03 -5.3021619e-03 1.8245451e-03 
-6.9500138e-03 -5.2050436e-03 -3.0173974e-03 
-6.9908826e-03 -5.4321340e-03 3.7715402e-03 
-6.4856331e-03 -5.4170424e-03 2.9414934e-03 
-6.7935800e-03 -5.3111231e-03 -5.3495813e-05 
-6.3824202e-03 -5.2975388e-03 2.3731904e-03 
-6.8793083e-03 -5.5325474e-03 -3.5462005e-03 
-6.7154923e-03 -5.4235724e-03 -1.5290210e-03 
-6.7480197e-03 -5.3143748e-03 -3.1727660e-04 
-6.3108490e-03 -5.1715369e-03 1.7110312e-03 
-6.4605204e-03 -4.9589719e-03 -4.6477179e-04 
-6.6685979e-03 -5.2481061e-03 1.4879069e-03 
-6.6943523e-03 -5.4076621e-03 -2.1361427e-03 
-6.6730096e-03 -5.0624232e-03 -1.7724235e-03 
-6.5269116e-03 -4.9166195e-03 -1.2975425e-03 
-6.6101733e-03 -5.1903641e-03 -1.1154128e-03 
-6.6906540e-03 -5.1453141e-03 1.7402838e-03 
-6.2816269e-03 -5.1550320e-03 2.1439327e-03 
-6.6418536e-03 -5.1519079e-03 2.3772463e-03 
-6.5419469e-03 -5.2584144e-03 3.3806472e-03 
-6.1408593e-03 -4.9267407e-03 9.3596580e-04 
-6.2020286e-03 -5.0553395e-03 1.6180713e-03 
-6.5041673e-03 -5.1557082e-03 -5.6209363e-04 
-6.3497359e-03 -5.1248316e-03 1.9437537e-03 
-6.5085050e-03 -4.8517897e-03 -2.3764546e-03 
-6.3191070e-03 -5.1749907e-03 3.0045498e-03 
-6.5567470e-03 -5.2217809e-03 3.9491113e-03 
-6.4433240e-03 -5.1675616e-03 -1.1901072e-03 
-6.2584537e-03 -4.8293350e-03 -4.5535230e-04 
-6.5026386e-03 -5.0130188e-03 7.7290763e-04 
-6.3186800e-03 -4.8131361e-03 -1.2832574e-03 
-6.1834380e-03 -4.8840903e-03 4.4526486e-04 
-6.3524325e-03 -5.0668353e-03 -6.9569895e-04 
-6.2972540e-03 -5.1746210e-03 -2.2000198e-03 
-6.3602612e-03 -5.0266264e-03 2.8254504e-03 
-5.9756101e-03 -4.8109652e-03 1.0294558e-03 
-6.0614552e-03 -4.8814244e-03 1.2925781e-03 
-6.0897674e-03 -5.1012631e-03 3.5075480e-03 
-6.2112897e-03 -4.8269471e-03 -5.7642453e-04 
-6.1674067e-03 -5.1037949e-03 3.8008087e-03 
-6.3525159e-03 -4.8920005e-03 -2.5021869e-03 
-5.9678829e-03 -5.0284928e-03 3.0969414e-03 
-6.2728683e-03 -4.9010641e-03 3.9661277e-04 
-6.2418142e-03 -4.9020750e-03 6.1237236e-04 
-5.8634304e-03 -4.9266550e-03 2.5937026e-03 
-6.2101078e-03 -4.9928850e-03 -2.3337638e-03 
-5.7810056e-03 -4.8107360e-03 1.9954359e-03 
-5.8286227e-03 -4.5484398e-03 -5.5680321e-05 
-5.9253881e-03 -4.5199366e-03 -7.5956841e-04 
-5.7058530e-03 -4.6807476e-03 1.4531430e-03 
-6.0440046e-03 -4.5286375e-03 -1.7543212e-03 
-6.0968045e-03 -4.9698516e-03 3.8761389e-03 
-6.2408047e-03 -4.8566777e-03 3.5540678e-03 
-6.0525634e-03 -4.7705122e-03 -8.3729377e-05 
-6.1942036e-03 -4.8745112e-03 -3.4673174e-03 
-5.8368375e-03 -4.8357672e-03 2.6966215e-03 
-6.0579698e-03 -4.9893479e-03 -2.9446513e-03 
-5.9792213e-03 -4.7900421e-03 2.3880315e-03 
-5.9856395e-03 -4.8794933e-03 -1.5061155e-03 
-5.7001556e-03 -4.5595425e-03 6.8897137e-04 
-5.9102830e-03 -4.6743988e-03 6.1467919e-04 
-6.1249048e-03 -4.5816670e-03 -2.7664469e-03 
-6.0026334e-03 -4.8067598e-03 -8.4493228e-04 
-5.9274659e-03 -4.8395102e-03 3.2200217e-03 
-6.1405711e-03 -4.6979641e-03 2.9369367e-03 
-5.6182584e-03 -4.5885444e-03 1.3887254e-03 
-5.6700595e-03 -4.4284342e-03 -1.3113231e-04 
-5.6560249e-03 -4.6017868e-03 1.6976404e-03 
-5.7011745e-03 -4.4347821e-03 -5.3763861e-04 
-5.5538896e-03 -4.6036439e-03 2.0680798e-03 
-5.7788449e-03 -4.5494004e-03 -4.0004568e-04 
-5.8232793e-03 -4.6837302e-03 3.2597359e-03 
-5.8396487e-03 -4.6071843e-03 -1.8984918e-03 
-5.7161157e-03 -4.7239787e-03 3.7148397e-03 
-5.6005665e-03 -4.6897721e-03 3.5230857e-03 
-5.7616346e-03 -4.2940849e-03 -2.2381337e-03 
-5.7619829e-03 -4.5384429e-03 3.1281213e-04 
-5.8181221e-03 -4.6438263e-03 3.7187736e-03 
-5.4857945e-03 -4.6366435e-03 3.1865791e-03 
-5.8536609e-03 -4.4855890e-03 -3.2050866e-03 
-5.6451564e-03 -4.5436160e-03 -7.1057305e-04 
-5.6530964e-03 -4.6961550e-03 -2.2555622e-03 
-5.3785634e-03 -4.5634513e-03 2.7645775e-03 
-5.7011647e-03 -4.4368417e-03 5.8337569e-04 
-5.2820928e-03 -4.4578952e-03 2.2364238e-03 
-5.6597549e-03 -4.3101297e-03 -1.9655668e-03 
-5.7010287e-03 -4.4209035e-03 1.1837860e-03 
-5.2155033e-03 -4.3437155e-03 1.6499929e-03 
-5.2830265e-03 -4.2054486e-03 3.5122191e-04 
-5.6552342e-03 -4.3685678e-03 1.0105571e-03 
-5.3648977e-03 -4.4600214e-03 2.4062281e-03 
-5.3169983e-03 -4.1222502e-03 -3.6582767e-04 
-5.3972593e-03 -4.1076699e-03 -1.0113182e-03 
-5.1666992e-03 -4.2032124e-03 8.8069221e-04 
-5.4380423e-03 -4.4767121e-03 2.9757011e-03 
-5.5343900e-03 -4.4166315e-03 -7.8373728e-04 
-5.2816421e-03 -4.2257039e-03 6.0752220e-04 
-5.4606027e-03 -4.4007022e-03 -7.0486817e-04 
-5.4688347e-03 -4.3219975e-03 8.0748941e-05 
-5.5618654e-03 -4.2257821e-03 1.6571172e-03 
-5.3371908e-03 -3.9959243e-03 -1.6452009e-03 
-5.3894925e-03 -4.4199764e-03 3.6469975e-03 
-5.3693466e-03 -4.2561134e-03 -1.0902591e-04 
-5.4887533e-03 -4.1088695e-03 -2.6766730e-03 
-5.5222013e-03 -4.3039927e-03 3.3637020e-03 
-5.3831157e-03 -4.2825406e-03 2.2935441e-03 
-5.4760929e-03 -4.4338806e-03 -3.2401604e-03 
-5.2977591e-03 -4.3712277e-03 -1.4808854e-03 
-5.3008362e-03 -4.2064865e-03 -2.0128061e-04 
-5.3014541e-03 -4.3591196e-03 -2.0499823e-03 
-5.2821855e-03 -4.1760686e-03 9.7640068e-04 
-5.1442538e-03 -3.9525554e-03 -9.2540920e-04 
-4.9585085e-03 -4.0856847e-03 1.3144349e-03 
-5.1507005e-03 -4.3062456e-03 3.4820386e-03 
-4.9824878e-03 -3.9152005e-03 -1.1723762e-04 
-5.0374051e-03 -4.2723003e-03 3.2316942e-03 
-4.9212580e-03 -4.2095603e-03 2.8817926e-03 
-5.2078310e-03 -4.0556784e-03 -1.9263970e-03 
-4.8225489e-03 -4.1217399e-03 2.4336483e-03 
-5.0817430e-03 -4.1472386e-03 -1.2083934e-03 
-4.9334355e-03 -4.0436070e-03 1.7031463e-03 
-4.7478969e-03 -4.0217624e-03 1.9061693e-03 
-5.0478191e-03 -3.8564636e-03 -1.3970243e-03 
-5.1249019e-03 -3.9721061e-03 6.7933992e-04 
-5.1318016e-03 -4.0217186e-03 2.1424911e-03 
-4.6941768e-03 -3.9044179e-03 1.3219980e-03 
-5.0760913e-03 -3.7821305e-03 -2.0848974e-03 
-4.9940399e-03 -4.0497771e-03 -7.2767300e-04 
-4.7645997e-03 -3.7641197e-03 1.0542944e-05 
-5.1395767e-03 -4.1191117e-03 3.5125487e-03 
-4.8417416e-03 -3.7243562e-03 -6.3437183e-04 
-4.9146195e-03 -3.7125049e-03 -1.2277539e-03 
-5.0192969e-03 -4.0698680e-03 2.8204795e-03 
-4.9004299e-03 -4.0783430e-03 2.7743836e-03 
-4.9508722e-03 -3.8517327e-03 -1.0146686e-03 
-5.0010593e-03 -3.9547468e-03 5.4009358e-04 
-4.8058298e-03 -4.0336731e-03 2.5142129e-03 
-4.9508009e-03 -4.1495403e-03 -2.0731732e-03 
-4.7213575e-03 -3.9698798e-03 2.1769316e-03 
-4.9782139e-03 -3.8997687e-03 5.2422594e-04 
-4.6587754e-03 -3.8934553e-03 1.7649337e-03 
-4.8409998e-03 -3.8485115e-03 1.9498677e-04 
-4.9013118e-03 -3.9046786e-03 -1.6396250e-04 
-4.8361062e-03 -3.9044034e-03 -6.5295387e-04 
-4.5277174e-03 -3.7162702e-03 1.0090255e-03 
-4.7966470e-03 -3.8900061e-03 -1.9293696e-03 
-4.7370368e-03 -3.7674308e-03 -1.2276197e-04 
-4.6444000e-03 -3.8130123e-03 1.9339551e-03 
-4.6919351e-03 -3.5104542e-03 -1.5243043e-03 
-4.9194847e-03 -3.8707862e-03 -3.1929903e-03 
-4.6823020e-03 -3.8873223e-03 -1.4385586e-03 
-4.7607101e-03 -3.9852182e-03 -2.7052255e-03 
-4.7550588e-03 -3.9228308e-03 3.4426693e-03 
-4.6205507e-03 -3.5349068e-03 -9.6963270e-04 
-4.8578125e-03 -3.8052788e-03 3.1818133e-03 
-4.6005147e-03 -3.7118339e-03 8.0518198e-04 
-4.6150289e-03 -3.9135134e-03 3.2483535e-03 
-4.4989642e-03 -3.8635423e-03 2.9459754e-03 
-4.3407260e-03 -3.5555752e-03 8.2513929e-04 
-4.7766911e-03 -3.5494405e-03 -2.4333061e-03 
-4.6554678e-03 -3.5424535e-03 -1.6495716e-03 
-4.3944470e-03 -3.7917809e-03 2.5680168e-03 
-4.3075318e-03 -3.7008077e-03 2.1101527e-03 
-4.6069855e-03 -3.6759772e-03 -1.5799413e-03 
-4.2453520e-03 -3.5939044e-03 1.5837417e-03 
-4.5394045e-03 -3.6453130e-03 1.7744090e-03 
-4.3321047e-03 -3.3780171e-03 -2.8036998e-04 
-4.7047883e-03 -3.6013701e-03 2.7210498e-03 
-4.3810639e-03 -3.3164809e-03 -1.0293496e-03 
-4.5832680e-03 -3.4971440e-03 -2.2076233e-03 
-4.2986446e-03 -3.6374063e-03 2.2750478e-03 
-4.3433853e-03 -3.4027984e-03 -4.1273711e-04 
-4.3909042e-03 -3.5818252e-03 -7.1915082e-04 
-4.4059926e-03 -3.7261660e-03 -2.1031424e-03 
-4.4593038e-03 -3.3083886e-03 -1.9416262e-03 
-4.2369356e-03 -3.4485541e-03 7.7439751e-04 
-4.3887175e-03 -3.5021931e-03 1.8007016e-04 
-4.1368883e-03 -3.3987118e-03 8.6370605e-04 
-4.5194235e-03 -3.6399465e-03 3.3000817e-03 
-4.4326656e-03 -3.4660273e-03 5.0885131e-04 
-4.5632315e-03 -3.4669104e-03 -2.8681138e-03 
-4.2910418e-03 -3.6006919e-03 2.6285879e-03 
-4.4268728e-03 -3.4575188e-03 1.1558768e-03 
-4.3363175e-03 -3.3053248e-03 -1.2285055e-03 
-4.3868800e-03 -3.4066814e-03 9.4959600e-04 
-4.3414338e-03 -3.4183722e-03 -1.1608651e-03 
-4.3186545e-03 -3.5623943e-03 2.6774099e-03 
-4.3045310e-03 -3.4397945e-03 3.0796105e-04 
-4.1595041e-03 -3.4453908e-03 1.4446428e-03 
-4.0627695e-03 -3.4379920e-03 1.7070407e-03 
-4.0164073e-03 -3.2136911e-03 2.2993343e-04 
-4.2745885e-03 -3.5515367e-03 -1.7031945e-03 
-4.2445865e-03 -3.4480279e-03 -6.0652662e-04 
-4.2180819e-03 -3.2862239e-03 -9.0838061e-04 
-4.2153462e-03 -3.5692663e-03 3.1800349e-03 
-4.2438717e-03 -3.3680974e-03 1.2616525e-04 
-4.1039032e-03 -3.5354246e-03 2.9693251e-03 
-4.2113746e-03 -3.4008536e-03 -5.8014801e-04 
-4.2956886e-03 -3.2770624e-03 1.4833956e-03 
-4.0000910e-03 -3.4757585e-03 2.6558039e-03 
-4.1388758e-03 -3.3176679e-03 -1.3181400e-04 
-3.9095655e-03 -3.4029367e-03 2.2622689e-03 
-4.3304148e-03 -3.3974899e-03 3.0508325e-03 
-4.0736520e-03 -3.1280932e-03 -8.3655713e-04 
-4.2589940e-03 -3.3224800e-03 2.2753037e-03 
-4.1028322e-03 -3.4305898e-03 -1.3866615e-03 
-4.2537376e-03 -3.4830766e-03 -2.9448022e-03 
-3.8329135e-03 -3.3113023e-03 1.7943947e-03 
-4.1177543e-03 -3.3128166e-03 8.8852475e-04 
-4.0974710e-03 -3.0522021e-03 -1.4089823e-03 
-4.1640801e-03 -3.4511238e-03 3.2291193e-03 
-4.2342357e-03 -3.1399895e-03 -2.3658760e-03 
-4.1712117e-03 -3.3473975e-03 2.5221417e-03 
-3.7821555e-03 -3.2058521e-03 1.2816450e-03 
-3.9136736e-03 -3.3241280e-03 2.0127320e-03 
-4.1351165e-03 -3.2476739e-03 -1.9799578e-03 
-3.7892582e-03 -3.0539334e-03 3.4255633e-04 
-3.9281780e-03 -3.2342135e-03 1.8278887e-03 
-3.7234011e-03 -3.1361820e-03 1.2712375e-03 
-3.9962959e-03 -3.0279262e-03 -1.6119904e-03 
-3.8444218e-03 -2.9119658e-03 -8.9719531e-04 
-3.6177018e-03 -2.9973525e-03 7.6205330e-04 
-3.9063054e-03 -3.1405324e-03 -3.1110513e-04 
-3.9379657e-03 -3.0658857e-03 5.9391814e-04 
-3.8965400e-03 -3.0949176e-03 -6.4507831e-04 
-3.8350550e-03 -3.1440714e-03 -7.0179242e-04 
-3.8823911e-03 -2.8616309e-03 -1.8200390e-03 
-3.8063640e-03 -3.2352153e-03 -1.8958111e-03 
-3.9416347e-03 -3.1890925e-03 3.0966261e-03 
-3.7166867e-03 -2.9570465e-03 -1.2208181e-04 
-3.6869214e-03 -3.1626266e-03 2.3731834e-03 
-3.6682044e-03 -2.8606094e-03 -4.3137287e-04 
-3.8208128e-03 -3.1401236e-03 -1.3696470e-03 
-3.8116400e-03 -2.9990112e-03 5.5458682e-04 
-3.6396964e-03 -3.1803111e-03 2.6999142e-03 
-3.5480892e-03 -2.8096181e-03 -2.9888088e-05 
-3.7067016e-03 -3.1859437e-03 2.9557140e-03 
-3.7660014e-03 -3.1670425e-03 -2.0223456e-03 
-3.5396453e-03 -3.1155199e-03 2.3728437e-03 
-3.7382424e-03 -3.1344476e-03 2.6317206e-03 
-3.7673919e-03 -2.9867466e-03 5.5616588e-04 
-3.4389843e-03 -2.9658654e-03 1.4751964e-03 
-3.7121503e-03 -3.0148374e-03 -5.4824533e-04 
-3.4539036e-03 -3.0239788e-03 1.9622140e-03 
-3.8062409e-03 -2.9425020e-03 1.5811105e-03 
-3.5727287e-03 -2.9672473e-03 1.4441743e-03 
-3.6593017e-03 -3.0461745e-03 -1.3610817e-03 
-3.5039657e-03 -2.8763050e-03 6.9371558e-04 
-3.6208297e-03 -2.8935915e-03 -1.3094897e-04 
-3.5668097e-03 -3.0011840e-03 -1.3352521e-03 
-3.6492355e-03 -3.0951311e-03 -2.4849914e-03 
-3.7802048e-03 -2.9722853e-03 -2.8445430e-03 
-3.6135798e-03 -2.9000717e-03 1.2023855e-03 
-3.4583402e-03 -2.9708098e-03 2.0980586e-03 
-3.5431969e-03 -2.6292137e-03 -1.3089178e-03 
-3.3852344e-03 -2.9058568e-03 1.7874204e-03 
-3.6198057e-03 -2.9255112e-03 2.2372345e-03 
-3.6227198e-03 -3.0189001e-03 3.0281057e-03 
-3.7138539e-03 -2.9029038e-03 2.7948015e-03 
-3.4574310e-03 -2.8905219e-03 1.7553590e-03 
-3.6262481e-03 -2.6585949e-03 -2.1327750e-03 
-3.5315035e-03 -2.6608463e-03 -1.4793765e-03 
-3.2693835e-03 -2.7208414e-03 7.6212391e-04 
-3.5697420e-03 -2.7271323e-03 -1.7861809e-03 
-3.4497113e-03 -2.9313157e-03 2.4315310e-03 
-3.3324603e-03 -2.5708519e-03 -4.6957281e-04 
-3.4071358e-03 -2.7696090e-03 9.8863023e-04 
-3.3789063e-03 -2.6005236e-03 -6.9260068e-04 
-3.3939756e-03 -2.7007076e-03 -1.2274963e-04 
-3.3887899e-03 -2.8983399e-03 -1.8347693e-03 
-3.4046194e-03 -2.7199329e-03 3.8765691e-04 
-3.3963032e-03 -2.9056754e-03 2.8913070e-03 
-3.4234547e-03 -2.6699870e-03 5.5666326e-04 
-3.2941331e-03 -2.8858695e-03 2.7136339e-03 
-3.3246272e-03 -2.7414910e-03 -6.8289816e-04 
-3.4454365e-03 -2.6298179e-03 1.1996814e-03 
-3.1928304e-03 -2.8337995e-03 2.4390656e-03 
-3.3637281e-03 -2.6336436e-03 -1.2277687e-03 
-3.1075012e-03 -2.7614557e-03 2.0853276e-03 
-3.4041661e-03 -2.7098034e-03 2.0935761e-03 
-3.3557729e-03 -2.4491111e-03 -1.6931135e-03 
-3.3232889e-03 -2.7740784e-03 2.4151776e-03 
-3.0438954e-03 -2.6828125e-03 1.6861806e-03 
-3.4249590e-03 -2.7675896e-03 2.8999590e-03 
-3.4669954e-03 -2.6039854e-03 -2.5307208e-03 
-3.0740032e-03 -2.4566180e-03 2.6350441e-05 
-3.4692609e-03 -2.6128585e-03 2.2345416e-03 
-3.1760908e-03 -2.3890354e-03 -8.3149091e-04 
-3.0083288e-03 -2.5228269e-03 7.1775232e-04 
-3.2591778e-03 -2.4636211e-03 -1.0902506e-03 
-2.9878013e-03 -2.5830192e-03 1.2217808e-03 
-3.3079551e-03 -2.6375295e-03 -1.6027386e-03 
-3.0977984e-03 -2.4411627e-03 -1.8024821e-04 
-3.2600735e-03 -2.7296569e-03 -1.5282432e-03 
-3.2120259e-03 -2.6213352e-03 -5.0065503e-04 
-3.2268353e-03 -2.5548283e-03 1.8790309e-04 
-3.1074521e-03 -2.6876633e-03 2.1366943e-03 
-3.1916953e-03 -2.5815973e-03 -4.5275927e-04 
-3.0416586e-03 -2.6434264e-03 1.8745159e-03 
-3.1451096e-03 -2.4415660e-03 -7.1510690e-04 
-2.9347388e-03 -2.5106412e-03 1.1978474e-03 
-3.1119043e-03 -2.5060766e-03 -1.3139746e-04 
-3.0800197e-03 -2.6154001e-03 -1.2784301e-03 
-2.9963795e-03 -2.3638068e-03 -1.7185490e-04 
-3.0381738e-03 -2.2333339e-03 -1.2194680e-03 
-3.2040661e-03 -2.4680709e-03 2.0554336e-03 
-3.1765094e-03 -2.3105829e-03 -2.0621968e-03 
-3.1181183e-03 -2.6140071e-03 2.8214115e-03 
-3.2105707e-03 -2.5076778e-03 2.6171729e-03 
-2.8827349e-03 -2.2270994e-03 -3.8586336e-04 
-3.0973514e-03 -2.3978378e-03 8.9966127e-04 
-2.9487566e-03 -2.4848003e-03 1.4323952e-03 
-3.1091929e-03 -2.4012385e-03 1.2797096e-03 
-3.0898692e-03 -2.5209407e-03 2.2799040e-03 
-2.9222923e-03 -2.2484802e-03 -5.1769428e-04 
-2.9720140e-03 -2.5890216e-03 2.6797589e-03 
-2.8798131e-03 -2.5615862e-03 2.4601144e-03 
-2.9752532e-03 -2.4503479e-03 1.5855749e-03 
-2.7889095e-03 -2.5087791e-03 2.1790348e-03 
-2.9923324e-03 -2.3654250e-03 1.2910189e-03 
-2.9294607e-03 -2.4427685e-03 -1.0866813e-03 
-2.7165907e-03 -2.4406966e-03 1.8207819e-03 
-2.9501361e-03 -2.4022080e-03 -1.0243889e-03 
-2.9433738e-03 -2.2839345e-03 5.3114182e-04 
-2.8435767e-03 -2.3054832e-03 4.5381082e-04 
-2.6513715e-03 -2.3470197e-03 1.4035217e-03 
-2.9063048e-03 -2.3272980e-03 -5.2626914e-04 
-2.8515765e-03 -2.3656939e-03 -6.5599440e-04 
-2.6724148e-03 -2.2641115e-03 8.4903237e-04 
-2.8718021e-03 -2.4915605e-03 -1.8091941e-03 
-2.8970272e-03 -2.2986829e-03 3.2940347e-04 
-2.7352413e-03 -2.2726983e-03 7.0259313e-04 
-2.9520367e-03 -2.2406483e-03 -1.6137289e-03 
-2.6595159e-03 -2.1249121e-03 4.8872254e-05 
-2.9769598e-03 -2.2997090e-03 -1.9936485e-03 
-2.8437211e-03 -2.2868873e-03 5.8179547e-04 
-2.8911722e-03 -2.1915047e-03 -1.2402186e-03 
-2.9010754e-03 -2.3967871e-03 -1.8042449e-03 
-2.7475762e-03 -2.0527258e-03 -7.8960252e-04 
-2.8810964e-03 -2.0722619e-03 -1.5728871e-03 
-2.7152384e-03 -2.3734018e-03 1.9296403e-03 
-2.9450774e-03 -2.3829101e-03 2.6921434e-03 
-2.7815616e-03 -2.0773024e-03 -1.0320999e-03 
-2.5989895e-03 -2.2646296e-03 1.3247123e-03 
-2.7529304e-03 -2.2496076e-03 -4.4654633e-04 
-2.7593533e-03 -2.1921322e-03 2.0632533e-04 
-2.7238466e-03 -2.3382769e-03 2.1817170e-03 
-2.7681401e-03 -2.3196216e-03 2.2392063e-03 
-2.8347061e-03 -2.2295397e-03 1.9887746e-03 
-2.4690612e-03 -2.0844785e-03 6.5957714e-04 
-2.6942350e-03 -2.1219787e-03 -5.3207739e-04 
-2.7085762e-03 -2.2985220e-03 -1.5606680e-03 
-2.6675228e-03 -2.1395045e-03 -1.2454308e-04 
-2.7886750e-03 -2.0765900e-03 1.3444314e-03 
-2.7780642e-03 -2.2278384e-03 -2.0875984e-03 
-2.6768185e-03 -2.3099785e-03 2.5980598e-03 
-2.4947026e-03 -1.9884908e-03 -1.8735185e-05 
-2.4995990e-03 -1.9211537e-03 -3.5529345e-04 
-2.5845629e-03 -2.2995172e-03 2.4433804e-03 
-2.7820840e-03 -2.0777073e-03 1.9266091e-03 
-2.4898753e-03 -2.2512914e-03 2.2193713e-03 
-2.7253032e-03 -2.2539580e-03 -2.4340032e-03 
-2.5675029e-03 -2.2039898e-03 -1.2658949e-03 
-2.7867947e-03 -2.1106326e-03 2.2423756e-03 
-2.5962323e-03 -1.8755362e-03 -1.1303197e-03 
-2.7974860e-03 -2.1630758e-03 -2.4976484e-03 
-2.5399933e-03 -1.9167442e-03 -7.0058461e-04 
-2.4879598e-03 -2.0946965e-03 1.0121053e-03 
-2.7646974e-03 -2.1549244e-03 2.4641473e-03 
-2.4090337e-03 -2.1899585e-03 1.9228419e-03 
-2.6656829e-03 -2.2370052e-03 2.6176695e-03 
-2.7365447e-03 -1.9762986e-03 -2.1282497e-03 
-2.3481897e-03 -2.1193800e-03 1.5448141e-03 
-2.5162911e-03 -2.0555956e-03 7.3672651e-04 
-2.7315712e-03 -2.0279442e-03 -2.3398765e-03 
-2.5920135e-03 -2.2247252e-03 -2.1499905e-03 
-2.2747167e-03 -2.0079080e-03 1.1035664e-03 
-2.4749471e-03 -1.9115404e-03 -5.5026228e-04 
-2.4348446e-03 -2.0745907e-03 1.5926668e-03 
-2.5118203e-03 -1.9413785e-03 4.9124687e-04 
-2.5290237e-03 -2.0375478e-03 -1.2761777e-03 
-2.4972395e-03 -2.0429124e-03 1.5130875e-03 
-2.4255286e-03 -2.0179031e-03 -6.2251091e-04 
-2.3452649e-03 -2.0713282e-03 1.7218681e-03 
-2.2635208e-03 -1.8184092e-03 7.3058683e-05 
-2.2679211e-03 -1.8889293e-03 4.8699914e-04 
-2.3451187e-03 -1.7394183e-03 -7.1840780e-04 
-2.5338901e-03 -1.9528670e-03 1.5917630e-03 
-2.3254575e-03 -1.7929374e-03 -3.5308077e-04 
-2.3367233e-03 -1.8604529e-03 -2.8039598e-05 
-2.4730775e-03 -1.9037583e-03 8.2254066e-04 
-2.2353379e-03 -1.9381647e-03 1.0667803e-03 
-2.4466361e-03 -1.8307894e-03 -1.2731167e-03 
-2.4403851e-03 -1.9868696e-03 2.1479735e-03 
-2.4538683e-03 -1.7195593e-03 -1.6331146e-03 
-2.5118317e-03 -1.9358577e-03 -2.0980951e-03 
-2.2380059e-03 -1.8448639e-03 5.0690910e-04 
-2.2996671e-03 -1.8895012e-03 -5.7946629e-04 
-2.3419836e-03 -1.9711861e-03 -1.5491913e-03 
-2.3014941e-03 -1.6920917e-03 -1.0246806e-03 
-2.2811985e-03 -2.0112817e-03 2.3916850e-03 
-2.1314246e-03 -1.9674969e-03 1.9687624e-03 
-2.1954253e-03 -1.9917390e-03 2.2229780e-03 
-2.2933148e-03 -1.9271658e-03 1.9889222e-03 
-2.1234583e-03 -1.6902260e-03 -1.5614236e-05 
-2.1159388e-03 -1.6250872e-03 -3.1182528e-04 
-2.3889067e-03 -1.9037472e-03 2.4200480e-03 
-2.0112083e-03 -1.7168816e-03 5.9391849e-04 
-2.2226267e-03 -1.9405597e-03 -1.6936011e-03 
-2.3452342e-03 -1.7485707e-03 -1.8062054e-03 
-2.0069671e-03 -1.8580947e-03 1.6629872e-03 
-1.9715654e-03 -1.7839505e-03 1.2409843e-03 
-2.1699434e-03 -1.5468743e-03 -1.0430038e-03 
-2.2657521e-03 -1.7620102e-03 -1.4582598e-03 
-2.1492487e-03 -1.7052713e-03 2.7167031e-05 
-2.2563410e-03 -1.8949623e-03 2.4145695e-03 
-2.1247617e-03 -1.8618593e-03 1.9434455e-03 
-2.3055396e-03 -1.6114614e-03 -1.9096610e-03 
-2.1589182e-03 -1.7281669e-03 2.3712781e-04 
-2.3310778e-03 -1.6726640e-03 -2.1184904e-03 
-2.0925847e-03 -1.8049496e-03 -1.1405689e-03 
-2.3341111e-03 -1.7364824e-03 -2.2597758e-03 
-2.2595203e-03 -1.6471185e-03 1.5802598e-03 
-2.2907264e-03 -1.6949726e-03 1.9205164e-03 
-2.2900470e-03 -1.7370762e-03 2.1749304e-03 
-2.2213529e-03 -1.8746672e-03 -2.1821004e-03 
-2.2688422e-03 -1.8487746e-03 -2.2857285e-03 
-2.0748612e-03 -1.6507015e-03 -8.5111942e-06 
-2.1624262e-03 -1.8709544e-03 -1.9773568e-03 
-2.1918104e-03 -1.6184608e-03 1.1464865e-03 
-2.1241431e-03 -1.6095210e-03 6.6326174e-04 
-2.0212885e-03 -1.5119832e-03 -5.7361159e-04 
-1.9065463e-03 -1.5326841e-03 8.6662811e-05 
-2.1923739e-03 -1.7262998e-03 1.8155749e-03 
-2.0947366e-03 -1.7088363e-03 -8.4594887e-04 
-2.0346928e-03 -1.6990224e-03 -5.8166590e-04 
-2.2021444e-03 -1.7546891e-03 -1.8964265e-03 
-2.2564153e-03 -1.7471142e-03 -2.2895364e-03 
-2.0799418e-03 -1.6809589e-03 1.0871420e-03 
-2.1588407e-03 -1.6352636e-03 1.4055871e-03 
-2.0534687e-03 -1.6174873e-03 1.3281860e-04 
-2.1266807e-03 -1.5236656e-03 -1.3408770e-03 
-2.0105450e-03 -1.6998253e-03 -1.1016162e-03 
-2.0541220e-03 -1.7879237e-03 2.3010909e-03 
-1.9764090e-03 -1.7894427e-03 2.1872753e-03 
-1.9116468e-03 -1.4937590e-03 -2.1877901e-04 
-1.9077241e-03 -1.7395280e-03 1.8336527e-03 
-2.0902036e-03 -1.5138556e-03 -1.6031308e-03 
-1.9664792e-03 -1.5676140e-03 3.7848306e-05 
-1.7874643e-03 -1.5932196e-03 1.0941289e-03 
-2.1013883e-03 -1.5993805e-03 -1.8649079e-03 
-1.8205609e-03 -1.4058696e-03 -2.2540997e-04 
-1.8969424e-03 -1.6442984e-03 1.4582699e-03 
-1.8987808e-03 -1.5568087e-03 -3.3991862e-04 
-1.9248972e-03 -1.6781584e-03 1.9367461e-03 
-1.8946429e-03 -1.3738709e-03 -8.8406238e-04 
-1.9522437e-03 -1.4745991e-03 8.7834336e-04 
-1.9528256e-03 -1.4784158e-03 -1.1543726e-03 
-1.7350913e-03 -1.4292799e-03 2.7204162e-04 
-1.9324421e-03 -1.6209428e-03 -1.5221585e-03 
-1.8684460e-03 -1.4898847e-03 -6.0577510e-04 
-1.7976216e-03 -1.4480044e-03 2.3268879e-04 
-1.8601929e-03 -1.4439928e-03 7.5302692e-04 
-1.6078466e-03 -1.3906446e-03 5.2906928e-04 
-1.5929500e-03 -1.4593200e-03 9.9796860e-04 
-1.6481816e-03 -1.3088885e-03 1.8669938e-05 
-1.6177658e-03 -1.5391561e-03 1.4084493e-03 
-1.7094213e-03 -1.2591740e-03 -5.0058350e-04 
-1.6753307e-03 -1.5968222e-03 1.7472025e-03 
-1.7941335e-03 -1.2505186e-03 -9.7023399e-04 
-1.7530400e-03 -1.6307025e-03 2.0076938e-03 
-1.8606378e-03 -1.2571584e-03 -1.3337533e-03 
-1.8246472e-03 -1.6200953e-03 2.1733874e-03 
-1.9215298e-03 -1.2936738e-03 -1.6521893e-03 
-1.8861395e-03 -1.5914642e-03 2.2392722e-03 
-1.7657847e-03 -1.4660922e-03 9.9148450e-04 
-1.9608673e-03 -1.3454158e-03 -1.8893670e-03 
-1.9211106e-03 -1.5456664e-03 2.2256975e-03 
-1.9777743e-03 -1.4127914e-03 -2.0663224e-03 
-1.9407435e-03 -1.4831611e-03 2.1145435e-03 
-1.9705780e-03 -1.4729321e-03 -2.1566786e-03 
-1.9400909e-03 -1.4220659e-03 1.9242576e-03 
-1.9365336e-03 -1.5257483e-03 -2.1656437e-03 
-1.9131696e-03 -1.3671147e-03 1.6336900e-03 
-1.8850855e-03 -1.5636907e-03 -2.1004383e-03 
-1.8592651e-03 -1.3237196e-03 1.2671053e-03 
-1.8216338e-03 -1.5699698e-03 -1.9337374e-03 
-1.7955201e-03 -1.3113713e-03 8.3428092e-04 
-1.7583877e-03 -1.5511547e-03 -1.7015600e-03 
-1.6458579e-03 -1.4018146e-03 8.0568128e-04 
-1.7349969e-03 -1.3247207e-03 3.8899184e-04 
-1.7117836e-03 -1.5142254e-03 -1.3656481e-03 
-1.6904491e-03 -1.3628197e-03 -8.5443578e-05 
-1.6845902e-03 -1.4635101e-03 -9.7397307e-04 
-1.6814291e-03 -1.4198477e-03 -5.2971672e-04 
-1.7421691e-03 -1.4671957e-03 1.5629355e-03 
-1.6924577e-03 -1.3534267e-03 2.5084191e-05 
-1.6351362e-03 -1.2178973e-03 -4.9132662e-04 
-1.5548544e-03 -1.4126298e-03 1.2287198e-03 
-1.7981390e-03 -1.2935670e-03 -1.5743196e-03 
-1.6514024e-03 -1.2602799e-03 -5.2904140e-04 
-1.7684854e-03 -1.3528727e-03 1.6099861e-03 
-1.7920786e-03 -1.3753497e-03 -1.7329608e-03 
-1.7441596e-03 -1.3845692e-03 1.7048637e-03 
-1.7539121e-03 -1.3065416e-03 1.3983315e-03 
-1.7230010e-03 -1.2748040e-03 1.1267865e-03 
-1.6538473e-03 -1.2576766e-03 4.8255734e-04 
-1.6159423e-03 -1.3710076e-03 -9.3140872e-04 
-1.6082964e-03 -1.2735990e-03 7.4157004e-05 
-1.5939706e-03 -1.4276184e-03 1.7641331e-03 
-1.6717491e-03 -1.1654075e-03 -1.2780585e-03 
-1.5416942e-03 -1.2794208e-03 -5.1471480e-04 
-1.5564205e-03 -1.2440806e-03 4.6036122e-04 
-1.6428820e-03 -1.3449120e-03 -1.6084713e-03 
-1.6065813e-03 -1.3518708e-03 -1.4884118e-03 
-1.5904879e-03 -1.2311273e-03 1.0052037e-03 
-1.5634866e-03 -1.3398334e-03 -1.3031897e-03 
-1.5282587e-03 -1.1986109e-03 2.6215526e-04 
-1.5667118e-03 -1.2322540e-03 -1.1311030e-03 
-1.4636503e-03 -1.2636782e-03 1.1942905e-03 
-1.5660761e-03 -1.0126617e-03 -1.3699267e-03 
-1.2990625e-03 -1.2757313e-03 1.4220545e-03 
-1.6179226e-03 -1.0636675e-03 -1.6290309e-03 
-1.3692145e-03 -1.3256475e-03 1.7067352e-03 
-1.3738647e-03 -1.1046677e-03 7.5260388e-05 
-1.4895309e-03 -1.2148401e-03 -9.4975362e-04 
-1.6405371e-03 -1.1197889e-03 -1.8089877e-03 
-1.6453007e-03 -1.1806245e-03 -1.9363997e-03 
-1.6278885e-03 -1.2402752e-03 -1.9782910e-03 
-1.4213118e-03 -9.5634942e-04 -8.7749539e-04 
-1.2237886e-03 -1.0821515e-03 4.7015349e-04 
-1.6020414e-03 -1.1767066e-03 1.8366365e-03 
-1.5863256e-03 -1.2882940e-03 -1.9406436e-03 
-1.5210471e-03 -1.3107646e-03 -1.8297582e-03 
-1.5750731e-03 -1.1084938e-03 1.6137976e-03 
-1.5166871e-03 -1.2836736e-03 2.0102616e-03 
-1.4627199e-03 -1.3104340e-03 -1.6483592e-03 
-1.4229428e-03 -1.3048085e-03 1.9127514e-03 
-1.3978129e-03 -1.2778583e-03 -1.3853632e-03 
-1.5552008e-03 -1.2185646e-03 1.9731449e-03 
-1.4286042e-03 -1.0514534e-03 5.5032229e-04 
-1.3609724e-03 -1.2245447e-03 -1.0458399e-03 
-1.1938507e-03 -1.1617540e-03 9.5653412e-04 
-1.5216318e-03 -1.0561849e-03 1.3031891e-03 
-1.4706233e-03 -1.0364366e-03 9.4002986e-04 
-1.3356031e-03 -1.0584181e-03 1.7192528e-05 
-1.3872678e-03 -1.1311339e-03 1.0769144e-03 
-1.3101604e-03 -1.1140212e-03 -4.6532130e-04 
-1.2408646e-03 -1.1471541e-03 1.2012155e-03 
-1.4562398e-03 -1.1494552e-03 -1.5346276e-03 
-1.3003683e-03 -1.0751748e-03 5.5311760e-04 
-1.1865466e-03 -8.9731358e-04 -2.1613060e-04 
-1.4326117e-03 -1.0654860e-03 1.3635433e-03 
-1.2919619e-03 -1.0487357e-03 -2.8809550e-04 
-1.1446521e-03 -9.9053385e-04 4.3772330e-04 
-1.3571187e-03 -1.0070305e-03 1.0855327e-03 
-1.3344807e-03 -9.7461499e-04 8.3949580e-04 
-1.3094936e-03 -9.4650174e-04 -7.7996048e-04 
-1.2539582e-03 -9.8065322e-04 -3.2126196e-04 
-1.2632281e-03 -1.1066052e-03 1.4711266e-03 
-1.2424766e-03 -8.4385613e-04 -8.2466297e-04 
-1.2351294e-03 -9.7995962e-04 -3.6336307e-04 
-1.3227550e-03 -8.7813695e-04 -1.1813282e-03 
-1.2297878e-03 -9.3268720e-04 3.8629875e-04 
-1.1978057e-03 -1.0470496e-03 -8.7864813e-04 
-1.3444659e-03 -9.8297640e-04 -1.4089762e-03 
-1.2800852e-03 -1.0314267e-03 1.4467081e-03 
-1.2257110e-03 -1.0653670e-03 -1.1965424e-03 
-1.3076580e-03 -8.3567010e-04 -1.5125512e-03 
-1.0939341e-03 -8.4351061e-04 -2.3041770e-04 
-1.2852468e-03 -1.0249688e-03 -1.7581327e-03 
-1.2884965e-03 -9.0234663e-04 1.5660921e-03 
-1.0013893e-03 -1.0284126e-03 1.3975042e-03 
-1.1390832e-03 -7.9815090e-04 6.2317180e-04 
-1.2546185e-03 -9.2593703e-04 1.6842647e-03 
-1.0798511e-03 -8.1049115e-04 2.1560950e-04 
-1.2813298e-03 -8.6379866e-04 -1.6468095e-03 
-1.2675518e-03 -9.2752645e-04 -1.7261876e-03 
-1.0777186e-03 -1.0268593e-03 -1.2842534e-03 
-1.1834261e-03 -1.0091267e-03 -1.6567453e-03 
-1.1506791e-03 -6.9239741e-04 -1.1859644e-03 
-1.0179318e-03 -8.8756921e-04 8.3011755e-04 
-1.0352737e-03 -1.0060159e-03 1.6063649e-03 
-1.1784002e-03 -7.7936734e-04 1.2779069e-03 
-1.0328785e-03 -6.4434914e-04 -7.4328395e-04 
-1.0886722e-03 -8.5097551e-04 9.5311046e-04 
-8.3062460e-04 -7.7151903e-04 4.0360418e-04 
-1.1283729e-03 -9.6361933e-04 1.7165241e-03 
-1.1187154e-03 -7.4296625e-04 9.6608861e-04 
-9.2576543e-04 -8.3545246e-04 5.8098411e-04 
-9.9925697e-04 -8.0668076e-04 -6.7431669e-05 
-9.4570091e-04 -9.0391660e-04 -9.0265507e-04 
-9.8857365e-04 -7.6955667e-04 2.3440819e-04 
-9.1345416e-04 -8.0369151e-04 -3.7197323e-04 
-7.8356848e-04 -8.3632267e-04 9.5211150e-04 
-9.6306688e-04 -7.7441562e-04 5.3351559e-04 
-9.7646826e-04 -8.1600115e-04 -6.4225623e-04 
-1.0147286e-03 -7.6524046e-04 -8.5718010e-04 
-8.2382275e-04 -6.9253793e-04 1.1389609e-04 
-9.9238555e-04 -9.1943180e-04 -1.4150565e-03 
-1.0403729e-03 -8.2805369e-04 -1.2846241e-03 
-1.0420429e-03 -7.5362116e-04 1.1637340e-03 
-8.7216671e-04 -7.1248232e-04 2.6270622e-04 
-9.9714042e-04 -6.4120063e-04 -1.0286674e-03 
-8.3005382e-04 -8.0602657e-04 1.0071952e-03 
-9.1895775e-04 -7.2115060e-04 -2.6111933e-04 
-8.8720990e-04 -6.4178481e-04 3.2539535e-04 
-1.0007349e-03 -7.0582394e-04 -1.2644469e-03 
-8.9292420e-04 -6.6009240e-04 6.1360240e-04 
-7.2337629e-04 -5.1428389e-04 -2.1897082e-04 
-8.5913402e-04 -6.3928118e-04 -4.7419933e-04 
-8.0331636e-04 -5.5937248e-04 -3.7583313e-04 
-9.2377578e-04 -7.3251862e-04 1.2722993e-03 
-8.1946567e-04 -7.2746043e-04 1.0917872e-03 
-7.4030744e-04 -6.6180166e-04 -4.4637755e-04 
-6.8785256e-04 -5.5051397e-04 1.1355015e-05 
-8.7843102e-04 -4.8522232e-04 -1.1536051e-03 
-8.9244201e-04 -5.9676339e-04 1.3102673e-03 
-9.0749637e-04 -6.0435897e-04 -1.3657197e-03 
-7.5814186e-04 -6.6253374e-04 -9.4032666e-04 
-7.3862990e-04 -4.3375060e-04 -7.2947465e-04 
-8.3068927e-04 -7.0447562e-04 -1.3720357e-03 
-6.4454053e-04 -7.3522184e-04 1.1597840e-03 
-6.7118247e-04 -6.9826213e-04 -9.8355836e-04 
-6.9153105e-04 -4.6279668e-04 3.4532251e-04 
-7.8201224e-04 -4.4691612e-04 9.2167762e-04 
-6.2658713e-04 -5.0331379e-04 -1.3289122e-05 
-6.2946463e-04 -3.3286182e-04 -5.7663512e-04 
-7.5736950e-04 -6.5876660e-04 1.3342595e-03 
-5.2545778e-04 -5.1154505e-04 4.0211674e-04 
-4.5668636e-04 -4.7233721e-04 3.2758890e-04 
-6.0594699e-04 -5.4869242e-04 5.9067854e-04 
-6.2583725e-04 -5.0291955e-04 -1.7838633e-04 
-6.5049157e-04 -5.2350399e-04 3.5011041e-04 
-6.7991926e-04 -5.0954055e-04 7.3217408e-04 
-6.7631120e-04 -4.5437019e-04 4.8995379e-04 
-6.3685240e-04 -5.0935190e-04 -5.3175812e-04 
-5.1364611e-04 -4.9812131e-04 -2.8846104e-04 
-6.6571723e-04 -5.1239628e-04 -8.5576874e-04 
-6.0239312e-04 -4.4880997e-04 -4.0513524e-04 
-5.7291868e-04 -4.5218100e-04 -6.9357222e-05 
-3.9966017e-04 -5.2481628e-04 6.6450029e-04 
-5.3636107e-04 -4.2529296e-04 -5.2266132e-05 
-5.4978952e-04 -5.1557220e-04 -5.9998169e-04 
-6.2925258e-04 -3.9144250e-04 -7.3162542e-04 
-5.5462652e-04 -4.2416065e-04 1.0608917e-04 
-4.6111853e-04 -3.5926135e-04 -3.8263130e-05 
-4.8045150e-04 -5.4682279e-04 7.7354035e-04 
-5.6208251e-04 -4.6729934e-04 8.0568896e-04 
-3.3932916e-04 -2.4216512e-04 -7.0966264e-05 
-4.8038206e-04 -5.3302862e-04 -9.5105794e-04 
-5.5251486e-04 -2.2922351e-04 -7.7551208e-04 
-4.0448128e-04 -3.7784045e-04 -3.1063781e-04 
-4.3594203e-04 -2.7970248e-04 -3.3890421e-04 
-3.5022915e-04 -4.2039715e-04 -5.8977067e-04 
-5.9123675e-04 -3.1450938e-04 -9.8496652e-04 
-3.7703299e-04 -3.1287628e-04 1.9425293e-04 
-3.4242013e-04 -2.9738760e-04 1.1236656e-04 
-4.8575443e-04 -2.3137256e-04 -6.8862370e-04 
-4.1378353e-04 -2.6596594e-04 3.9443860e-04 
-3.5395767e-04 -2.6679473e-04 -1.0958689e-04 
-3.4128432e-04 -2.8084547e-04 -2.8840135e-04 
-3.2938088e-04 -4.3115637e-04 8.8050537e-04 
-3.4026173e-04 -2.4981378e-04 2.5869385e-04 
-3.7633325e-04 -3.3116617e-04 -6.2371080e-04 
-4.6998926e-04 -2.2687591e-04 8.0959493e-04 
-2.9014493e-04 -2.9367825e-04 -4.5399071e-04 
-1.4379299e-04 -2.0985487e-04 2.1741066e-04 
-3.4297240e-04 -2.1088391e-04 -4.3113995e-04 
-3.0750394e-04 -8.9579175e-05 -3.9577676e-04 
-4.0150475e-04 -3.6049166e-04 8.8098756e-04 
-2.3982889e-04 -2.6407850e-04 3.3867845e-04 
-2.5905448e-04 -1.0380806e-04 2.7233371e-04 
-1.6446353e-04 -3.5091880e-04 6.2243285e-04 
-1.8963417e-04 -2.1155410e-04 -2.1105698e-04 
-2.5276261e-04 -1.8896500e-04 6.3093110e-05 
-1.6556382e-04 -8.5278189e-05 -1.2433923e-04 
-3.8992608e-04 -1.1252616e-04 -6.4755109e-04 
-3.7128362e-04 -2.7203307e-04 -7.9375412e-04 
-2.7137002e-04 -3.3329046e-04 -7.2299375e-04 
-1.7462949e-04 -3.1147784e-04 -5.4235908e-04 
-2.9228197e-04 -1.3104684e-04 4.7173939e-04 
-1.2272391e-04 -1.5959928e-04 1.8368594e-04 
-1.8501360e-04 -1.6028855e-04 -1.1723707e-04 
-2.1364301e-04 -7.3204690e-05 -2.9372078e-04 
-1.8270848e-04 -1.4785488e-04 2.0621188e-05 
-2.7173519e-04 -1.8681974e-04 5.0905015e-04 
-1.6337437e-04 -1.0431993e-04 -8.1760729e-05 
-2.1747619e-04 -2.4693369e-04 5.2291912e-04 
-8.4723390e-05 -6.4360538e-05 -2.7695060e-05 
-2.2344904e-04 -1.4990108e-04 -3.2116525e-04 
-1.6454548e-04 -1.4012503e-04 2.2373564e-04 
-1.4168448e-04 -1.2624959e-04 7.1314636e-05 
-1.9469715e-04 -1.2977616e-04 2.2172273e-04 
-2.4859820e-04 -1.0669605e-04 -4.0769420e-04 
-1.8405350e-04 -6.7991816e-05 2.2752333e-04 
-1.8777797e-04 -2.2759273e-04 -4.9341301e-04 
-1.1105635e-04 -2.0391936e-04 3.7116261e-04 
-1.0557430e-04 -1.0998726e-04 -8.4165084e-05 
-1.5177623e-04 -8.8585999e-05 -1.5716770e-04 
-2.0755410e-04 -1.7124911e-04 -4.6424021e-04 
-1.2105567e-04 -1.8382595e-04 -3.5364367e-04 
-1.2125564e-04 -1.1853183e-04 -2.4675895e-04 
-2.7961869e-04 -1.1260378e-04 -5.4437557e-04 
-7.3902920e-05 -1.1143473e-04 -1.8016735e-04 
4.8016614e-06 -6.3310254e-05 1.1853254e-04 
-2.6606178e-04 -1.1951684e-04 5.2425108e-04 
6.1531491e-06 -1.4726946e-04 2.9822177e-04 
-1.2384374e-04 3.6793524e-05 -2.2355201e-04 
-2.1471010e-04 -1.9747805e-04 5.2367465e-04 
-1.8909742e-04 1.3350368e-05 3.1271676e-04 
-1.9410333e-04 1.4726916e-05 -3.5627070e-04 
-9.7939803e-05 -2.2071449e-04 4.3119924e-04 
-5.0286209e-05 -5.7623282e-07 7.0091548e-05 
-1.0582033e-05 -7.9715319e-05 -1.2142982e-04 
-2.1675893e-04 -3.3563210e-05 3.9888860e-04 
-7.7218901e-05 -5.4392491e-05 -9.1144429e-05 
-2.9485231e-05 -1.8065138e-04 3.4446717e-04 
-7.8430003e-06 -1.3617770e-04 -2.5726558e-04 
-7.7421573e-05 -5.2221653e-06 -1.1032354e-04 
-6.6934859e-05 -9.1988346e-05 1.6544445e-04 
-1.0370524e-04 2.9792716e-05 1.8199165e-04 
-2.2288787e-04 -1.3721819e-04 -4.6066599e-04 
-2.1180087e-04 -2.4032384e-05 -3.7828999e-04 
-1.4352611e-04 -2.0122495e-04 -4.3450191e-04 
-6.9324684e-05 -3.9680737e-05 6.3060921e-05 
-9.4065173e-05 -2.0258021e-04 -3.9883825e-04 
-1.1417459e-04 2.3076651e-05 -2.0447634e-04 
-1.7413186e-04 -1.6013908e-04 -4.2122148e-04 
-1.1857231e-04 -1.6125094e-05 2.1711132e-04 
-2.9203558e-05 -1.4422467e-05 -2.2627888e-05 
-3.1031686e-05 -1.6527595e-04 -3.0879874e-04 
-9.0530761e-05 -7.6305267e-05 -1.8347100e-04 
-6.6425127e-05 -3.8335544e-05 1.3882613e-04 
-1.3635073e-04 -5.3155316e-05 2.7365526e-04 
-1.4396764e-04 -5.2690801e-05 -2.8053104e-04 
-4.2969696e-05 7.6463693e-06 -7.6067525e-05 
-7.2514136e-05 -1.1575149e-04 -2.5504260e-04 
1.8273025e-05 -2.5684236e-05 8.2795574e-05 
-4.5804525e-05 4.9942737e-06 -8.0912811e-05 
-7.0119524e-05 -8.1403829e-05 2.1675693e-04 
8.8993847e-06 3.6078090e-05 -3.6042351e-05 
-1.5756870e-05 -8.6335967e-05 1.7721990e-04 
-1.0409378e-06 -2.9467703e-05 -4.3683896e-05 
-4.8143575e-05 1.2177075e-05 9.6501302e-05 
-3.5230129e-05 -1.9880770e-05 -1.5834383e-05 
-1.5004191e-05 -1.9506266e-05 -4.5269400e-05 
-3.2620472e-05 -1.8357961e-05 -5.1456325e-05 
-8.1915576e-05 -7.2690556e-05 -2.0612094e-04 
5.0162820e-05 -6.5238630e-05 1.2850580e-04 
-9.7320362e-06 -7.2549039e-05 -1.5194532e-04 
-4.4923934e-05 -4.5032034e-06 7.8347548e-05 
-6.0344613e-05 1.7848044e-05 -1.1663882e-04 
5.0260645e-05 -1.3180594e-05 5.3113698e-05 
-5.8709138e-05 -1.1653475e-04 2.1628363e-04 
-1.3512046e-04 -6.5029009e-05 2.3993927e-04 
-4.6954137e-05 5.4139397e-05 -9.9275239e-05 
-9.5420619e-05 -9.3555340e-05 2.2370517e-04 
1.5134971e-05 -9.4384755e-05 1.4040008e-04 
-1.8068329e-05 -1.1589160e-04 1.8182231e-04 
-1.3770712e-04 -1.2538660e-05 1.9872950e-04 
-1.1472545e-04 3.4621131e-05 1.5934384e-04 
2.2117618e-05 1.6040354e-05 6.2490867e-06 
-6.8767047e-05 5.1419298e-05 1.2555292e-04 
-9.2946662e-05 4.3440286e-05 -1.4740025e-04 
5.4563388e-06 -2.4614799e-05 -5.8912905e-05 
-1.1385372e-04 2.0734245e-05 -1.7025885e-04 
-2.2405518e-05 4.3447690e-05 6.6884277e-05 
-1.2462125e-04 -1.3917703e-05 -1.8516117e-04 
2.8282955e-05 -1.9812507e-05 -4.7773428e-05 
-1.2396772e-04 -5.0916562e-05 -2.1088767e-04 
-3.0893119e-05 -5.1007173e-06 -7.9707024e-05 
-9.6854033e-05 -7.7493714e-05 -1.8328027e-04 
-7.5977208e-05 -1.0266557e-04 -1.9692929e-04 
-4.5371889e-05 -1.0643774e-04 -1.8204981e-04 
5.7889943e-06 -9.8350447e-06 3.6987043e-05 
-1.1499507e-05 -1.0321164e-04 -1.6258082e-04 
1.5550564e-05 -8.0075646e-05 -1.2320073e-04 
3.1712429e-05 -5.9363640e-05 -1.0536451e-04 
-2.7651406e-05 2.8851882e-05 -5.6036821e-05 
-1.2244390e-05 -5.1672955e-06 7.0012743e-07 
-5.9227765e-05 4.4752715e-06 8.3129024e-05 
-4.2084521e-05 6.2527583e-06 -7.4088639e-05 
-4.2892145e-07 6.6994807e-07 -5.5133355e-06 
0.0000000e+00 0.0000000e+00 0.0000000e+00 
0.0000000e+00 0.0000000e+00 0.0000000e+00 
0.0000000e+00 0.0000000e+00 0.0000000e+00 
0.0000000e+00 0.0000000e+00 0.0000000e+00 
0.0000000e+00 0.0000000e+00 0.0000000e+00 
0.0000000e+00 0.0000000e+00 0.0000000e+00 
0.0000000e+00 0.0000000e+00 0.0000000e+00 
0.0000000e+00 0.0000000e+00 0.0000000e+00 
0.0000000e+00 0.0000000e+00 0.0000000e+00 
0.0000000e+00 0.0000000e+00 0.0000000e+00 
0.0000000e+00 0.0000000e+00 0.0000000e+00 
0.0000000e+00 0.0000000e+00 0.0000000e+00 
0.0000000e+00 0.0000000e+00 0.0000000e+00 
0.0000000e+00 0.0000000e+00 0.0000000e+00 
0.0000000e+00 0.0000000e+00 0.0000000e+00 
0.0000000e+00 0.0000000e+00 0.0000000e+00 
0.0000000e+00 0.0000000e+00 0.0000000e+00 
0.0000000e+00 0.0000000e+00 0.0000000e+00 
0.0000000e+00 0.0000000e+00 0.0000000e+00 
0.0000000e+00 0.0000000e+00 0.0000000e+00 
0.0000000e+00 0.0000000e+00 0.0000000e+00 
0.0000000e+00 0.0000000e+00 0.0000000e+00 
0.0000000e+00 0.0000000e+00 0.0000000e+00 
0.0000000e+00 0.0000000e+00 0.0000000e+00 
0.0000000e+00 0.0000000e+00 0.0000000e+00 
0.0000000e+00 0.0000000e+00 0.0000000e+00 
0.0000000e+00 0.0000000e+00 0.0000000e+00 
0.0000000e+00 0.0000000e+00 0.0000000e+00 
0.0000000e+00 0.0000000e+00 0.0000000e+00 
0.0000000e+00 0.0000000e+00 0.0000000e+00 
0.0000000e+00 0.0000000e+00 0.0000000e+00 
0.0000000e+00 0.0000000e+00 0.0000000e+00 
0.0000000e+00 0.0000000e+00 0.0000000e+00 
0.0000000e+00 0.0000000e+00 0.0000000e+00 
0.0000000e+00 0.0000000e+00 0.0000000e+00 
0.0000000e+00 0.0000000e+00 0.0000000e+00 
0.0000000e+00 0.0000000e+00 0.0000000e+00 
0.0000000e+00 0.0000000e+00 0.0000000e+00 
0.0000000e+00 0.0000000e+00 0.0000000e+00 
0.0000000e+00 0.0000000e+00 0.0000000e+00 
0.0000000e+00 0.0000000e+00 0.0000000e+00 
0.0000000e+00 0.0000000e+00 0.0000000e+00 
0.0000000e+00 0.0000000e+00 0.0000000e+00 
0.0000000e+00 0.0000000e+00 0.0000000e+00 
0.0000000e+00 0.0000000e+00 0.0000000e+00 
0.0000000e+00 0.0000000e+00 0.0000000e+00 
0.0000000e+00 0.0000000e+00 0.0000000e+00 
0.0000000e+00 0.0000000e+00 0.0000000e+00 
0.0000000e+00 0.0000000e+00 0.0000000e+00 
0.0000000e+00 0.0000000e+00 0.0000000e+00 
0.0000000e+00 0.0000000e+00 0.0000000e+00 
0.0000000e+00 0.0000000e+00 0.0000000e+00 
0.0000000e+00 0.0000000e+00 0.0000000e+00 
0.0000000e+00 0.0000000e+00 0.0000000e+00 
ACCELERATION 3 6166  float
-3.0071079e+01 -2.7262236e+01 3.4295211e+00 
-2.9905891e+01 -2.7097343e+01 3.4003570e+00 
-3.0070766e+01 -2.7264229e+01 3.5309110e+00 
-3.0091646e+01 -2.7275188e+01 3.3449717e+00 
-2.9822416e+01 -2.7016333e+01 3.4816785e+00 
-2.9850763e+01 -2.7034662e+01 3.3014805e+00 
-2.9739796e+01 -2.6931534e+01 3.3710885e+00 
-3.0074078e+01 -2.7268217e+01 3.6042345e+00 
-3.0103815e+01 -2.7284088e+01 3.3514872e+00 
-2.9905476e+01 -2.7100103e+01 3.5784011e+00 
-2.9930271e+01 -2.7110794e+01 3.3200727e+00 
-2.9655678e+01 -2.6849987e+01 3.4543338e+00 
-2.9665476e+01 -2.6849817e+01 3.2692652e+00 
-2.9734026e+01 -2.6929140e+01 3.5521770e+00 
-2.9572779e+01 -2.6764805e+01 3.3417087e+00 
-3.0079708e+01 -2.7273319e+01 3.6523454e+00 
-2.9753889e+01 -2.6934660e+01 3.2881980e+00 
-3.0110327e+01 -2.7289717e+01 3.3946645e+00 
-2.9821159e+01 -2.7015541e+01 3.6124043e+00 
-2.9845015e+01 -2.7024799e+01 3.3463976e+00 
-2.9488005e+01 -2.6682705e+01 3.4268873e+00 
-2.9495192e+01 -2.6679911e+01 3.2395012e+00 
-2.9559635e+01 -2.6755245e+01 3.5255492e+00 
-2.9574568e+01 -2.6755592e+01 3.2558367e+00 
-2.9404819e+01 -2.6597126e+01 3.3122153e+00 
-2.9648260e+01 -2.6843128e+01 3.5863130e+00 
-3.0089689e+01 -2.7280960e+01 3.6729548e+00 
-2.9667194e+01 -2.6847237e+01 3.3149428e+00 
-3.0114262e+01 -2.7294189e+01 3.4695241e+00 
-2.9319374e+01 -2.6514463e+01 3.3993347e+00 
-2.9336508e+01 -2.6522188e+01 3.2161047e+00 
-2.9382208e+01 -2.6578310e+01 3.4985080e+00 
-2.9743927e+01 -2.6935944e+01 3.6197653e+00 
-2.9472368e+01 -2.6667730e+01 3.5598156e+00 
-2.9392208e+01 -2.6573486e+01 3.2229683e+00 
-2.9759300e+01 -2.6939871e+01 3.4137249e+00 
-2.9898857e+01 -2.7089081e+01 3.6491148e+00 
-2.9486380e+01 -2.6666689e+01 3.2830138e+00 
-2.9235888e+01 -2.6428480e+01 3.2825994e+00 
-2.9917589e+01 -2.7098450e+01 3.4820652e+00 
-2.9585796e+01 -2.6778738e+01 3.5945978e+00 
-2.9597931e+01 -2.6778601e+01 3.3720796e+00 
-3.0100790e+01 -2.7289494e+01 3.6980064e+00 
-3.0116726e+01 -2.7298134e+01 3.5690594e+00 
-2.9149755e+01 -2.6345224e+01 3.3716784e+00 
-2.9167135e+01 -2.6353085e+01 3.1859114e+00 
-2.9201626e+01 -2.6398226e+01 3.4710405e+00 
-2.9293388e+01 -2.6489243e+01 3.5329068e+00 
-2.9206697e+01 -2.6388235e+01 3.1895828e+00 
-2.9302477e+01 -2.6483042e+01 3.2505963e+00 
-2.9065952e+01 -2.6258810e+01 3.2528708e+00 
-2.9392586e+01 -2.6585478e+01 3.5656276e+00 
-2.9397778e+01 -2.6578953e+01 3.3526917e+00 
-2.9672138e+01 -2.6861578e+01 3.6392841e+00 
-2.9907568e+01 -2.7095768e+01 3.6965330e+00 
-2.9917032e+01 -2.7100204e+01 3.6086395e+00 
-2.9675753e+01 -2.6858515e+01 3.5228274e+00 
-2.8997015e+01 -2.6183638e+01 3.1586716e+00 
-2.8979122e+01 -2.6174963e+01 3.3439136e+00 
-2.9111198e+01 -2.6307545e+01 3.5055642e+00 
-2.9228846e+01 -2.6422678e+01 3.5397918e+00 
-2.9017784e+01 -2.6214880e+01 3.4431362e+00 
-3.0110256e+01 -2.7297480e+01 3.7515364e+00 
-3.0117867e+01 -2.7301651e+01 3.6920459e+00 
-2.9115358e+01 -2.6296190e+01 3.2176712e+00 
-2.9230843e+01 -2.6412102e+01 3.3097320e+00 
-2.9017912e+01 -2.6199707e+01 3.1556435e+00 
-2.8894978e+01 -2.6088118e+01 3.2230034e+00 
-2.9318468e+01 -2.6508734e+01 3.5849135e+00 
-2.8807419e+01 -2.6003632e+01 3.3160245e+00 
-2.8825277e+01 -2.6011757e+01 3.1251140e+00 
-2.8925682e+01 -2.6122522e+01 3.4777863e+00 
-2.9311522e+01 -2.6495060e+01 3.4658866e+00 
-2.8830549e+01 -2.6028139e+01 3.4147882e+00 
-2.9028669e+01 -2.6222433e+01 3.5097160e+00 
-2.8924908e+01 -2.6106007e+01 3.1842246e+00 
-2.8825745e+01 -2.6007795e+01 3.1211724e+00 
-2.9023643e+01 -2.6205429e+01 3.2898943e+00 
-2.8722927e+01 -2.5916334e+01 3.1930234e+00 
-3.0113665e+01 -2.7302534e+01 3.8701713e+00 
-2.9830915e+01 -2.7020506e+01 3.8269222e+00 
-2.8634636e+01 -2.5831230e+01 3.2880163e+00 
-2.8652733e+01 -2.5839476e+01 3.0945051e+00 
-2.8736715e+01 -2.5934042e+01 3.4495580e+00 
-2.8841707e+01 -2.6035898e+01 3.4810772e+00 
-2.8850706e+01 -2.6032572e+01 3.2455192e+00 
-2.8639812e+01 -2.5837881e+01 3.3859851e+00 
-2.8730986e+01 -2.5912354e+01 3.1502454e+00 
-2.8549795e+01 -2.5743460e+01 3.1629169e+00 
-2.9548170e+01 -2.6738495e+01 3.7837939e+00 
-2.8907162e+01 -2.6098763e+01 3.5113471e+00 
-2.8630047e+01 -2.5812346e+01 3.0861292e+00 
-2.9106501e+01 -2.6296183e+01 3.5955217e+00 
-2.9116583e+01 -2.6302536e+01 3.5300641e+00 
-2.8934475e+01 -2.6118795e+01 3.4075267e+00 
-2.8494837e+01 -2.5680840e+01 3.0599334e+00 
-2.8460749e+01 -2.5657690e+01 3.2599261e+00 
-2.8651224e+01 -2.5845839e+01 3.4519429e+00 
-2.8544163e+01 -2.5741970e+01 3.4208565e+00 
-2.9265402e+01 -2.6456432e+01 3.7407637e+00 
-2.8445400e+01 -2.5643957e+01 3.3566816e+00 
-2.8635921e+01 -2.5818323e+01 3.2252057e+00 
-2.8533489e+01 -2.5715101e+01 3.1157207e+00 
-2.8375525e+01 -2.5569433e+01 3.1327019e+00 
-2.8430687e+01 -2.5613232e+01 3.0504830e+00 
-2.8823788e+01 -2.6014118e+01 3.5531435e+00 
-2.8474951e+01 -2.5670527e+01 3.4246254e+00 
-2.8285719e+01 -2.5482981e+01 3.2317061e+00 
-2.8311731e+01 -2.5497866e+01 3.0269239e+00 
-2.8347889e+01 -2.5546164e+01 3.3916645e+00 
-2.8456514e+01 -2.5638969e+01 3.1793258e+00 
-2.8982439e+01 -2.6174227e+01 3.6977403e+00 
-2.8571854e+01 -2.5763741e+01 3.4709702e+00 
-2.8247206e+01 -2.5446228e+01 3.3269012e+00 
-2.8200123e+01 -2.5394236e+01 3.1023786e+00 
-2.8332247e+01 -2.5514105e+01 3.0806046e+00 
-2.8543556e+01 -2.5728693e+01 3.3476336e+00 
-2.8227539e+01 -2.5410286e+01 3.0142183e+00 
-2.8109524e+01 -2.5307083e+01 3.2033741e+00 
-2.8124315e+01 -2.5310919e+01 2.9953909e+00 
-2.8259188e+01 -2.5454613e+01 3.3921363e+00 
-2.8147749e+01 -2.5346474e+01 3.3619721e+00 
-2.8699532e+01 -2.5891970e+01 3.6548879e+00 
-2.8023523e+01 -2.5217815e+01 3.0719137e+00 
-2.8233555e+01 -2.5416533e+01 3.1585279e+00 
-2.8045074e+01 -2.5244528e+01 3.2966149e+00 
-2.8127153e+01 -2.5309210e+01 3.0449123e+00 
-2.8020422e+01 -2.5203363e+01 2.9773147e+00 
-2.7932110e+01 -2.5129948e+01 3.1749516e+00 
-2.7951155e+01 -2.5138742e+01 2.9706171e+00 
-2.8075918e+01 -2.5272282e+01 3.3639958e+00 
-2.8176884e+01 -2.5369514e+01 3.4111099e+00 
-2.7943590e+01 -2.5142729e+01 3.3317750e+00 
-2.8047184e+01 -2.5230148e+01 3.1110289e+00 
-2.7845655e+01 -2.5040131e+01 3.0412970e+00 
-2.8416368e+01 -2.5609451e+01 3.6120257e+00 
-2.8137789e+01 -2.5323692e+01 3.2861290e+00 
-2.7838823e+01 -2.5038673e+01 3.2658203e+00 
-2.7917982e+01 -2.5100245e+01 3.0085890e+00 
-2.7776045e+01 -2.4964085e+01 2.9423251e+00 
-2.7753414e+01 -2.4951479e+01 3.1463883e+00 
-2.7809174e+01 -2.4992296e+01 2.9398093e+00 
-2.7851377e+01 -2.5047523e+01 3.3302047e+00 
-2.7666517e+01 -2.4861139e+01 3.0105677e+00 
-2.7735203e+01 -2.4934723e+01 3.3010669e+00 
-2.7815289e+01 -2.4998756e+01 3.0897288e+00 
-2.7628313e+01 -2.4828535e+01 3.2345083e+00 
-2.7704556e+01 -2.4887003e+01 2.9717262e+00 
-2.7974602e+01 -2.5166655e+01 3.4262226e+00 
-2.8132963e+01 -2.5326607e+01 3.5692649e+00 
-2.7573437e+01 -2.4771778e+01 3.1176753e+00 
-2.7592953e+01 -2.4780848e+01 2.9077446e+00 
-2.7593653e+01 -2.4776909e+01 2.9016728e+00 
-2.7660507e+01 -2.4857534e+01 3.3011589e+00 
-2.7765827e+01 -2.4959099e+01 3.3492594e+00 
-2.7486074e+01 -2.4680840e+01 2.9796908e+00 
-2.7522503e+01 -2.4722376e+01 3.2697711e+00 
-2.7621361e+01 -2.4804749e+01 3.0405521e+00 
-2.7715813e+01 -2.4902380e+01 3.2230222e+00 
-2.7433178e+01 -2.4620337e+01 2.8737893e+00 
-2.7610598e+01 -2.4800415e+01 3.2039344e+00 
-2.7395660e+01 -2.4593859e+01 3.0744452e+00 
-2.7413349e+01 -2.4613937e+01 3.2026186e+00 
-2.7486845e+01 -2.4669403e+01 2.9341671e+00 
-2.7849390e+01 -2.5043577e+01 3.5266616e+00 
-2.7373667e+01 -2.4557013e+01 2.8627992e+00 
-2.7304241e+01 -2.4499104e+01 2.9487262e+00 
-2.7426563e+01 -2.4623283e+01 3.2659643e+00 
-2.7305258e+01 -2.4505484e+01 3.2379332e+00 
-2.7239920e+01 -2.4426846e+01 2.8382435e+00 
-2.7209402e+01 -2.4408171e+01 3.0600493e+00 
-2.7379957e+01 -2.4563797e+01 3.0187624e+00 
-2.7193731e+01 -2.4394653e+01 3.1701443e+00 
-2.7264593e+01 -2.4447224e+01 2.8959889e+00 
-2.7121016e+01 -2.4315973e+01 2.9176469e+00 
-2.7565508e+01 -2.4760151e+01 3.4840434e+00 
-2.7149036e+01 -2.4332436e+01 2.8232591e+00 
-2.7346516e+01 -2.4539993e+01 3.2962787e+00 
-2.7207281e+01 -2.4404280e+01 3.2329516e+00 
-2.7025312e+01 -2.4224209e+01 3.0310261e+00 
-2.7083296e+01 -2.4283813e+01 3.2055311e+00 
-2.7177858e+01 -2.4361521e+01 2.9677384e+00 
-2.7040962e+01 -2.4227997e+01 2.8041441e+00 
-2.7276531e+01 -2.4463667e+01 3.1582348e+00 
-2.6969292e+01 -2.4170509e+01 3.1371365e+00 
-2.6936434e+01 -2.4131401e+01 2.8864655e+00 
-2.7037542e+01 -2.4220209e+01 2.8570945e+00 
-2.7030766e+01 -2.4226379e+01 3.2119000e+00 
-2.6919525e+01 -2.4102911e+01 2.7829714e+00 
-2.6839787e+01 -2.4038786e+01 3.0019360e+00 
-2.6860291e+01 -2.4048407e+01 2.7803137e+00 
-2.7281160e+01 -2.4476162e+01 3.4416451e+00 
-2.7122936e+01 -2.4316164e+01 3.2999775e+00 
-2.6856348e+01 -2.4057131e+01 3.1725538e+00 
-2.6798061e+01 -2.3989927e+01 2.9072552e+00 
-2.6925987e+01 -2.4110043e+01 2.9454958e+00 
-2.6750311e+01 -2.3945242e+01 2.8551674e+00 
-2.6739771e+01 -2.3941193e+01 3.1036539e+00 
-2.6805439e+01 -2.3988129e+01 2.8174865e+00 
-2.6652731e+01 -2.3851788e+01 2.9727371e+00 
-2.6671677e+01 -2.3860001e+01 2.7499151e+00 
-2.6754101e+01 -2.3951447e+01 3.1651769e+00 
-2.6684898e+01 -2.3868210e+01 2.7419586e+00 
-2.6863974e+01 -2.4057655e+01 3.2393832e+00 
-2.6863352e+01 -2.4051735e+01 3.1338856e+00 
-2.6996664e+01 -2.4192026e+01 3.3993816e+00 
-2.6624178e+01 -2.3825172e+01 3.1390355e+00 
-2.6562634e+01 -2.3757511e+01 2.8236699e+00 
-2.6691397e+01 -2.3875498e+01 2.9079185e+00 
-2.6504894e+01 -2.3706514e+01 3.0695453e+00 
-2.6508682e+01 -2.3695824e+01 2.7134726e+00 
-2.6464018e+01 -2.3663118e+01 2.9435229e+00 
-2.6568176e+01 -2.3750755e+01 2.7772863e+00 
-2.6519585e+01 -2.3717049e+01 3.1302693e+00 
-2.6444866e+01 -2.3628082e+01 2.7002497e+00 
-2.6373217e+01 -2.3568090e+01 2.7921395e+00 
-2.6386621e+01 -2.3587723e+01 3.1048739e+00 
-2.6577131e+01 -2.3765612e+01 3.0882840e+00 
-2.6546419e+01 -2.3740511e+01 3.1791587e+00 
-2.6711500e+01 -2.3907120e+01 3.3571067e+00 
-2.6451494e+01 -2.3635557e+01 2.8698282e+00 
-2.6294825e+01 -2.3482792e+01 2.6832182e+00 
-2.6271338e+01 -2.3470089e+01 2.8972828e+00 
-2.6264515e+01 -2.3466209e+01 3.0347691e+00 
-2.6325392e+01 -2.3507841e+01 2.7363508e+00 
-2.6182297e+01 -2.3377068e+01 2.7605026e+00 
-2.6318157e+01 -2.3514811e+01 3.1017466e+00 
-2.6199295e+01 -2.3382330e+01 2.6577892e+00 
-2.6143366e+01 -2.3344538e+01 3.0700827e+00 
-2.6081718e+01 -2.3280832e+01 2.8846204e+00 
-2.6103201e+01 -2.3290962e+01 2.6505957e+00 
-2.6206001e+01 -2.3389977e+01 2.8311195e+00 
-2.6304144e+01 -2.3492872e+01 3.0557382e+00 
-2.6425774e+01 -2.3621569e+01 3.3148985e+00 
-2.6018280e+01 -2.3220058e+01 2.9993932e+00 
-2.6248457e+01 -2.3442398e+01 3.1467040e+00 
-2.5989729e+01 -2.3184303e+01 2.7288315e+00 
-2.6076914e+01 -2.3259169e+01 2.6947172e+00 
-2.6066813e+01 -2.3263000e+01 3.0666156e+00 
-2.5888140e+01 -2.3087149e+01 2.8550329e+00 
-2.5909836e+01 -2.3097328e+01 2.6178756e+00 
-2.5947893e+01 -2.3130676e+01 2.6145964e+00 
-2.5894207e+01 -2.3095390e+01 3.0346026e+00 
-2.5954697e+01 -2.3138515e+01 2.7918279e+00 
-2.5795427e+01 -2.2989759e+01 2.6969690e+00 
-2.6029232e+01 -2.3217606e+01 3.0023906e+00 
-2.6139479e+01 -2.3335363e+01 3.2729287e+00 
-2.5766064e+01 -2.2967834e+01 2.9633553e+00 
-2.5822525e+01 -2.3004507e+01 2.6523812e+00 
-2.5970461e+01 -2.3164307e+01 3.1094615e+00 
-2.5692814e+01 -2.2891726e+01 2.8253376e+00 
-2.5714682e+01 -2.2901966e+01 2.5850165e+00 
-2.5802309e+01 -2.2998318e+01 3.0280752e+00 
-2.5690491e+01 -2.2872917e+01 2.5706508e+00 
-2.5599348e+01 -2.2793493e+01 2.6649506e+00 
-2.5638943e+01 -2.2840040e+01 2.9984183e+00 
-2.5697372e+01 -2.2880978e+01 2.7519193e+00 
-2.5495667e+01 -2.2694450e+01 2.7955537e+00 
-2.5517801e+01 -2.2704876e+01 2.5520730e+00 
-2.5507603e+01 -2.2709265e+01 2.9265864e+00 
-2.5852598e+01 -2.3048464e+01 3.2312074e+00 
-2.5561993e+01 -2.2743624e+01 2.6093240e+00 
-2.5703663e+01 -2.2891571e+01 2.9417207e+00 
-2.5693966e+01 -2.2887674e+01 3.0730734e+00 
-2.5401550e+01 -2.2595432e+01 2.6329367e+00 
-2.5532341e+01 -2.2728157e+01 2.9886174e+00 
-2.5426802e+01 -2.2608805e+01 2.5258842e+00 
-2.5377262e+01 -2.2578226e+01 2.9615579e+00 
-2.5474508e+01 -2.2658327e+01 2.7394464e+00 
-2.5296864e+01 -2.2495424e+01 2.7656286e+00 
-2.5319098e+01 -2.2505814e+01 2.5189393e+00 
-2.5242584e+01 -2.2444098e+01 2.8891702e+00 
-2.5565130e+01 -2.2760948e+01 3.1894271e+00 
-2.5201887e+01 -2.2395424e+01 2.6006932e+00 
-2.5294987e+01 -2.2476233e+01 2.5655434e+00 
-2.5411106e+01 -2.2604687e+01 3.0310998e+00 
-2.5390409e+01 -2.2578751e+01 2.9200332e+00 
-2.5258871e+01 -2.2454723e+01 2.9475102e+00 
-2.5096090e+01 -2.2294430e+01 2.7355561e+00 
-2.5118639e+01 -2.2304972e+01 2.4856906e+00 
-2.5156504e+01 -2.2338064e+01 2.4804554e+00 
-2.5108892e+01 -2.2309660e+01 2.9239573e+00 
-2.5205076e+01 -2.2388920e+01 2.7131548e+00 
-2.5000422e+01 -2.2193632e+01 2.5683565e+00 
-2.4970673e+01 -2.2172041e+01 2.8510993e+00 
-2.4983273e+01 -2.2173830e+01 2.6161427e+00 
-2.5277020e+01 -2.2472637e+01 3.1479194e+00 
-2.5021267e+01 -2.2202084e+01 2.5210490e+00 
-2.5129570e+01 -2.2323002e+01 2.9833190e+00 
-2.4893545e+01 -2.2091646e+01 2.7055275e+00 
-2.4916323e+01 -2.2102337e+01 2.4523351e+00 
-2.4981775e+01 -2.2177647e+01 2.9063537e+00 
-2.5104156e+01 -2.2292505e+01 2.8886192e+00 
-2.4879391e+01 -2.2060452e+01 2.4341323e+00 
-2.4797083e+01 -2.1989975e+01 2.5360401e+00 
-2.4833590e+01 -2.2034117e+01 2.8855717e+00 
-2.4924269e+01 -2.2107763e+01 2.6728356e+00 
-2.4689116e+01 -2.1886976e+01 2.6752243e+00 
-2.4711998e+01 -2.1897661e+01 2.4189095e+00 
-2.4691835e+01 -2.1892904e+01 2.8122091e+00 
-2.4988550e+01 -2.2183926e+01 3.1064818e+00 
-2.4740618e+01 -2.1920944e+01 2.4758101e+00 
-2.4846647e+01 -2.2039799e+01 2.9414768e+00 
-2.4591829e+01 -2.1784338e+01 2.5035191e+00 
-2.4700785e+01 -2.1896431e+01 2.8656015e+00 
-2.4822483e+01 -2.2010872e+01 2.8619378e+00 
-2.4559624e+01 -2.1752674e+01 2.6184797e+00 
-2.4595240e+01 -2.1775719e+01 2.3871379e+00 
-2.4551102e+01 -2.1751322e+01 2.8463938e+00 
-2.4482723e+01 -2.1680262e+01 2.6448634e+00 
-2.4633316e+01 -2.1816572e+01 2.6376762e+00 
-2.4484426e+01 -2.1668640e+01 2.3743126e+00 
-2.4405519e+01 -2.1606297e+01 2.7725012e+00 
-2.4384701e+01 -2.1576761e+01 2.4709921e+00 
-2.4699345e+01 -2.1894426e+01 3.0652657e+00 
-2.4455368e+01 -2.1635363e+01 2.4489245e+00 
-2.4551418e+01 -2.1744242e+01 2.8941066e+00 
-2.4421883e+01 -2.1617687e+01 2.8252730e+00 
-2.4548517e+01 -2.1737347e+01 2.8528619e+00 
-2.4275240e+01 -2.1472404e+01 2.6136043e+00 
-2.4298496e+01 -2.1483282e+01 2.3520899e+00 
-2.4303686e+01 -2.1483580e+01 2.3392096e+00 
-2.4262255e+01 -2.1462124e+01 2.8064232e+00 
-2.4177017e+01 -2.1368687e+01 2.4384937e+00 
-2.4284224e+01 -2.1467064e+01 2.5896797e+00 
-2.4114138e+01 -2.1314537e+01 2.7322619e+00 
-2.4409418e+01 -2.1604162e+01 3.0241768e+00 
-2.4067904e+01 -2.1264742e+01 2.5814679e+00 
-2.4091139e+01 -2.1275602e+01 2.3192098e+00 
-2.4161249e+01 -2.1340467e+01 2.3812833e+00 
-2.4258434e+01 -2.1446903e+01 2.8117454e+00 
-2.4197985e+01 -2.1390312e+01 2.8457346e+00 
-2.4081179e+01 -2.1276426e+01 2.7766235e+00 
-2.3970243e+01 -2.1161541e+01 2.4062393e+00 
-2.4012356e+01 -2.1191664e+01 2.2918077e+00 
-2.3972536e+01 -2.1172131e+01 2.7660007e+00 
-2.4010630e+01 -2.1191708e+01 2.4877439e+00 
-2.3861425e+01 -2.1057928e+01 2.5497119e+00 
-2.3877039e+01 -2.1060076e+01 2.2766283e+00 
-2.3826403e+01 -2.1026518e+01 2.6926477e+00 
-2.4119087e+01 -2.1313421e+01 2.9831150e+00 
-2.3871597e+01 -2.1050201e+01 2.3323157e+00 
-2.3764343e+01 -2.0955248e+01 2.3744395e+00 
-2.3834934e+01 -2.1030243e+01 2.7420239e+00 
-2.3942539e+01 -2.1128376e+01 2.6819761e+00 
-2.3959404e+01 -2.1151218e+01 2.8459115e+00 
-2.3829248e+01 -2.1021732e+01 2.7583663e+00 
-2.3724251e+01 -2.0903000e+01 2.2451620e+00 
-2.3655888e+01 -2.0852026e+01 2.5181766e+00 
-2.3679129e+01 -2.0862894e+01 2.2544992e+00 
-2.3686453e+01 -2.0885857e+01 2.7263124e+00 
-2.3722836e+01 -2.0903278e+01 2.4360738e+00 
-2.3559263e+01 -2.0749804e+01 2.3428516e+00 
-2.3542236e+01 -2.0742102e+01 2.6537507e+00 
-2.3828257e+01 -2.1022270e+01 2.9424379e+00 
-2.3585064e+01 -2.0763149e+01 2.2842741e+00 
-2.3502869e+01 -2.0684965e+01 2.2155452e+00 
-2.3451090e+01 -2.0646965e+01 2.4869769e+00 
-2.3550514e+01 -2.0745749e+01 2.7022507e+00 
-2.3668617e+01 -2.0860153e+01 2.8054531e+00 
-2.3677185e+01 -2.0864948e+01 2.7299378e+00 
-2.3439276e+01 -2.0617550e+01 2.1994052e+00 
-2.3566277e+01 -2.0750103e+01 2.5639262e+00 
-2.3403889e+01 -2.0603111e+01 2.6873202e+00 
-2.3354965e+01 -2.0545240e+01 2.3116765e+00 
-2.3498266e+01 -2.0690361e+01 2.7119396e+00 
-2.3438047e+01 -2.0617968e+01 2.3854363e+00 
-2.3247169e+01 -2.0442810e+01 2.4559047e+00 
-2.3261559e+01 -2.0461199e+01 2.6154516e+00 
-2.3537287e+01 -2.0731001e+01 2.9014528e+00 
-2.3301615e+01 -2.0479263e+01 2.2371984e+00 
-2.3239536e+01 -2.0421013e+01 2.1725774e+00 
-2.3269560e+01 -2.0464733e+01 2.6633437e+00 
-2.3151588e+01 -2.0341553e+01 2.2807627e+00 
-2.3377550e+01 -2.0568865e+01 2.7646968e+00 
-2.3386042e+01 -2.0573584e+01 2.6888239e+00 
-2.3157415e+01 -2.0335257e+01 2.1545687e+00 
-2.3124752e+01 -2.0323843e+01 2.6489837e+00 
-2.3044191e+01 -2.0239559e+01 2.4251695e+00 
-2.3067369e+01 -2.0250364e+01 2.1600137e+00 
-2.3226667e+01 -2.0409548e+01 2.4896169e+00 
-2.3207186e+01 -2.0398991e+01 2.6712775e+00 
-2.3156322e+01 -2.0335796e+01 2.3358510e+00 
-2.3035072e+01 -2.0220112e+01 2.2938182e+00 
-2.2984259e+01 -2.0183762e+01 2.5777972e+00 
-2.2949041e+01 -2.0138790e+01 2.2501323e+00 
-2.3245842e+01 -2.0439373e+01 2.8604341e+00 
-2.2976717e+01 -2.0156004e+01 2.1217217e+00 
-2.3021204e+01 -2.0198528e+01 2.1910610e+00 
-2.2991947e+01 -2.0187155e+01 2.6251521e+00 
-2.3085997e+01 -2.0277124e+01 2.7241645e+00 
-2.3094391e+01 -2.0281740e+01 2.6479635e+00 
-2.2841984e+01 -2.0037172e+01 2.3947256e+00 
-2.2865154e+01 -2.0047951e+01 2.1291063e+00 
-2.2854500e+01 -2.0043732e+01 2.3303738e+00 
-2.2878531e+01 -2.0056070e+01 2.1105127e+00 
-2.2865900e+01 -2.0054886e+01 2.3828280e+00 
-2.2848948e+01 -2.0048037e+01 2.6113493e+00 
-2.2934860e+01 -2.0117628e+01 2.4494483e+00 
-2.2915709e+01 -2.0107338e+01 2.6307409e+00 
-2.2877529e+01 -2.0056744e+01 2.2872295e+00 
-2.2747301e+01 -1.9936872e+01 2.2199123e+00 
-2.2774836e+01 -1.9953997e+01 2.0905073e+00 
-2.2710321e+01 -1.9909777e+01 2.5408149e+00 
-2.2681772e+01 -1.9865210e+01 2.1097744e+00 
-2.2743769e+01 -1.9920889e+01 2.1457582e+00 
-2.2953955e+01 -2.0147375e+01 2.8196242e+00 
-2.2692329e+01 -1.9877350e+01 2.2426252e+00 
-2.2640596e+01 -1.9835672e+01 2.3645220e+00 
-2.2717619e+01 -1.9912998e+01 2.5877278e+00 
-2.2794052e+01 -1.9985126e+01 2.6838136e+00 
-2.2802338e+01 -1.9989643e+01 2.6073465e+00 
-2.2546333e+01 -1.9735846e+01 2.1899488e+00 
-2.2602564e+01 -1.9779991e+01 2.0673726e+00 
-2.2576504e+01 -1.9775640e+01 2.5742202e+00 
-2.2601748e+01 -1.9780802e+01 2.2396798e+00 
-2.2642687e+01 -1.9825527e+01 2.4093971e+00 
-2.2623905e+01 -1.9815516e+01 2.5902889e+00 
-2.2439991e+01 -1.9635082e+01 2.3345718e+00 
-2.2480562e+01 -1.9666430e+01 2.2206872e+00 
-2.2463026e+01 -1.9645750e+01 2.0685093e+00 
-2.2439619e+01 -1.9639189e+01 2.5042949e+00 
-2.2469313e+01 -1.9646378e+01 2.1014938e+00 
-2.2661741e+01 -1.9855190e+01 2.7790051e+00 
-2.2446644e+01 -1.9642292e+01 2.5508766e+00 
-2.2346239e+01 -1.9535772e+01 2.1603243e+00 
-2.2373556e+01 -1.9552763e+01 2.0293226e+00 
-2.2319624e+01 -1.9509342e+01 2.3176475e+00 
-2.2307301e+01 -1.9506689e+01 2.5377321e+00 
-2.2329651e+01 -1.9507071e+01 2.0251114e+00 
-2.2501839e+01 -1.9693024e+01 2.6436045e+00 
-2.2510029e+01 -1.9697454e+01 2.5669236e+00 
-2.2286190e+01 -1.9472445e+01 2.1888778e+00 
-2.2263166e+01 -1.9454517e+01 2.2594976e+00 
-2.2240292e+01 -1.9435453e+01 2.3048348e+00 
-2.2263260e+01 -1.9446079e+01 2.0387423e+00 
-2.2328907e+01 -1.9507963e+01 2.1930432e+00 
-2.2350355e+01 -1.9533407e+01 2.3695867e+00 
-2.2331882e+01 -1.9523609e+01 2.5499394e+00 
-2.2172173e+01 -1.9372007e+01 2.4683745e+00 
-2.2146982e+01 -1.9336637e+01 2.1310003e+00 
-2.2174175e+01 -1.9353556e+01 1.9992096e+00 
-2.2197699e+01 -1.9374969e+01 2.0581470e+00 
-2.2178934e+01 -1.9374985e+01 2.5146263e+00 
-2.2369295e+01 -1.9562916e+01 2.7384615e+00 
-2.2041443e+01 -1.9236778e+01 2.2753458e+00 
-2.2064350e+01 -1.9247372e+01 2.0093148e+00 
-2.2046831e+01 -1.9236732e+01 2.2193887e+00 
-2.2041349e+01 -1.9241159e+01 2.5017445e+00 
-2.2059649e+01 -1.9237280e+01 1.9836260e+00 
-2.2209448e+01 -1.9400879e+01 2.6034210e+00 
-2.2217537e+01 -1.9405220e+01 2.5265863e+00 
-2.1948586e+01 -1.9138453e+01 2.1019659e+00 
-2.2059040e+01 -1.9238251e+01 2.1473980e+00 
-2.1975704e+01 -1.9155327e+01 1.9694541e+00 
-2.1907948e+01 -1.9108208e+01 2.4329457e+00 
-2.2057882e+01 -1.9241320e+01 2.3299534e+00 
-2.2039749e+01 -1.9231756e+01 2.5096250e+00 
-2.1866329e+01 -1.9049616e+01 1.9801250e+00 
-2.1929213e+01 -1.9106693e+01 2.0155532e+00 
-2.1914486e+01 -1.9111090e+01 2.4790354e+00 
-2.1821037e+01 -1.9017618e+01 2.2727962e+00 
-2.1824352e+01 -1.9015291e+01 2.2016485e+00 
-2.2076689e+01 -1.9270670e+01 2.6979547e+00 
-2.1751085e+01 -1.8941265e+01 2.0731771e+00 
-2.1778616e+01 -1.8978960e+01 2.4662817e+00 
-2.1778109e+01 -1.8958073e+01 1.9399694e+00 
-2.1792633e+01 -1.8970587e+01 1.9429363e+00 
-2.1916952e+01 -1.9108852e+01 2.5633366e+00 
-2.1924931e+01 -1.9113100e+01 2.4864042e+00 
-2.1792101e+01 -1.8971659e+01 2.1026330e+00 
-2.1646349e+01 -1.8842319e+01 2.2170541e+00 
-2.1669184e+01 -1.8852865e+01 1.9512914e+00 
-2.1646912e+01 -1.8847780e+01 2.3979683e+00 
-2.1769922e+01 -1.8962605e+01 2.4659281e+00 
-2.1765369e+01 -1.8949385e+01 2.2905822e+00 
-2.1653267e+01 -1.8850611e+01 2.4438994e+00 
-2.1663570e+01 -1.8841543e+01 1.9738572e+00 
-2.1554468e+01 -1.8745018e+01 2.0446646e+00 
-2.1581415e+01 -1.8761810e+01 1.9107410e+00 
-2.1784033e+01 -1.8978600e+01 2.6575158e+00 
-2.1519043e+01 -1.8720127e+01 2.4313018e+00 
-2.1472759e+01 -1.8670370e+01 2.2306280e+00 
-2.1528467e+01 -1.8707048e+01 1.9030728e+00 
-2.1474874e+01 -1.8666195e+01 2.1421771e+00 
-2.1472940e+01 -1.8657045e+01 1.9226836e+00 
-2.1528124e+01 -1.8708206e+01 2.0587153e+00 
-2.1624453e+01 -1.8817053e+01 2.5233448e+00 
-2.1632317e+01 -1.8821205e+01 2.4463625e+00 
-2.1389029e+01 -1.8590660e+01 2.3634303e+00 
-2.1358765e+01 -1.8549814e+01 2.0163715e+00 
-2.1385563e+01 -1.8566544e+01 1.8819447e+00 
-2.1486813e+01 -1.8680321e+01 2.4239926e+00 
-2.1400856e+01 -1.8579502e+01 1.9329298e+00 
-2.1472834e+01 -1.8657734e+01 2.2514119e+00 
-2.1365889e+01 -1.8563498e+01 2.4019034e+00 
-2.1289961e+01 -1.8481995e+01 2.1176503e+00 
-2.1257524e+01 -1.8455942e+01 2.2041755e+00 
-2.1277596e+01 -1.8462326e+01 1.8944873e+00 
-2.1262646e+01 -1.8464672e+01 2.3967910e+00 
-2.1491381e+01 -1.8686829e+01 2.6171427e+00 
-2.1267204e+01 -1.8446571e+01 1.8639191e+00 
-2.1163954e+01 -1.8355680e+01 1.9884424e+00 
-2.1190649e+01 -1.8372339e+01 1.8534681e+00 
-2.1267006e+01 -1.8447868e+01 2.0156186e+00 
-2.1134283e+01 -1.8336857e+01 2.3293395e+00 
-2.1331966e+01 -1.8525620e+01 2.4833937e+00 
-2.1339733e+01 -1.8529684e+01 2.4064181e+00 
-2.1140242e+01 -1.8339592e+01 2.3749926e+00 
-2.1083141e+01 -1.8268621e+01 1.8665396e+00 
-2.1141024e+01 -1.8320616e+01 1.8927456e+00 
-2.1043261e+01 -1.8242174e+01 2.1628468e+00 
-2.1160664e+01 -1.8355547e+01 2.3748238e+00 
-2.1180387e+01 -1.8366449e+01 2.2123802e+00 
-2.1009336e+01 -1.8212456e+01 2.3627031e+00 
-2.0970045e+01 -1.8162537e+01 1.9607718e+00 
-2.0996668e+01 -1.8179134e+01 1.8251816e+00 
-2.1008879e+01 -1.8189123e+01 1.8253639e+00 
-2.1198812e+01 -1.8395498e+01 2.5767887e+00 
-2.1008781e+01 -1.8190641e+01 1.9733198e+00 
-2.0911020e+01 -1.8105360e+01 2.0794609e+00 
-2.0870546e+01 -1.8068953e+01 2.0993907e+00 
-2.0882593e+01 -1.8086407e+01 2.2956755e+00 
-2.0889606e+01 -1.8075916e+01 1.8388848e+00 
-2.0911354e+01 -1.8101347e+01 2.0409627e+00 
-2.0910992e+01 -1.8105120e+01 2.1889448e+00 
-2.1039623e+01 -1.8234686e+01 2.4433994e+00 
-2.1047308e+01 -1.8238665e+01 2.3665142e+00 
-2.0884096e+01 -1.8064772e+01 1.8535253e+00 
-2.0871767e+01 -1.8071188e+01 2.3323777e+00 
-2.0777014e+01 -1.7970388e+01 1.9333401e+00 
-2.0803576e+01 -1.7986938e+01 1.7972172e+00 
-2.0759129e+01 -1.7963572e+01 2.3289096e+00 
-2.0890808e+01 -1.8077854e+01 2.1542857e+00 
-2.0753380e+01 -1.7934906e+01 1.7876968e+00 
-2.0674496e+01 -1.7874016e+01 2.0750458e+00 
-2.0698278e+01 -1.7893253e+01 2.0405757e+00 
-2.0697035e+01 -1.7884308e+01 1.8115243e+00 
-2.0800802e+01 -1.7997007e+01 2.3448882e+00 
-2.0752787e+01 -1.7936453e+01 1.9592272e+00 
-2.0906513e+01 -1.8104750e+01 2.5365064e+00 
-2.0634018e+01 -1.7839176e+01 2.2623231e+00 
-2.0584976e+01 -1.7779346e+01 1.9062843e+00 
-2.0639681e+01 -1.7841846e+01 2.3077893e+00 
-2.0611427e+01 -1.7795858e+01 1.7696249e+00 
-2.0629940e+01 -1.7811975e+01 1.8147775e+00 
-2.0747669e+01 -1.7944340e+01 2.4035378e+00 
-2.0755241e+01 -1.7948225e+01 2.3267336e+00 
-2.0489651e+01 -1.7691681e+01 2.0936880e+00 
-2.0505383e+01 -1.7693724e+01 1.7844594e+00 
-2.0511976e+01 -1.7717995e+01 2.2956328e+00 
-2.0486010e+01 -1.7682455e+01 2.0130863e+00 
-2.0500690e+01 -1.7683619e+01 1.7505883e+00 
-2.0596159e+01 -1.7785582e+01 2.1345849e+00 
-2.0517797e+01 -1.7716991e+01 2.2780404e+00 
-2.0393890e+01 -1.7589369e+01 1.8793750e+00 
-2.0500912e+01 -1.7685425e+01 1.8912203e+00 
-2.0420221e+01 -1.7605856e+01 1.7422557e+00 
-2.0388420e+01 -1.7595190e+01 2.2294178e+00 
-2.0614414e+01 -1.7814383e+01 2.4963677e+00 
-2.0393887e+01 -1.7597902e+01 2.2748635e+00 
-2.0378702e+01 -1.7562271e+01 1.7766839e+00 
-2.0314682e+01 -1.7504240e+01 1.7576025e+00 
-2.0495850e+01 -1.7693913e+01 2.3455002e+00 
-2.0280142e+01 -1.7483828e+01 2.0713627e+00 
-2.0493896e+01 -1.7689207e+01 2.3152795e+00 
-2.0274395e+01 -1.7472790e+01 1.9954978e+00 
-2.0267735e+01 -1.7475571e+01 2.2628517e+00 
-2.0203690e+01 -1.7400434e+01 1.8526673e+00 
-2.0230021e+01 -1.7416925e+01 1.7151467e+00 
-2.0250828e+01 -1.7435396e+01 1.7140548e+00 
-2.0145823e+01 -1.7354450e+01 2.1968784e+00 
-2.0288454e+01 -1.7488028e+01 2.2697864e+00 
-2.0169230e+01 -1.7366625e+01 1.9896117e+00 
-2.0226940e+01 -1.7412922e+01 1.8305531e+00 
-2.0124876e+01 -1.7315796e+01 1.7310044e+00 
-2.0151073e+01 -1.7357077e+01 2.2423573e+00 
-2.0076519e+01 -1.7281240e+01 2.0292561e+00 
-2.0322725e+01 -1.7524584e+01 2.4559991e+00 
-2.0130171e+01 -1.7315641e+01 1.7395152e+00 
-2.0132515e+01 -1.7335470e+01 2.2243845e+00 
-2.0095798e+01 -1.7296576e+01 2.1069441e+00 
-2.0014452e+01 -1.7212662e+01 1.8261619e+00 
-2.0040667e+01 -1.7229046e+01 1.6881590e+00 
-2.0026543e+01 -1.7236244e+01 2.2300749e+00 
-2.0116503e+01 -1.7307028e+01 1.9742203e+00 
-2.0164454e+01 -1.7365055e+01 2.3238914e+00 
-2.0003698e+01 -1.7190147e+01 1.6783606e+00 
-2.0171770e+01 -1.7368752e+01 2.2475355e+00 
-1.9939970e+01 -1.7140804e+01 1.9446940e+00 
-1.9913849e+01 -1.7118542e+01 1.9652964e+00 
-1.9936115e+01 -1.7128569e+01 1.7048335e+00 
-1.9906147e+01 -1.7116734e+01 2.1647263e+00 
-2.0004160e+01 -1.7192282e+01 1.8120023e+00 
-1.9911243e+01 -1.7119345e+01 2.2100286e+00 
-1.9997606e+01 -1.7199484e+01 2.2298257e+00 
-1.9826220e+01 -1.7026001e+01 1.8002069e+00 
-1.9852345e+01 -1.7042303e+01 1.6616764e+00 
-1.9884455e+01 -1.7071907e+01 1.7026716e+00 
-1.9814400e+01 -1.7013186e+01 1.8937044e+00 
-2.0031338e+01 -1.7235661e+01 2.4156611e+00 
-1.9788313e+01 -1.7000206e+01 2.1980345e+00 
-1.9746084e+01 -1.6953613e+01 1.9829851e+00 
-1.9748276e+01 -1.6942356e+01 1.6788661e+00 
-1.9762781e+01 -1.6965153e+01 2.0104418e+00 
-1.9759327e+01 -1.6947868e+01 1.6433293e+00 
-1.9669418e+01 -1.6882288e+01 2.1326916e+00 
-1.9873650e+01 -1.7076939e+01 2.2843981e+00 
-1.9759874e+01 -1.6950106e+01 1.7735023e+00 
-1.9638968e+01 -1.6840408e+01 1.7742817e+00 
-1.9664972e+01 -1.6856741e+01 1.6353552e+00 
-1.9829842e+01 -1.7028116e+01 2.1334119e+00 
-1.9674292e+01 -1.6884762e+01 2.1780801e+00 
-1.9713793e+01 -1.6907366e+01 1.8899890e+00 
-1.9641432e+01 -1.6831095e+01 1.6668477e+00 
-1.9660814e+01 -1.6867683e+01 2.1579988e+00 
-1.9707350e+01 -1.6912050e+01 2.1900945e+00 
-1.9561440e+01 -1.6757296e+01 1.6530647e+00 
-1.9538065e+01 -1.6748241e+01 1.9709020e+00 
-1.9552763e+01 -1.6767191e+01 2.1661456e+00 
-1.9527298e+01 -1.6732529e+01 1.8963943e+00 
-1.9741011e+01 -1.6948277e+01 2.3761566e+00 
-1.9517736e+01 -1.6708715e+01 1.6087022e+00 
-1.9452612e+01 -1.6655920e+01 1.7484998e+00 
-1.9478600e+01 -1.6672228e+01 1.6093987e+00 
-1.9435457e+01 -1.6650797e+01 2.1013994e+00 
-1.9518364e+01 -1.6711065e+01 1.7356691e+00 
-1.9464691e+01 -1.6665611e+01 1.8482599e+00 
-1.9440590e+01 -1.6653549e+01 2.1464205e+00 
-1.9583588e+01 -1.6790068e+01 2.2445986e+00 
-1.9590731e+01 -1.6793556e+01 2.1689043e+00 
-1.9375500e+01 -1.6573353e+01 1.6275322e+00 
-1.9401091e+01 -1.6593504e+01 1.6316757e+00 
-1.9345999e+01 -1.6550066e+01 1.8375249e+00 
-1.9303316e+01 -1.6516022e+01 1.9363122e+00 
-1.9320446e+01 -1.6537298e+01 2.1343951e+00 
-1.9476435e+01 -1.6676485e+01 2.0099187e+00 
-1.9267361e+01 -1.6472801e+01 1.7228568e+00 
-1.9417631e+01 -1.6625523e+01 2.1502063e+00 
-1.9293207e+01 -1.6489031e+01 1.5836637e+00 
-1.9278782e+01 -1.6472431e+01 1.5749321e+00 
-1.9204504e+01 -1.6422588e+01 2.0698869e+00 
-1.9450920e+01 -1.6661507e+01 2.3356907e+00 
-1.9279732e+01 -1.6475233e+01 1.6985021e+00 
-1.9168818e+01 -1.6381176e+01 1.8586435e+00 
-1.9190691e+01 -1.6390821e+01 1.6024597e+00 
-1.9279398e+01 -1.6477488e+01 1.8139294e+00 
-1.9185421e+01 -1.6402039e+01 2.1138995e+00 
-1.9163568e+01 -1.6358669e+01 1.5969844e+00 
-1.9083067e+01 -1.6290878e+01 1.6977595e+00 
-1.9116199e+01 -1.6323315e+01 1.8099608e+00 
-1.9293961e+01 -1.6503817e+01 2.2046921e+00 
-1.9301022e+01 -1.6507212e+01 2.1293764e+00 
-1.9072298e+01 -1.6289345e+01 1.9478990e+00 
-1.9109056e+01 -1.6307110e+01 1.5581326e+00 
-1.9090591e+01 -1.6310631e+01 2.1031036e+00 
-1.9147797e+01 -1.6354319e+01 1.9079968e+00 
-1.9110840e+01 -1.6316805e+01 1.8296795e+00 
-1.9004183e+01 -1.6218239e+01 1.8219930e+00 
-1.9097101e+01 -1.6310852e+01 2.0796204e+00 
-1.9006918e+01 -1.6209517e+01 1.5775836e+00 
-1.9042692e+01 -1.6239368e+01 1.5417449e+00 
-1.9128622e+01 -1.6340136e+01 2.1104715e+00 
-1.9143566e+01 -1.6347347e+01 1.9429749e+00 
-1.8976368e+01 -1.6197577e+01 2.0388415e+00 
-1.9043528e+01 -1.6242081e+01 1.6624502e+00 
-1.8981192e+01 -1.6200003e+01 2.0834351e+00 
-1.9161484e+01 -1.6375813e+01 2.2952437e+00 
-1.8899874e+01 -1.6110212e+01 1.6730372e+00 
-1.8925587e+01 -1.6126209e+01 1.5327861e+00 
-1.8889160e+01 -1.6099670e+01 1.7825739e+00 
-1.8928619e+01 -1.6127163e+01 1.5633717e+00 
-1.8864082e+01 -1.6087090e+01 2.0720644e+00 
-1.8805042e+01 -1.6024496e+01 1.8705622e+00 
-1.8824141e+01 -1.6029284e+01 1.5528537e+00 
-1.9005215e+01 -1.6219103e+01 2.1648293e+00 
-1.9012119e+01 -1.6222359e+01 2.0901089e+00 
-1.8859648e+01 -1.6072451e+01 1.9167837e+00 
-1.8809204e+01 -1.6009230e+01 1.5092398e+00 
-1.8905571e+01 -1.6111017e+01 1.8421662e+00 
-1.8751057e+01 -1.5975662e+01 2.0079961e+00 
-1.8717680e+01 -1.5930576e+01 1.6481497e+00 
-1.8677511e+01 -1.5895155e+01 1.8592391e+00 
-1.8649399e+01 -1.5861334e+01 1.6279967e+00 
-1.8873245e+01 -1.6091949e+01 2.2548707e+00 
-1.8536428e+01 -1.5752229e+01 1.6236711e+00 
-1.8529894e+01 -1.5751573e+01 1.7718260e+00 
-1.8555635e+01 -1.5764199e+01 1.5051069e+00 
-1.8527571e+01 -1.5753196e+01 1.8868750e+00 
-1.8567600e+01 -1.5773231e+01 1.4801022e+00 
-1.8528797e+01 -1.5756711e+01 1.9780377e+00 
-1.8578897e+01 -1.5782528e+01 1.4768176e+00 
-1.8534924e+01 -1.5763021e+01 2.0278304e+00 
-1.8585943e+01 -1.5789630e+01 1.5194708e+00 
-1.8547602e+01 -1.5772915e+01 2.0218194e+00 
-1.8589792e+01 -1.5795365e+01 1.6031433e+00 
-1.8562998e+01 -1.5784663e+01 2.0040405e+00 
-1.8591887e+01 -1.5800285e+01 1.7237182e+00 
-1.8575108e+01 -1.5794938e+01 2.0295906e+00 
-1.8591993e+01 -1.5804135e+01 1.8719010e+00 
-1.8583302e+01 -1.5803658e+01 2.0970259e+00 
-1.8591812e+01 -1.5808232e+01 2.0206490e+00 
-1.8351349e+01 -1.5570055e+01 1.5986794e+00 
-1.8586077e+01 -1.5809452e+01 2.2147388e+00 
-1.8307173e+01 -1.5539067e+01 1.9481453e+00 
-1.8295858e+01 -1.5522683e+01 1.7809247e+00 
-1.8320305e+01 -1.5532665e+01 1.4745917e+00 
-1.8347303e+01 -1.5554691e+01 1.4442005e+00 
-1.8256239e+01 -1.5476338e+01 1.6886934e+00 
-1.8293869e+01 -1.5502815e+01 1.4944184e+00 
-1.8238180e+01 -1.5449186e+01 1.4344003e+00 
-1.8293518e+01 -1.5519732e+01 1.9662210e+00 
-1.8296017e+01 -1.5507652e+01 1.6185398e+00 
-1.8195999e+01 -1.5430308e+01 1.9810549e+00 
-1.8160866e+01 -1.5382845e+01 1.5727928e+00 
-1.8142294e+01 -1.5375113e+01 1.8530414e+00 
-1.8279915e+01 -1.5495502e+01 1.7500048e+00 
-1.8084343e+01 -1.5320033e+01 1.9173979e+00 
-1.8069452e+01 -1.5299438e+01 1.7249081e+00 
-1.8084095e+01 -1.5308516e+01 1.6588537e+00 
-1.8079178e+01 -1.5296103e+01 1.4475110e+00 
-1.8113235e+01 -1.5335124e+01 1.6761570e+00 
-1.8113255e+01 -1.5324863e+01 1.4122134e+00 
-1.8092756e+01 -1.5326581e+01 1.9619188e+00 
-1.8297832e+01 -1.5526248e+01 2.1742241e+00 
-1.8233894e+01 -1.5455698e+01 1.9363799e+00 
-1.8119289e+01 -1.5332783e+01 1.5288521e+00 
-1.7965063e+01 -1.5190702e+01 1.5464978e+00 
-1.7961861e+01 -1.5198236e+01 1.8335485e+00 
-1.7997604e+01 -1.5223176e+01 1.6623578e+00 
-1.7998158e+01 -1.5213529e+01 1.4021264e+00 
-1.7972443e+01 -1.5210728e+01 1.9502379e+00 
-1.8142298e+01 -1.5370598e+01 2.0448124e+00 
-1.7998047e+01 -1.5212015e+01 1.4322683e+00 
-1.7892101e+01 -1.5124912e+01 1.6812444e+00 
-1.7887093e+01 -1.5114375e+01 1.6030509e+00 
-1.7880924e+01 -1.5101774e+01 1.4195538e+00 
-1.7859947e+01 -1.5100034e+01 1.8860788e+00 
-1.7978916e+01 -1.5209439e+01 1.9506848e+00 
-1.7992632e+01 -1.5215728e+01 1.7893879e+00 
-1.7876850e+01 -1.5092905e+01 1.3798885e+00 
-1.7868681e+01 -1.5106689e+01 1.9307165e+00 
-1.7931339e+01 -1.5151268e+01 1.6149073e+00 
-1.7891277e+01 -1.5108541e+01 1.4806465e+00 
-1.7874487e+01 -1.5109073e+01 1.9090732e+00 
-1.7763720e+01 -1.4993385e+01 1.5198807e+00 
-1.7796701e+01 -1.5016378e+01 1.3761394e+00 
-1.8010124e+01 -1.5243492e+01 2.1338551e+00 
-1.7732321e+01 -1.4970982e+01 1.7307310e+00 
-1.7747116e+01 -1.4990108e+01 1.9192344e+00 
-1.7779371e+01 -1.5007019e+01 1.6251606e+00 
-1.7760473e+01 -1.4979097e+01 1.3997830e+00 
-1.7676895e+01 -1.4901769e+01 1.3905447e+00 
-1.7855274e+01 -1.5088775e+01 2.0047433e+00 
-1.7861698e+01 -1.5091732e+01 1.9318006e+00 
-1.7633778e+01 -1.4878753e+01 1.8551636e+00 
-1.7659903e+01 -1.4892363e+01 1.6293339e+00 
-1.7642580e+01 -1.4885366e+01 1.8986117e+00 
-1.7637995e+01 -1.4858841e+01 1.3468916e+00 
-1.7556387e+01 -1.4790477e+01 1.4922009e+00 
-1.7589624e+01 -1.4813533e+01 1.3475636e+00 
-1.7643742e+01 -1.4866935e+01 1.4649981e+00 
-1.7693192e+01 -1.4929366e+01 1.9106190e+00 
-1.7706373e+01 -1.4935278e+01 1.7514908e+00 
-1.7520527e+01 -1.4768253e+01 1.8875661e+00 
-1.7478512e+01 -1.4722265e+01 1.6871085e+00 
-1.7723736e+01 -1.4962471e+01 2.0927517e+00 
-1.7467131e+01 -1.4696281e+01 1.3608780e+00 
-1.7520197e+01 -1.4744137e+01 1.3671366e+00 
-1.7493654e+01 -1.4732133e+01 1.7014362e+00 
-1.7406319e+01 -1.4656134e+01 1.8239059e+00 
-1.7432671e+01 -1.4670100e+01 1.5961932e+00 
-1.7473568e+01 -1.4716605e+01 1.8523864e+00 
-1.7415516e+01 -1.4663175e+01 1.8665373e+00 
-1.7569946e+01 -1.4809503e+01 1.9643559e+00 
-1.7576216e+01 -1.4812364e+01 1.8922879e+00 
-1.7472309e+01 -1.4702013e+01 1.5491992e+00 
-1.7343122e+01 -1.4581959e+01 1.4638476e+00 
-1.7396620e+01 -1.4622929e+01 1.3139442e+00 
-1.7373009e+01 -1.4601956e+01 1.3205758e+00 
-1.7415043e+01 -1.4642922e+01 1.4162900e+00 
-1.7292513e+01 -1.4545407e+01 1.8553994e+00 
-1.7292109e+01 -1.4531755e+01 1.5227470e+00 
-1.7256042e+01 -1.4505352e+01 1.6627827e+00 
-1.7408970e+01 -1.4651509e+01 1.8705319e+00 
-1.7421820e+01 -1.4657244e+01 1.7139865e+00 
-1.7250999e+01 -1.4485100e+01 1.3305475e+00 
-1.7277603e+01 -1.4507292e+01 1.3347915e+00 
-1.7438988e+01 -1.4684279e+01 2.0518732e+00 
-1.7177589e+01 -1.4432789e+01 1.7919323e+00 
-1.7207382e+01 -1.4448505e+01 1.5431257e+00 
-1.7186876e+01 -1.4439914e+01 1.8344687e+00 
-1.7123592e+01 -1.4367638e+01 1.4348149e+00 
-1.7157307e+01 -1.4391200e+01 1.2890532e+00 
-1.7196953e+01 -1.4430729e+01 1.4041653e+00 
-1.7152933e+01 -1.4385073e+01 1.2812634e+00 
-1.7286327e+01 -1.4532876e+01 1.9243122e+00 
-1.7292469e+01 -1.4535631e+01 1.8531439e+00 
-1.7088760e+01 -1.4334197e+01 1.5300771e+00 
-1.7063204e+01 -1.4321686e+01 1.8231052e+00 
-1.7031321e+01 -1.4286165e+01 1.6358351e+00 
-1.7028572e+01 -1.4268105e+01 1.2996370e+00 
-1.7087862e+01 -1.4340337e+01 1.7961268e+00 
-1.7126410e+01 -1.4376409e+01 1.8309063e+00 
-1.7139063e+01 -1.4381905e+01 1.6765212e+00 
-1.7032669e+01 -1.4268518e+01 1.3023462e+00 
-1.6947519e+01 -1.4208684e+01 1.7592560e+00 
-1.6978441e+01 -1.4237445e+01 1.8069729e+00 
-1.7043304e+01 -1.4284602e+01 1.5170218e+00 
-1.7155962e+01 -1.4408641e+01 2.0112295e+00 
-1.6897604e+01 -1.4147661e+01 1.4050006e+00 
-1.6926121e+01 -1.4165994e+01 1.2582133e+00 
-1.6906679e+01 -1.4145412e+01 1.2488248e+00 
-1.6937307e+01 -1.4177747e+01 1.3573686e+00 
-1.6858322e+01 -1.4109844e+01 1.4964447e+00 
-1.6873514e+01 -1.4122925e+01 1.4901174e+00 
-1.6832186e+01 -1.4097155e+01 1.7910951e+00 
-1.6801212e+01 -1.4062419e+01 1.6045237e+00 
-1.7004248e+01 -1.4258443e+01 1.8844725e+00 
-1.7010252e+01 -1.4261080e+01 1.8141299e+00 
-1.6799393e+01 -1.4045167e+01 1.2693890e+00 
-1.6716047e+01 -1.3984031e+01 1.7267659e+00 
-1.6785471e+01 -1.4028396e+01 1.2697871e+00 
-1.6845331e+01 -1.4103055e+01 1.7914615e+00 
-1.6857622e+01 -1.4108338e+01 1.6392757e+00 
-1.6725670e+01 -1.3991426e+01 1.7686576e+00 
-1.6665030e+01 -1.3921753e+01 1.3745015e+00 
-1.6676828e+01 -1.3923828e+01 1.2258755e+00 
-1.6874506e+01 -1.4135059e+01 1.9706901e+00 
-1.6658335e+01 -1.3904286e+01 1.2160345e+00 
-1.6626549e+01 -1.3884830e+01 1.4627073e+00 
-1.6600031e+01 -1.3872342e+01 1.7585012e+00 
-1.6637964e+01 -1.3895312e+01 1.4839050e+00 
-1.6568260e+01 -1.3836492e+01 1.5744671e+00 
-1.6664724e+01 -1.3913122e+01 1.3369706e+00 
-1.6563345e+01 -1.3816132e+01 1.2388098e+00 
-1.6625937e+01 -1.3891514e+01 1.7297966e+00 
-1.6723753e+01 -1.3986069e+01 1.8448535e+00 
-1.6729633e+01 -1.3988625e+01 1.7753820e+00 
-1.6483332e+01 -1.3758493e+01 1.6943181e+00 
-1.6515409e+01 -1.3788292e+01 1.7407826e+00 
-1.6535898e+01 -1.3786395e+01 1.2370964e+00 
-1.6586605e+01 -1.3852284e+01 1.7623444e+00 
-1.6425505e+01 -1.3689659e+01 1.3432542e+00 
-1.6547110e+01 -1.3803198e+01 1.4545702e+00 
-1.6577965e+01 -1.3837268e+01 1.6023768e+00 
-1.6431322e+01 -1.3686011e+01 1.1944523e+00 
-1.6393291e+01 -1.3658931e+01 1.4287707e+00 
-1.6594627e+01 -1.3863607e+01 1.9304873e+00 
-1.6407396e+01 -1.3661321e+01 1.1829795e+00 
-1.6367159e+01 -1.3646276e+01 1.7258822e+00 
-1.6438972e+01 -1.3694726e+01 1.2922395e+00 
-1.6337330e+01 -1.3613387e+01 1.5536089e+00 
-1.6315468e+01 -1.3576633e+01 1.2137527e+00 
-1.6249414e+01 -1.3532095e+01 1.6613611e+00 
-1.6444878e+01 -1.3715943e+01 1.8055484e+00 
-1.6450596e+01 -1.3718403e+01 1.7369685e+00 
-1.6259243e+01 -1.3539805e+01 1.7024419e+00 
-1.6283911e+01 -1.3542926e+01 1.2035128e+00 
-1.6227955e+01 -1.3489065e+01 1.1661661e+00 
-1.6178875e+01 -1.3451185e+01 1.3109949e+00 
-1.6288185e+01 -1.3563400e+01 1.7132704e+00 
-1.6299843e+01 -1.3568229e+01 1.5656165e+00 
-1.6113293e+01 -1.3397554e+01 1.5412061e+00 
-1.6132175e+01 -1.3419496e+01 1.6927737e+00 
-1.6153912e+01 -1.3416440e+01 1.1497948e+00 
-1.6316492e+01 -1.3594476e+01 1.8905239e+00 
-1.6158720e+01 -1.3439372e+01 1.6628230e+00 
-1.6160734e+01 -1.3426066e+01 1.2720305e+00 
-1.6076319e+01 -1.3345190e+01 1.1771362e+00 
-1.6112873e+01 -1.3388909e+01 1.4485264e+00 
-1.6013847e+01 -1.3305064e+01 1.6289091e+00 
-1.6046566e+01 -1.3335065e+01 1.6742978e+00 
-1.6041237e+01 -1.3319016e+01 1.3930863e+00 
-1.5974371e+01 -1.3260053e+01 1.4236555e+00 
-1.6167858e+01 -1.3448327e+01 1.7664509e+00 
-1.6173437e+01 -1.3450679e+01 1.6988626e+00 
-1.6029091e+01 -1.3297191e+01 1.1709154e+00 
-1.5979651e+01 -1.3249905e+01 1.1351181e+00 
-1.5924636e+01 -1.3206051e+01 1.2782390e+00 
-1.6040955e+01 -1.3314584e+01 1.3918017e+00 
-1.5888837e+01 -1.3181962e+01 1.5254641e+00 
-1.5896748e+01 -1.3192261e+01 1.6591350e+00 
-1.6023741e+01 -1.3302045e+01 1.5291536e+00 
-1.5882278e+01 -1.3166584e+01 1.3650905e+00 
-1.5989656e+01 -1.3275554e+01 1.6633111e+00 
-1.5898106e+01 -1.3170402e+01 1.1169145e+00 
-1.5930544e+01 -1.3204422e+01 1.2267532e+00 
-1.5831286e+01 -1.3109191e+01 1.1432835e+00 
-1.6040356e+01 -1.3328119e+01 1.8508937e+00 
-1.5775589e+01 -1.3068894e+01 1.3958033e+00 
-1.5777397e+01 -1.3076786e+01 1.5951947e+00 
-1.5787658e+01 -1.3085057e+01 1.6354733e+00 
-1.5734353e+01 -1.3013776e+01 1.1027658e+00 
-1.5772378e+01 -1.3049815e+01 1.1369851e+00 
-1.5892881e+01 -1.3183585e+01 1.7276776e+00 
-1.5898316e+01 -1.3185842e+01 1.6610075e+00 
-1.5663163e+01 -1.2954687e+01 1.2449070e+00 
-1.5651827e+01 -1.2953776e+01 1.4937013e+00 
-1.5674795e+01 -1.2966445e+01 1.3398874e+00 
-1.5659107e+01 -1.2963756e+01 1.6263832e+00 
-1.5686375e+01 -1.2984517e+01 1.5952046e+00 
-1.5738795e+01 -1.3034152e+01 1.6366903e+00 
-1.5640016e+01 -1.2921914e+01 1.0830882e+00 
-1.5749871e+01 -1.3038561e+01 1.4933846e+00 
-1.5588883e+01 -1.2876045e+01 1.1084895e+00 
-1.5543180e+01 -1.2845718e+01 1.3803705e+00 
-1.5646910e+01 -1.2931993e+01 1.2067831e+00 
-1.5563087e+01 -1.2857266e+01 1.2569325e+00 
-1.5539734e+01 -1.2848452e+01 1.5625200e+00 
-1.5766008e+01 -1.3064186e+01 1.8115132e+00 
-1.5572777e+01 -1.2879090e+01 1.6072181e+00 
-1.5575894e+01 -1.2871107e+01 1.3312107e+00 
-1.5492170e+01 -1.2781552e+01 1.0706506e+00 
-1.5512792e+01 -1.2801127e+01 1.1042662e+00 
-1.5422271e+01 -1.2733495e+01 1.4729909e+00 
-1.5619658e+01 -1.2920876e+01 1.6892943e+00 
-1.5624951e+01 -1.2923049e+01 1.6235183e+00 
-1.5447312e+01 -1.2747519e+01 1.2912278e+00 
-1.5420904e+01 -1.2734800e+01 1.5919316e+00 
-1.5393732e+01 -1.2696186e+01 1.2103825e+00 
-1.5348065e+01 -1.2645225e+01 1.0747873e+00 
-1.5379213e+01 -1.2672142e+01 1.0499641e+00 
-1.5452565e+01 -1.2749334e+01 1.3124785e+00 
-1.5466491e+01 -1.2773006e+01 1.5985727e+00 
-1.5477314e+01 -1.2777198e+01 1.4575940e+00 
-1.5306547e+01 -1.2618610e+01 1.3423061e+00 
-1.5300632e+01 -1.2619245e+01 1.5288017e+00 
-1.5386219e+01 -1.2682295e+01 1.1733905e+00 
-1.5310609e+01 -1.2627241e+01 1.5677435e+00 
-1.5493608e+01 -1.2802473e+01 1.7722951e+00 
-1.5251875e+01 -1.2551532e+01 1.0387642e+00 
-1.5187707e+01 -1.2509010e+01 1.4309486e+00 
-1.5250760e+01 -1.2550233e+01 1.0701592e+00 
-1.5181067e+01 -1.2505902e+01 1.5592355e+00 
-1.5348439e+01 -1.2660844e+01 1.6509670e+00 
-1.5353572e+01 -1.2662939e+01 1.5861394e+00 
-1.5208345e+01 -1.2526295e+01 1.5267411e+00 
-1.5116109e+01 -1.2430595e+01 1.1748661e+00 
-1.5109076e+01 -1.2416501e+01 1.0415127e+00 
-1.5100483e+01 -1.2419002e+01 1.2934210e+00 
-1.5074116e+01 -1.2396098e+01 1.3008192e+00 
-1.5116396e+01 -1.2421307e+01 1.0165784e+00 
-1.5060292e+01 -1.2389630e+01 1.4952846e+00 
-1.5093755e+01 -1.2420305e+01 1.5390106e+00 
-1.5197075e+01 -1.2514831e+01 1.5611291e+00 
-1.5096573e+01 -1.2412127e+01 1.2616894e+00 
-1.5207536e+01 -1.2518867e+01 1.4221176e+00 
-1.5122865e+01 -1.2430334e+01 1.1407181e+00 
-1.5223172e+01 -1.2543262e+01 1.7332526e+00 
-1.5013530e+01 -1.2323908e+01 1.0085889e+00 
-1.4952213e+01 -1.2284131e+01 1.3972341e+00 
-1.4940365e+01 -1.2275616e+01 1.5244902e+00 
-1.4986840e+01 -1.2297953e+01 1.0379928e+00 
-1.5079366e+01 -1.2403172e+01 1.6129994e+00 
-1.5084306e+01 -1.2405198e+01 1.5491209e+00 
-1.4983294e+01 -1.2301348e+01 1.2608900e+00 
-1.4871751e+01 -1.2190106e+01 1.0090789e+00 
-1.4854686e+01 -1.2184363e+01 1.2556968e+00 
-1.4829870e+01 -1.2157608e+01 1.1384852e+00 
-1.4818911e+01 -1.2159426e+01 1.4617175e+00 
-1.4851015e+01 -1.2168062e+01 9.8286164e-01 
-1.4936208e+01 -1.2265614e+01 1.5171754e+00 
-1.4829815e+01 -1.2167767e+01 1.4987057e+00 
-1.4939386e+01 -1.2263107e+01 1.3867097e+00 
-1.4858506e+01 -1.2178964e+01 1.1086367e+00 
-1.4798885e+01 -1.2125085e+01 1.1397601e+00 
-1.4776984e+01 -1.2098212e+01 9.7736180e-01 
-1.4954850e+01 -1.2286770e+01 1.6945606e+00 
-1.4691032e+01 -1.2035826e+01 1.3669841e+00 
-1.4699403e+01 -1.2046097e+01 1.4904270e+00 
-1.4720452e+01 -1.2044930e+01 1.0045911e+00 
-1.4812215e+01 -1.2148540e+01 1.5752119e+00 
-1.4817018e+01 -1.2150466e+01 1.5123495e+00 
-1.4636379e+01 -1.1966213e+01 9.7724545e-01 
-1.4573525e+01 -1.1920066e+01 1.2400380e+00 
-1.4602069e+01 -1.1939658e+01 1.1206367e+00 
-1.4577183e+01 -1.1929158e+01 1.4277985e+00 
-1.4650838e+01 -1.1994534e+01 1.4455228e+00 
-1.4595440e+01 -1.1946151e+01 1.4680595e+00 
-1.4534889e+01 -1.1877398e+01 1.1013540e+00 
-1.4583613e+01 -1.1914264e+01 9.4964868e-01 
-1.4633722e+01 -1.1967064e+01 1.1376961e+00 
-1.4663651e+01 -1.2006190e+01 1.4863962e+00 
-1.4673258e+01 -1.2009997e+01 1.3520161e+00 
-1.4502753e+01 -1.1838175e+01 9.4376957e-01 
-1.4688747e+01 -1.2033753e+01 1.6561488e+00 
-1.4457953e+01 -1.1814594e+01 1.3344573e+00 
-1.4455863e+01 -1.1815397e+01 1.4571973e+00 
-1.4451877e+01 -1.1790750e+01 9.7035247e-01 
-1.4403337e+01 -1.1744698e+01 9.4637579e-01 
-1.4381395e+01 -1.1733938e+01 1.1541345e+00 
-1.4547613e+01 -1.1897625e+01 1.5379858e+00 
-1.4552294e+01 -1.1899446e+01 1.4763138e+00 
-1.4341688e+01 -1.1700327e+01 1.2100857e+00 
-1.4332876e+01 -1.1698551e+01 1.3946449e+00 
-1.4361039e+01 -1.1713018e+01 1.1500698e+00 
-1.4344751e+01 -1.1707579e+01 1.4309632e+00 
-1.4301872e+01 -1.1648138e+01 9.2037874e-01 
-1.4314150e+01 -1.1658802e+01 9.1620857e-01 
-1.4401032e+01 -1.1757804e+01 1.4503930e+00 
-1.4410442e+01 -1.1761381e+01 1.3188708e+00 
-1.4230844e+01 -1.1589659e+01 1.0635879e+00 
-1.4227239e+01 -1.1596213e+01 1.3023667e+00 
-1.4314648e+01 -1.1664868e+01 1.0851117e+00 
-1.4426036e+01 -1.1784878e+01 1.6180561e+00 
-1.4251736e+01 -1.1608868e+01 1.1360376e+00 
-1.4212564e+01 -1.1585368e+01 1.4218873e+00 
-1.4240805e+01 -1.1606772e+01 1.3889686e+00 
-1.4150230e+01 -1.1506213e+01 9.2053550e-01 
-1.4111935e+01 -1.1483277e+01 1.1800605e+00 
-1.4181642e+01 -1.1535080e+01 9.3865526e-01 
-1.4286847e+01 -1.1651011e+01 1.5011811e+00 
-1.4291425e+01 -1.1652719e+01 1.4406743e+00 
-1.4089130e+01 -1.1468072e+01 1.3614880e+00 
-1.4123264e+01 -1.1499159e+01 1.4015521e+00 
-1.4106597e+01 -1.1463336e+01 8.9359087e-01 
-1.4158298e+01 -1.1521756e+01 1.2240983e+00 
-1.3998294e+01 -1.1380736e+01 1.2714542e+00 
-1.4141685e+01 -1.1512994e+01 1.4144361e+00 
-1.4042295e+01 -1.1402785e+01 8.8204300e-01 
-1.3993708e+01 -1.1367077e+01 1.1023736e+00 
-1.3967554e+01 -1.1353874e+01 1.3888594e+00 
-1.4166328e+01 -1.1540162e+01 1.5808928e+00 
-1.4031540e+01 -1.1397771e+01 1.0392814e+00 
-1.3917892e+01 -1.1294230e+01 1.0244566e+00 
-1.3930206e+01 -1.1298084e+01 8.8354182e-01 
-1.3883957e+01 -1.1268686e+01 1.1509826e+00 
-1.3899981e+01 -1.1268777e+01 8.6698359e-01 
-1.4028698e+01 -1.1407978e+01 1.4655138e+00 
-1.4033213e+01 -1.1409542e+01 1.4061524e+00 
-1.3843681e+01 -1.1237219e+01 1.3267730e+00 
-1.3908456e+01 -1.1277930e+01 9.0463001e-01 
-1.3855914e+01 -1.1247152e+01 1.3621706e+00 
-1.3771650e+01 -1.1167354e+01 1.2399673e+00 
-1.3751630e+01 -1.1140734e+01 1.0909883e+00 
-1.3768675e+01 -1.1145427e+01 8.4948528e-01 
-1.3865788e+01 -1.1254010e+01 1.3823403e+00 
-1.3846171e+01 -1.1228045e+01 1.1804451e+00 
-1.3762022e+01 -1.1147829e+01 1.0662925e+00 
-1.3722015e+01 -1.1124167e+01 1.3549846e+00 
-1.3909734e+01 -1.1299307e+01 1.5443621e+00 
-1.3658841e+01 -1.1057419e+01 1.1222289e+00 
-1.3752051e+01 -1.1146799e+01 1.3198909e+00 
-1.3665699e+01 -1.1050205e+01 8.6218792e-01 
-1.3737168e+01 -1.1120280e+01 9.8966736e-01 
-1.3655059e+01 -1.1038877e+01 8.3914840e-01 
-1.3595793e+01 -1.0992228e+01 9.8390824e-01 
-1.3597891e+01 -1.1007528e+01 1.2925559e+00 
-1.3634220e+01 -1.1040247e+01 1.3329402e+00 
-1.3773520e+01 -1.1168994e+01 1.4301654e+00 
-1.3626493e+01 -1.1021451e+01 1.0465283e+00 
-1.3777974e+01 -1.1170409e+01 1.3719443e+00 
-1.3634651e+01 -1.1020691e+01 8.7240887e-01 
-1.3547567e+01 -1.0957532e+01 1.2096868e+00 
-1.3631484e+01 -1.1034781e+01 1.3438658e+00 
-1.3640391e+01 -1.1037530e+01 1.2191043e+00 
-1.3476478e+01 -1.0894363e+01 1.3200409e+00 
-1.3443482e+01 -1.0855353e+01 1.0804819e+00 
-1.3493656e+01 -1.0887437e+01 8.1594861e-01 
-1.3656358e+01 -1.1062518e+01 1.5083170e+00 
-1.3445518e+01 -1.0843901e+01 8.2604998e-01 
-1.3502044e+01 -1.0900861e+01 9.4585747e-01 
-1.3500119e+01 -1.0902041e+01 1.0575356e+00 
-1.3351669e+01 -1.0777109e+01 1.2599152e+00 
-1.3521864e+01 -1.0934467e+01 1.3953060e+00 
-1.3526183e+01 -1.0935807e+01 1.3381171e+00 
-1.3364737e+01 -1.0788034e+01 1.2933646e+00 
-1.3336916e+01 -1.0741307e+01 7.9866040e-01 
-1.3358820e+01 -1.0763478e+01 8.3839995e-01 
-1.3264227e+01 -1.0682400e+01 9.4444746e-01 
-1.3382230e+01 -1.0802634e+01 1.3107687e+00 
-1.3390937e+01 -1.0804955e+01 1.1872164e+00 
-1.3220391e+01 -1.0652363e+01 1.1732420e+00 
-1.3229876e+01 -1.0664208e+01 1.2868274e+00 
-1.3221531e+01 -1.0634532e+01 7.9942018e-01 
-1.3405828e+01 -1.0829353e+01 1.4730647e+00 
-1.3200070e+01 -1.0624574e+01 1.0095338e+00 
-1.3167884e+01 -1.0598784e+01 1.0611244e+00 
-1.3212381e+01 -1.0637053e+01 1.0419627e+00 
-1.3258895e+01 -1.0687772e+01 1.2524551e+00 
-1.3216190e+01 -1.0628610e+01 7.8210282e-01 
-1.3262481e+01 -1.0687549e+01 1.1939394e+00 
-1.3224522e+01 -1.0641886e+01 9.1333419e-01 
-1.3103794e+01 -1.0546362e+01 1.2262133e+00 
-1.3140061e+01 -1.0579109e+01 1.2658577e+00 
-1.3103940e+01 -1.0527937e+01 8.3331758e-01 
-1.3272856e+01 -1.0702724e+01 1.3613563e+00 
-1.3277067e+01 -1.0704001e+01 1.3048818e+00 
-1.3114221e+01 -1.0533871e+01 7.7318192e-01 
-1.3166527e+01 -1.0602448e+01 1.2879082e+00 
-1.3080666e+01 -1.0504425e+01 8.0533999e-01 
-1.2998436e+01 -1.0445776e+01 1.1419194e+00 
-1.3028175e+01 -1.0461672e+01 9.2363554e-01 
-1.2999856e+01 -1.0428097e+01 7.7387369e-01 
-1.2982974e+01 -1.0434597e+01 1.2525358e+00 
-1.3119713e+01 -1.0553863e+01 1.1712157e+00 
-1.3157413e+01 -1.0598576e+01 1.4385234e+00 
-1.2924010e+01 -1.0365954e+01 9.0177828e-01 
-1.2937329e+01 -1.0369555e+01 7.4965519e-01 
-1.3002973e+01 -1.0439484e+01 9.9939513e-01 
-1.2868584e+01 -1.0318884e+01 9.9217647e-01 
-1.2893544e+01 -1.0329212e+01 7.4730605e-01 
-1.2857742e+01 -1.0317663e+01 1.1930490e+00 
-1.2940949e+01 -1.0377641e+01 8.7676716e-01 
-1.3025386e+01 -1.0473145e+01 1.3278632e+00 
-1.3029541e+01 -1.0474363e+01 1.2720084e+00 
-1.2875148e+01 -1.0332784e+01 1.2274003e+00 
-1.2898016e+01 -1.0352892e+01 1.2386466e+00 
-1.2749772e+01 -1.0210124e+01 9.9182910e-01 
-1.2780583e+01 -1.0225246e+01 7.4929309e-01 
-1.2895625e+01 -1.0345161e+01 1.1242566e+00 
-1.2804954e+01 -1.0248221e+01 7.6974595e-01 
-1.2763690e+01 -1.0217446e+01 9.1902572e-01 
-1.2737741e+01 -1.0207620e+01 1.2208023e+00 
-1.2910795e+01 -1.0369831e+01 1.4042625e+00 
-1.2672703e+01 -1.0143743e+01 1.0856578e+00 
-1.2675496e+01 -1.0126600e+01 7.2124344e-01 
-1.2664107e+01 -1.0116525e+01 7.1606910e-01 
-1.2614068e+01 -1.0092110e+01 1.1616127e+00 
-1.2596741e+01 -1.0062884e+01 8.6351591e-01 
-1.2779861e+01 -1.0245343e+01 1.2947448e+00 
-1.2783963e+01 -1.0246486e+01 1.2395132e+00 
-1.2624016e+01 -1.0100953e+01 1.1949470e+00 
-1.2666311e+01 -1.0123524e+01 8.3968842e-01 
-1.2575175e+01 -1.0046369e+01 9.5397043e-01 
-1.2537763e+01 -1.0014855e+01 9.8170358e-01 
-1.2563002e+01 -1.0023599e+01 7.2413421e-01 
-1.2642747e+01 -1.0116552e+01 1.2130038e+00 
-1.2651189e+01 -1.0118547e+01 1.0928577e+00 
-1.2494983e+01 -9.9833813e+00 1.1894592e+00 
-1.2590314e+01 -1.0057858e+01 9.6878928e-01 
-1.2461055e+01 -9.9485159e+00 1.0734032e+00 
-1.2533520e+01 -9.9972324e+00 7.3515886e-01 
-1.2666177e+01 -1.0143091e+01 1.3702959e+00 
-1.2447887e+01 -9.9208279e+00 7.6331365e-01 
-1.2511434e+01 -9.9938717e+00 1.1522683e+00 
-1.2458625e+01 -9.9270639e+00 6.9630867e-01 
-1.2373087e+01 -9.8697805e+00 1.1291348e+00 
-1.2405382e+01 -9.8982248e+00 1.1686460e+00 
-1.2409678e+01 -9.8909740e+00 8.9472443e-01 
-1.2536446e+01 -1.0019939e+01 1.2619289e+00 
-1.2540433e+01 -1.0020999e+01 1.2074585e+00 
-1.2395606e+01 -9.8686666e+00 6.8475860e-01 
-1.2356758e+01 -9.8344011e+00 7.0357943e-01 
-1.2322718e+01 -9.8169012e+00 9.6616679e-01 
-1.2397373e+01 -9.8758488e+00 8.0458695e-01 
-1.2283463e+01 -9.7740297e+00 8.2444841e-01 
-1.2401074e+01 -9.8932600e+00 1.1809385e+00 
-1.2409242e+01 -9.8954926e+00 1.0627391e+00 
-1.2247083e+01 -9.7515268e+00 1.0489472e+00 
-1.2256047e+01 -9.7623959e+00 1.1560438e+00 
-1.2424132e+01 -9.9193344e+00 1.3366328e+00 
-1.2244745e+01 -9.7300272e+00 6.7163336e-01 
-1.2267835e+01 -9.7526865e+00 7.0413786e-01 
-1.2186872e+01 -9.6968803e+00 1.1346474e+00 
-1.2124121e+01 -9.6327934e+00 9.0691024e-01 
-1.2135273e+01 -9.6508474e+00 1.0983759e+00 
-1.2296199e+01 -9.7986212e+00 1.2295779e+00 
-1.2300048e+01 -9.7996264e+00 1.1760449e+00 
-1.2134714e+01 -9.6299686e+00 6.7556310e-01 
-1.2133654e+01 -9.6284151e+00 6.5324986e-01 
-1.2101055e+01 -9.6087275e+00 8.5926789e-01 
-1.2135849e+01 -9.6347923e+00 7.7008760e-01 
-1.2038708e+01 -9.5590935e+00 1.0003657e+00 
-1.2171104e+01 -9.6764288e+00 1.0331397e+00 
-1.2124541e+01 -9.6288090e+00 8.9270079e-01 
-1.2147124e+01 -9.6600285e+00 1.1582118e+00 
-1.2019330e+01 -9.5454617e+00 1.1252899e+00 
-1.2032874e+01 -9.5357008e+00 6.4785844e-01 
-1.1981367e+01 -9.4967260e+00 7.8895938e-01 
-1.2185270e+01 -9.6993704e+00 1.3034496e+00 
-1.1973481e+01 -9.4945526e+00 9.1648120e-01 
-1.2008557e+01 -9.5153961e+00 6.7273641e-01 
-1.1925789e+01 -9.4515800e+00 8.9704061e-01 
-1.2024774e+01 -9.5460567e+00 1.0885693e+00 
-1.1924034e+01 -9.4370871e+00 6.5268058e-01 
-1.1900868e+01 -9.4360895e+00 1.0679009e+00 
-1.2059156e+01 -9.5807686e+00 1.1979105e+00 
-1.2062859e+01 -9.5817442e+00 1.1452410e+00 
-1.1910288e+01 -9.4437675e+00 1.1003110e+00 
-1.1832146e+01 -9.3702145e+00 9.7824329e-01 
-1.1876504e+01 -9.3931141e+00 6.2406707e-01 
-1.1953613e+01 -9.4825401e+00 1.1315409e+00 
-1.1878510e+01 -9.4002676e+00 7.3724216e-01 
-1.1822798e+01 -9.3445606e+00 6.2429667e-01 
-1.1935681e+01 -9.4607058e+00 1.0042448e+00 
-1.1810507e+01 -9.3414955e+00 8.0933374e-01 
-1.1787698e+01 -9.3330564e+00 1.0944307e+00 
-1.1949661e+01 -9.4830770e+00 1.2709430e+00 
-1.1720300e+01 -9.2644176e+00 8.7683934e-01 
-1.1691915e+01 -9.2323961e+00 7.5451845e-01 
-1.1714147e+01 -9.2461376e+00 6.2690586e-01 
-1.1753737e+01 -9.2827206e+00 6.4249325e-01 
-1.1669812e+01 -9.2249346e+00 1.0380343e+00 
-1.1825623e+01 -9.3667450e+00 1.1671472e+00 
-1.1829147e+01 -9.3676491e+00 1.1152718e+00 
-1.1628190e+01 -9.1841869e+00 9.5651352e-01 
-1.1655231e+01 -9.2111397e+00 1.0704701e+00 
-1.1740561e+01 -9.2871513e+00 1.0890976e+00 
-1.1616502e+01 -9.1564779e+00 6.0111296e-01 
-1.1625465e+01 -9.1643448e+00 5.9561801e-01 
-1.1580736e+01 -9.1322165e+00 7.8376913e-01 
-1.1627872e+01 -9.1715803e+00 7.0529294e-01 
-1.1557287e+01 -9.1235628e+00 1.0652925e+00 
-1.1682979e+01 -9.2306576e+00 9.9077928e-01 
-1.1517600e+01 -9.0802908e+00 8.5695368e-01 
-1.1577373e+01 -9.1298447e+00 7.9546642e-01 
-1.1717454e+01 -9.2704096e+00 1.2391171e+00 
-1.1531042e+01 -9.0886402e+00 7.9873747e-01 
-1.1573078e+01 -9.1339579e+00 1.0310762e+00 
-1.1510508e+01 -9.0607376e+00 6.0862231e-01 
-1.1574836e+01 -9.1278257e+00 8.3452374e-01 
-1.1505123e+01 -9.0571604e+00 6.1408335e-01 
-1.1442558e+01 -9.0184479e+00 1.0084454e+00 
-1.1426346e+01 -9.0012894e+00 9.3518448e-01 
-1.1595286e+01 -9.1565981e+00 1.1368198e+00 
-1.1598676e+01 -9.1574678e+00 1.0858961e+00 
-1.1414280e+01 -8.9804420e+00 7.2212929e-01 
-1.1451586e+01 -9.0265093e+00 1.0415486e+00 
-1.1412374e+01 -8.9713726e+00 5.7865840e-01 
-1.1468417e+01 -9.0398979e+00 1.0607816e+00 
-1.1379576e+01 -8.9414663e+00 5.6965196e-01 
-1.1475307e+01 -9.0416002e+00 9.4841492e-01 
-1.1317347e+01 -8.8993864e+00 8.3753675e-01 
-1.1353807e+01 -8.9272366e+00 7.5923663e-01 
-1.1332422e+01 -8.9187918e+00 1.0365516e+00 
-1.1382240e+01 -8.9493847e+00 6.7449218e-01 
-1.1488730e+01 -9.0622988e+00 1.2080436e+00 
-1.1307931e+01 -8.8774395e+00 5.8749312e-01 
-1.1288583e+01 -8.8698168e+00 7.9925728e-01 
-1.1227720e+01 -8.8218451e+00 9.1371751e-01 
-1.1218853e+01 -8.8161221e+00 9.7933900e-01 
-1.1368766e+01 -8.9512577e+00 1.1074579e+00 
-1.1262759e+01 -8.8386307e+00 5.8742082e-01 
-1.1371993e+01 -8.9520569e+00 1.0574957e+00 
-1.1211571e+01 -8.7900686e+00 5.5725414e-01 
-1.1230769e+01 -8.8252659e+00 1.0071962e+00 
-1.1147543e+01 -8.7398376e+00 6.9121408e-01 
-1.1240880e+01 -8.8333607e+00 9.9254918e-01 
-1.1120158e+01 -8.7217302e+00 8.1840998e-01 
-1.1244953e+01 -8.8380508e+00 1.0330844e+00 
-1.1140539e+01 -8.7265320e+00 5.4380453e-01 
-1.1110729e+01 -8.7195253e+00 1.0072957e+00 
-1.1108240e+01 -8.6976118e+00 5.6664622e-01 
-1.1231047e+01 -8.8216095e+00 9.3650585e-01 
-1.1264112e+01 -8.8589954e+00 1.1776990e+00 
-1.1142577e+01 -8.7329340e+00 6.4577711e-01 
-1.1032084e+01 -8.6460238e+00 8.9301819e-01 
-1.1127330e+01 -8.7239628e+00 7.8578228e-01 
-1.0998982e+01 -8.6183109e+00 9.5351255e-01 
-1.1013284e+01 -8.6119833e+00 5.3575838e-01 
-1.1146413e+01 -8.7507887e+00 1.0787911e+00 
-1.1149522e+01 -8.7515411e+00 1.0297709e+00 
-1.1007124e+01 -8.6251383e+00 9.8553103e-01 
-1.1026367e+01 -8.6252432e+00 5.5878067e-01 
-1.0977815e+01 -8.5875483e+00 6.8590569e-01 
-1.0925350e+01 -8.5472555e+00 7.9991812e-01 
-1.0891762e+01 -8.5098867e+00 6.6170973e-01 
-1.0910790e+01 -8.5208292e+00 5.4604399e-01 
-1.1030908e+01 -8.6414995e+00 8.9591920e-01 
-1.0891532e+01 -8.5232925e+00 9.8101723e-01 
-1.0993394e+01 -8.6117506e+00 9.8693871e-01 
-1.0922729e+01 -8.5395269e+00 7.2761858e-01 
-1.0906271e+01 -8.5160742e+00 5.1710385e-01 
-1.1043438e+01 -8.6605425e+00 1.1483586e+00 
-1.0838306e+01 -8.4726715e+00 8.7297487e-01 
-1.0905806e+01 -8.5326290e+00 9.4863421e-01 
-1.0910434e+01 -8.5253124e+00 6.3263679e-01 
-1.0817233e+01 -8.4363279e+00 5.1420248e-01 
-1.0781965e+01 -8.4239607e+00 9.2752928e-01 
-1.0810720e+01 -8.4492483e+00 9.6340394e-01 
-1.0927844e+01 -8.5548391e+00 1.0511460e+00 
-1.0930811e+01 -8.5555344e+00 1.0028114e+00 
-1.0775618e+01 -8.4071503e+00 6.7320490e-01 
-1.0732882e+01 -8.3751278e+00 7.8183657e-01 
-1.0793706e+01 -8.4177322e+00 5.3434467e-01 
-1.0716068e+01 -8.3464832e+00 5.2616161e-01 
-1.0808070e+01 -8.4461441e+00 9.7974294e-01 
-1.0675864e+01 -8.3298903e+00 9.5525032e-01 
-1.0794428e+01 -8.4301977e+00 8.8514608e-01 
-1.0646553e+01 -8.3016405e+00 8.5350794e-01 
-1.0645492e+01 -8.2900362e+00 6.3385695e-01 
-1.0826126e+01 -8.4657717e+00 1.1198075e+00 
-1.0676959e+01 -8.3115835e+00 4.9186665e-01 
-1.0678499e+01 -8.3174648e+00 5.8959240e-01 
-1.0623998e+01 -8.2636003e+00 4.9387234e-01 
-1.0684134e+01 -8.3344679e+00 9.2346340e-01 
-1.0694184e+01 -8.3362093e+00 7.3994410e-01 
-1.0579490e+01 -8.2307558e+00 6.2752819e-01 
-1.0567343e+01 -8.2328739e+00 9.0159112e-01 
-1.0590115e+01 -8.2430182e+00 6.9375640e-01 
-1.0712380e+01 -8.3621407e+00 1.0242226e+00 
-1.0715243e+01 -8.3628159e+00 9.7662425e-01 
-1.0542408e+01 -8.2057447e+00 7.6419938e-01 
-1.0576171e+01 -8.2396946e+00 9.3408924e-01 
-1.0524022e+01 -8.1754808e+00 5.0695914e-01 
-1.0568022e+01 -8.2159395e+00 5.0886464e-01 
-1.0594783e+01 -8.2559786e+00 9.5414221e-01 
-1.0600752e+01 -8.2573643e+00 8.4696418e-01 
-1.0455827e+01 -8.1321125e+00 8.3230424e-01 
-1.0480419e+01 -8.1450081e+00 6.5952551e-01 
-1.0464136e+01 -8.1419926e+00 9.2775613e-01 
-1.0612182e+01 -8.2748613e+00 1.0922549e+00 
-1.0408675e+01 -8.0792761e+00 6.0761267e-01 
-1.0414037e+01 -8.0879679e+00 6.8166387e-01 
-1.0436387e+01 -8.0974846e+00 4.7656241e-01 
-1.0478899e+01 -8.1522923e+00 8.9907444e-01 
-1.0453229e+01 -8.1122236e+00 4.6920377e-01 
-1.0465718e+01 -8.1290569e+00 5.8312392e-01 
-1.0357802e+01 -8.0470667e+00 8.7566471e-01 
-1.0387320e+01 -8.0728464e+00 9.1344798e-01 
-1.0387641e+01 -8.0640907e+00 6.7778283e-01 
-1.0500519e+01 -8.1735868e+00 9.9851102e-01 
-1.0503239e+01 -8.1742392e+00 9.5153052e-01 
-1.0334737e+01 -8.0079527e+00 4.8929378e-01 
-1.0301948e+01 -7.9932160e+00 7.5084442e-01 
-1.0347367e+01 -8.0206642e+00 4.8653138e-01 
-1.0269961e+01 -7.9565382e+00 5.9376264e-01 
-1.0275382e+01 -7.9641657e+00 6.4965004e-01 
-1.0257249e+01 -7.9584165e+00 9.0231228e-01 
-1.0366082e+01 -8.0532923e+00 9.3522018e-01 
-1.0371511e+01 -8.0546064e+00 8.3677876e-01 
-1.0401593e+01 -8.0875130e+00 1.0655856e+00 
-1.0245900e+01 -7.9287782e+00 4.5664507e-01 
-1.0198025e+01 -7.9044204e+00 8.0787647e-01 
-1.0235090e+01 -7.9197206e+00 4.4672605e-01 
-1.0182090e+01 -7.8793507e+00 5.8212274e-01 
-1.0253510e+01 -7.9409494e+00 5.4355234e-01 
-1.0265628e+01 -7.9630632e+00 8.7573814e-01 
-1.0275163e+01 -7.9652734e+00 6.9534427e-01 
-1.0152384e+01 -7.8656855e+00 8.5223377e-01 
-1.0291648e+01 -7.9882770e+00 9.7336823e-01 
-1.0294237e+01 -7.9888978e+00 9.2690516e-01 
-1.0149055e+01 -7.8446140e+00 4.7081956e-01 
-1.0118825e+01 -7.8309574e+00 7.2155046e-01 
-1.0160746e+01 -7.8721871e+00 8.8527077e-01 
-1.0140794e+01 -7.8450265e+00 6.2240446e-01 
-1.0131392e+01 -7.8298326e+00 4.6264783e-01 
-1.0085245e+01 -7.7875681e+00 4.3721852e-01 
-1.0177898e+01 -7.8867188e+00 9.0585959e-01 
-1.0183557e+01 -7.8880711e+00 7.9978573e-01 
-1.0052205e+01 -7.7789226e+00 8.7950951e-01 
-1.0076283e+01 -7.7883177e+00 6.2279761e-01 
-1.0016524e+01 -7.7442751e+00 7.8159958e-01 
-1.0193940e+01 -7.9037299e+00 1.0396402e+00 
-1.0065234e+01 -7.7868590e+00 8.5270554e-01 
-1.0021945e+01 -7.7323623e+00 4.2431846e-01 
-9.9629927e+00 -7.6868210e+00 5.5909055e-01 
-1.0041390e+01 -7.7550421e+00 5.3728330e-01 
-9.9651289e+00 -7.6834345e+00 4.5321321e-01 
-9.9491959e+00 -7.6873541e+00 8.2978934e-01 
-9.9386501e+00 -7.6719146e+00 6.9363362e-01 
-1.0085927e+01 -7.8068180e+00 9.4911355e-01 
-9.9480667e+00 -7.6737275e+00 5.6274152e-01 
-1.0088368e+01 -7.8073869e+00 9.0323782e-01 
-9.9577799e+00 -7.6939926e+00 8.6264169e-01 
-9.8953104e+00 -7.6209183e+00 4.1729486e-01 
-9.9200954e+00 -7.6455359e+00 4.4052067e-01 
-9.9748020e+00 -7.7080812e+00 8.8330251e-01 
-9.8685188e+00 -7.6068811e+00 6.1116940e-01 
-9.8375769e+00 -7.5868745e+00 7.5443149e-01 
-9.9339018e+00 -7.6715641e+00 8.4477407e-01 
-9.8509541e+00 -7.6020069e+00 8.5653651e-01 
-9.9612827e+00 -7.6932597e+00 7.9176593e-01 
-9.8741732e+00 -7.6117287e+00 6.0466224e-01 
-9.9899426e+00 -7.7239361e+00 1.0142460e+00 
-9.7846050e+00 -7.5252757e+00 4.3616310e-01 
-9.8131008e+00 -7.5495291e+00 4.0386635e-01 
-9.7609558e+00 -7.5169220e+00 6.6587102e-01 
-9.8687220e+00 -7.6084933e+00 6.5553051e-01 
-9.8351469e+00 -7.5743184e+00 4.9946651e-01 
-9.7525911e+00 -7.5028920e+00 5.3647631e-01 
-9.7702341e+00 -7.5179911e+00 5.3971761e-01 
-9.7496719e+00 -7.5125308e+00 8.0811882e-01 
-9.8840113e+00 -7.6297565e+00 9.2528224e-01 
-9.8863544e+00 -7.6302986e+00 8.8012159e-01 
-9.7581253e+00 -7.5192461e+00 8.4029078e-01 
-9.7031031e+00 -7.4532723e+00 3.9974913e-01 
-9.7236280e+00 -7.4881697e+00 8.2249945e-01 
-9.6611099e+00 -7.4329381e+00 7.2773314e-01 
-9.7137680e+00 -7.4653988e+00 4.1951740e-01 
-9.7749739e+00 -7.5334210e+00 8.6133641e-01 
-9.7801504e+00 -7.5345979e+00 7.5712162e-01 
-9.6690464e+00 -7.4338646e+00 6.0957605e-01 
-9.6531982e+00 -7.4287443e+00 8.3406901e-01 
-9.6758213e+00 -7.4390311e+00 5.8738887e-01 
-9.7898207e+00 -7.5485864e+00 9.8963767e-01 
-9.6065931e+00 -7.3702078e+00 4.1965461e-01 
-9.5860519e+00 -7.3637381e+00 6.3891250e-01 
-9.5948467e+00 -7.3656783e+00 5.1748228e-01 
-9.6093740e+00 -7.3731399e+00 3.8540104e-01 
-9.6328011e+00 -7.3988376e+00 4.9438944e-01 
-9.5498362e+00 -7.3261585e+00 5.1478833e-01 
-9.5546474e+00 -7.3425832e+00 7.8542292e-01 
-9.6860685e+00 -7.4565763e+00 9.0255135e-01 
-9.6883059e+00 -7.4570851e+00 8.5796958e-01 
-9.5621891e+00 -7.3495283e+00 8.1965375e-01 
-9.5230656e+00 -7.2974286e+00 3.8636842e-01 
-9.4879589e+00 -7.2822156e+00 7.0144665e-01 
-9.5664349e+00 -7.3506265e+00 8.0066407e-01 
-9.5792923e+00 -7.3628321e+00 8.3972150e-01 
-9.5128326e+00 -7.2906208e+00 3.9845142e-01 
-9.5843811e+00 -7.3639770e+00 7.3628873e-01 
-9.5568314e+00 -7.3371687e+00 6.2338662e-01 
-9.4602003e+00 -7.2621789e+00 8.1380987e-01 
-9.5933924e+00 -7.3771663e+00 9.6607333e-01 
-9.4138756e+00 -7.2151728e+00 6.1260176e-01 
-9.4315357e+00 -7.2191067e+00 4.0449885e-01 
-9.4224195e+00 -7.2160177e+00 4.9509868e-01 
-9.4381618e+00 -7.2239809e+00 3.6837628e-01 
-9.4116869e+00 -7.2016406e+00 3.6559829e-01 
-9.4065180e+00 -7.2132845e+00 7.9568219e-01 
-9.3906078e+00 -7.1935778e+00 6.0044223e-01 
-9.3627491e+00 -7.1769719e+00 7.6560402e-01 
-9.3547335e+00 -7.1579819e+00 4.9463931e-01 
-9.4041471e+00 -7.2034960e+00 5.6595999e-01 
-9.4915924e+00 -7.2875543e+00 8.8071835e-01 
-9.4937210e+00 -7.2880354e+00 8.3673650e-01 
-9.3543501e+00 -7.1596375e+00 5.3536963e-01 
-9.4021111e+00 -7.1990180e+00 4.7129089e-01 
-9.3495359e+00 -7.1474285e+00 3.7086797e-01 
-9.3165979e+00 -7.1341929e+00 6.7581582e-01 
-9.3979063e+00 -7.2056270e+00 8.1530643e-01 
-9.3989382e+00 -7.2033420e+00 7.0367956e-01 
-9.3166552e+00 -7.1215920e+00 3.8053289e-01 
-9.2695026e+00 -7.0974717e+00 7.9257232e-01 
-9.2594786e+00 -7.0709872e+00 3.8920429e-01 
-9.2397442e+00 -7.0643783e+00 5.8866298e-01 
-9.4006748e+00 -7.2100735e+00 9.4338816e-01 
-9.2656717e+00 -7.0754786e+00 3.5258314e-01 
-9.2525787e+00 -7.0802484e+00 7.6413095e-01 
-9.2176294e+00 -7.0344825e+00 3.4717393e-01 
-9.1740112e+00 -7.0145035e+00 7.4567795e-01 
-9.1668139e+00 -6.9961181e+00 4.7554049e-01 
-9.2552366e+00 -7.0766211e+00 5.6142294e-01 
-9.3010645e+00 -7.1227555e+00 8.5993469e-01 
-9.3030758e+00 -7.1231651e+00 8.1663305e-01 
-9.1782379e+00 -7.0004044e+00 3.5476643e-01 
-9.1735048e+00 -7.0043783e+00 5.2385336e-01 
-9.2198420e+00 -7.0413842e+00 4.2897156e-01 
-9.1812048e+00 -7.0203013e+00 7.7838063e-01 
-9.1060572e+00 -6.9535146e+00 6.5783077e-01 
-9.1365261e+00 -6.9723930e+00 5.1696670e-01 
-9.1991682e+00 -7.0345173e+00 7.9978436e-01 
-9.0719690e+00 -6.9199467e+00 5.6840611e-01 
-9.0890179e+00 -6.9248080e+00 3.7425050e-01 
-9.0829029e+00 -6.9374595e+00 7.7316779e-01 
-9.1761246e+00 -7.0109706e+00 6.7168599e-01 
-9.0887012e+00 -6.9235477e+00 3.3665410e-01 
-9.2124310e+00 -7.0482907e+00 9.2175287e-01 
-9.0580101e+00 -6.9062681e+00 5.2316308e-01 
-9.0731211e+00 -6.9129162e+00 3.6872423e-01 
-9.0108385e+00 -6.8570204e+00 3.3911008e-01 
-8.9854994e+00 -6.8407321e+00 4.5688245e-01 
-9.0283880e+00 -6.8723240e+00 3.2990867e-01 
-8.9896231e+00 -6.8565860e+00 7.2716409e-01 
-9.1156311e+00 -6.9641190e+00 8.4061319e-01 
-9.0058060e+00 -6.8701158e+00 7.5628084e-01 
-8.9975300e+00 -6.8509889e+00 4.3596438e-01 
-9.0133200e+00 -6.8755670e+00 7.4181682e-01 
-8.9575014e+00 -6.8171186e+00 4.5725897e-01 
-8.9470968e+00 -6.8167267e+00 6.1753714e-01 
-9.0315542e+00 -6.8833661e+00 5.0199717e-01 
-8.9512768e+00 -6.8181248e+00 5.8274740e-01 
-9.0187607e+00 -6.8795366e+00 7.4419272e-01 
-9.0047159e+00 -6.8579473e+00 4.2315742e-01 
-9.0317049e+00 -6.8857884e+00 5.7402092e-01 
-9.0690451e+00 -6.9219675e+00 7.6360226e-01 
-9.0235624e+00 -6.8840008e+00 7.6706064e-01 
-8.9631510e+00 -6.8247852e+00 5.0331140e-01 
-9.0013275e+00 -6.8616829e+00 6.5523922e-01 
-9.0297346e+00 -6.8937726e+00 9.0233982e-01 
-8.8771200e+00 -6.7481303e+00 4.3886167e-01 
-8.8837290e+00 -6.7613306e+00 6.0748738e-01 
-8.8103609e+00 -6.6917272e+00 4.3899348e-01 
-8.8063078e+00 -6.6947365e+00 5.5627757e-01 
-8.8263817e+00 -6.7000461e+00 3.3781451e-01 
-8.8057251e+00 -6.6981664e+00 6.4465487e-01 
-8.8365593e+00 -6.7079916e+00 3.1583765e-01 
-8.8077335e+00 -6.7020397e+00 7.0933443e-01 
-8.8445711e+00 -6.7160869e+00 3.1356671e-01 
-8.8120642e+00 -6.7067938e+00 7.4675071e-01 
-8.8491983e+00 -6.7216411e+00 3.4043959e-01 
-8.8196735e+00 -6.7123580e+00 7.4339414e-01 
-8.8516874e+00 -6.7262282e+00 3.8895395e-01 
-8.8279047e+00 -6.7182693e+00 7.2996652e-01 
-8.8522453e+00 -6.7295966e+00 4.5134974e-01 
-8.8344946e+00 -6.7235899e+00 7.2213209e-01 
-8.8520060e+00 -6.7323461e+00 5.1937973e-01 
-8.7794132e+00 -6.6682391e+00 4.8491833e-01 
-8.8396206e+00 -6.7274618e+00 7.3539042e-01 
-8.8524265e+00 -6.7343407e+00 5.9193873e-01 
-8.8430033e+00 -6.7313623e+00 7.6575565e-01 
-8.8519611e+00 -6.7357426e+00 6.6925859e-01 
-8.7535906e+00 -6.6511631e+00 5.9479243e-01 
-8.8466110e+00 -6.7359405e+00 8.0810505e-01 
-8.8511448e+00 -6.7376728e+00 7.6314181e-01 
-8.8494186e+00 -6.7410445e+00 8.8276756e-01 
-8.6662807e+00 -6.5781856e+00 5.8819652e-01 
-8.6349316e+00 -6.5429530e+00 4.2144305e-01 
-8.6294184e+00 -6.5521092e+00 6.9177240e-01 
-8.6658659e+00 -6.5642943e+00 2.9762423e-01 
-8.6762857e+00 -6.5793929e+00 4.0252313e-01 
-8.6178198e+00 -6.5237150e+00 3.2587790e-01 
-8.6286058e+00 -6.5322380e+00 3.0020589e-01 
-8.6758585e+00 -6.5819879e+00 4.6765137e-01 
-8.6531019e+00 -6.5708823e+00 7.0753759e-01 
-8.6318769e+00 -6.5531082e+00 7.2027099e-01 
-8.6761866e+00 -6.5847774e+00 5.3747141e-01 
-8.6592445e+00 -6.5753345e+00 7.0986789e-01 
-8.5975809e+00 -6.5255032e+00 7.2536272e-01 
-8.6299715e+00 -6.5368524e+00 3.3185557e-01 
-8.6764631e+00 -6.5865498e+00 6.1102366e-01 
-8.5880079e+00 -6.5092034e+00 5.1746100e-01 
-8.6886959e+00 -6.5986314e+00 6.7964619e-01 
-8.6492376e+00 -6.5676398e+00 7.3216879e-01 
-8.5417414e+00 -6.4705234e+00 5.1509142e-01 
-8.6715469e+00 -6.5907955e+00 8.6401772e-01 
-8.5221395e+00 -6.4509993e+00 4.5981398e-01 
-8.5019302e+00 -6.4427791e+00 6.2650305e-01 
-8.6288157e+00 -6.5520277e+00 7.7666998e-01 
-8.4861469e+00 -6.4119868e+00 2.9813433e-01 
-8.4957371e+00 -6.4203300e+00 2.8371701e-01 
-8.4565907e+00 -6.3926549e+00 4.0489379e-01 
-8.4931021e+00 -6.4283066e+00 4.8248857e-01 
-8.4553280e+00 -6.4055233e+00 6.7589074e-01 
-8.4904051e+00 -6.4172440e+00 2.8210145e-01 
-8.5797958e+00 -6.5092950e+00 7.4468565e-01 
-8.4477959e+00 -6.3896432e+00 4.7464955e-01 
-8.4634790e+00 -6.4126673e+00 7.1070993e-01 
-8.4158220e+00 -6.3673596e+00 5.5072713e-01 
-8.4765530e+00 -6.4109015e+00 3.7827840e-01 
-8.5215998e+00 -6.4578543e+00 6.4989686e-01 
-8.4377909e+00 -6.3897114e+00 6.9480056e-01 
-8.4655848e+00 -6.4062796e+00 4.8210725e-01 
-8.4430656e+00 -6.3939829e+00 6.8792456e-01 
-8.4824686e+00 -6.4279618e+00 7.3119587e-01 
-8.4658985e+00 -6.4085708e+00 5.5257684e-01 
-8.4483480e+00 -6.3985043e+00 6.9990546e-01 
-8.3856077e+00 -6.3379717e+00 4.7304383e-01 
-8.4093561e+00 -6.3590722e+00 4.9800780e-01 
-8.3709707e+00 -6.3360138e+00 7.0452762e-01 
-8.4070530e+00 -6.3490524e+00 2.9795030e-01 
-8.3465881e+00 -6.3128586e+00 6.1515635e-01 
-8.4955263e+00 -6.4420919e+00 8.4623724e-01 
-8.3447933e+00 -6.2942820e+00 3.0159411e-01 
-8.3553247e+00 -6.3024974e+00 2.7708516e-01 
-8.2826662e+00 -6.2616925e+00 6.6108727e-01 
-8.3180656e+00 -6.2718406e+00 2.6763710e-01 
-8.2740173e+00 -6.2403011e+00 3.8723207e-01 
-8.4042568e+00 -6.3632975e+00 7.6935148e-01 
-8.4062128e+00 -6.3634324e+00 7.2808677e-01 
-8.2622871e+00 -6.2395000e+00 5.4100353e-01 
-8.2915411e+00 -6.2690353e+00 6.9521230e-01 
-8.3214378e+00 -6.2803683e+00 3.4387046e-01 
-8.2523155e+00 -6.2249064e+00 4.3097994e-01 
-8.3112192e+00 -6.2848768e+00 7.1573877e-01 
-8.2170515e+00 -6.1868443e+00 2.7428707e-01 
-8.3157454e+00 -6.2853541e+00 6.1596829e-01 
-8.2264805e+00 -6.1946111e+00 2.6031235e-01 
-8.1924677e+00 -6.1847396e+00 6.0400212e-01 
-8.1871967e+00 -6.1725559e+00 4.5829448e-01 
-8.1999016e+00 -6.1939764e+00 6.9067717e-01 
-8.2361946e+00 -6.2054596e+00 2.8226230e-01 
-8.2189350e+00 -6.2007332e+00 4.9819490e-01 
-8.3237476e+00 -6.2982025e+00 8.2884979e-01 
-8.2164698e+00 -6.1950951e+00 3.8879359e-01 
-8.1903667e+00 -6.1843157e+00 6.7420214e-01 
-8.2231598e+00 -6.2046156e+00 5.0568551e-01 
-8.1167336e+00 -6.1181526e+00 5.2950335e-01 
-8.1283464e+00 -6.1239591e+00 4.5826781e-01 
-8.1136208e+00 -6.1213717e+00 6.4726561e-01 
-8.1485958e+00 -6.1305666e+00 2.5269964e-01 
-8.1333256e+00 -6.1374640e+00 6.8409199e-01 
-8.2346430e+00 -6.2225847e+00 7.5404406e-01 
-8.1280966e+00 -6.1250367e+00 4.8790163e-01 
-8.2365093e+00 -6.2226057e+00 7.1306884e-01 
-8.0871286e+00 -6.0846882e+00 3.7035233e-01 
-8.1518345e+00 -6.1388683e+00 3.2794654e-01 
-8.1583509e+00 -6.1575518e+00 6.6953236e-01 
-8.0794296e+00 -6.0728383e+00 2.7722734e-01 
-8.0896854e+00 -6.0808849e+00 2.5342074e-01 
-8.1654911e+00 -6.1609182e+00 6.1780691e-01 
-8.0545034e+00 -6.0599966e+00 4.0404147e-01 
-8.0406933e+00 -6.0583663e+00 5.8997494e-01 
-8.0370407e+00 -6.0477443e+00 4.4772178e-01 
-8.1496744e+00 -6.1512723e+00 7.0845747e-01 
-8.0326204e+00 -6.0547547e+00 6.7550755e-01 
-8.0669279e+00 -6.0651541e+00 2.6744241e-01 
-8.0555677e+00 -6.0655608e+00 4.9993044e-01 
-8.1553326e+00 -6.1586275e+00 8.1246704e-01 
-7.9674716e+00 -5.9946046e+00 5.1928616e-01 
-7.9595976e+00 -5.9844470e+00 4.5236576e-01 
-8.0154629e+00 -6.0329256e+00 5.0422806e-01 
-7.9463563e+00 -5.9825821e+00 6.3395345e-01 
-7.9810171e+00 -5.9921517e+00 2.3777720e-01 
-8.0675869e+00 -6.0844507e+00 7.3925805e-01 
-7.9540234e+00 -5.9685030e+00 2.5158945e-01 
-7.9644141e+00 -5.9876118e+00 4.3596458e-01 
-7.9634714e+00 -5.9762220e+00 2.3708518e-01 
-8.0694332e+00 -6.0844693e+00 6.9830221e-01 
-7.9552493e+00 -5.9902635e+00 6.6854841e-01 
-7.9844675e+00 -5.9998002e+00 3.1188038e-01 
-7.8945851e+00 -5.9250135e+00 3.5296246e-01 
-7.8934278e+00 -5.9369297e+00 5.7982689e-01 
-7.9769249e+00 -6.0084906e+00 6.8811530e-01 
-7.9816127e+00 -6.0086203e+00 5.8752614e-01 
-7.8660760e+00 -5.9171977e+00 6.6265339e-01 
-7.9008708e+00 -5.9275050e+00 2.5330341e-01 
-7.9892263e+00 -6.0213766e+00 7.9696548e-01 
-7.8803988e+00 -5.9270258e+00 6.4756179e-01 
-7.8198452e+00 -5.8726454e+00 5.0579333e-01 
-7.9004664e+00 -5.9343300e+00 3.8986471e-01 
-7.8247685e+00 -5.8730602e+00 4.4172996e-01 
-7.8199997e+00 -5.8580279e+00 2.5433651e-01 
-7.8304434e+00 -5.8659101e+00 2.3150869e-01 
-7.8404036e+00 -5.8889303e+00 5.0354010e-01 
-7.8064795e+00 -5.8675790e+00 6.5828580e-01 
-7.7814994e+00 -5.8464499e+00 6.2097287e-01 
-7.8365159e+00 -5.8772426e+00 2.9011405e-01 
-7.8159571e+00 -5.8553491e+00 2.2351517e-01 
-7.9024320e+00 -5.9481297e+00 7.2487652e-01 
-7.8055477e+00 -5.8574624e+00 4.4134173e-01 
-7.9042850e+00 -5.9481120e+00 6.8380737e-01 
-7.7479830e+00 -5.8089499e+00 4.2258501e-01 
-7.7465096e+00 -5.8156095e+00 5.6673157e-01 
-7.8151212e+00 -5.8680286e+00 4.8544019e-01 
-7.7975440e+00 -5.8594084e+00 6.4480937e-01 
-7.8124990e+00 -5.8729687e+00 6.7469835e-01 
-7.7117796e+00 -5.7771955e+00 3.7806150e-01 
-7.8174667e+00 -5.8730865e+00 5.7343262e-01 
-7.6968689e+00 -5.7617164e+00 3.3501464e-01 
-7.7027497e+00 -5.7830200e+00 6.4993280e-01 
-7.7370291e+00 -5.7922344e+00 2.3967251e-01 
-7.7008729e+00 -5.7707152e+00 4.2479983e-01 
-7.6740065e+00 -5.7526064e+00 4.9330646e-01 
-7.6975174e+00 -5.7567716e+00 2.2914803e-01 
-7.7066054e+00 -5.7639856e+00 2.1519844e-01 
-7.8248992e+00 -5.8859324e+00 7.8199363e-01 
-7.6189985e+00 -5.7135196e+00 6.0893852e-01 
-7.6531272e+00 -5.7210431e+00 2.1033952e-01 
-7.7391129e+00 -5.8137102e+00 7.1099079e-01 
-7.6332617e+00 -5.7170844e+00 4.5661104e-01 
-7.6027536e+00 -5.6895137e+00 4.0985239e-01 
-7.7409434e+00 -5.8136892e+00 6.6988635e-01 
-7.6015120e+00 -5.6966252e+00 5.5429971e-01 
-7.6282272e+00 -5.7213039e+00 6.4332092e-01 
-7.6574016e+00 -5.7299633e+00 2.8421661e-01 
-7.6013088e+00 -5.6865163e+00 3.7464237e-01 
-7.5659180e+00 -5.6491833e+00 2.3245689e-01 
-7.5758324e+00 -5.6569362e+00 2.0972806e-01 
-7.6502719e+00 -5.7396936e+00 6.6202247e-01 
-7.6552267e+00 -5.7400808e+00 5.6043470e-01 
-7.5611973e+00 -5.6508226e+00 3.1057712e-01 
-7.5298896e+00 -5.6344543e+00 4.8022816e-01 
-7.5416417e+00 -5.6511865e+00 6.3729393e-01 
-7.5757656e+00 -5.6597695e+00 2.2649531e-01 
-7.5601678e+00 -5.6576476e+00 4.5686269e-01 
-7.6626487e+00 -5.7525344e+00 7.6746172e-01 
-7.5556188e+00 -5.6610150e+00 6.2191820e-01 
-7.5760350e+00 -5.6668835e+00 3.6039135e-01 
-7.4931669e+00 -5.5947328e+00 3.1751782e-01 
-7.5414743e+00 -5.6444674e+00 5.0487405e-01 
-7.4790792e+00 -5.5916572e+00 4.6322823e-01 
-7.4678998e+00 -5.5744486e+00 3.1919828e-01 
-7.4712758e+00 -5.5801015e+00 3.6190137e-01 
-7.4587135e+00 -5.5796852e+00 5.4261971e-01 
-7.4832568e+00 -5.6030855e+00 6.3401574e-01 
-7.4594975e+00 -5.5828285e+00 5.9722096e-01 
-7.5131159e+00 -5.6112413e+00 2.6235068e-01 
-7.4928122e+00 -5.5900698e+00 1.9731742e-01 
-7.5780411e+00 -5.6814055e+00 6.9758320e-01 
-7.5798497e+00 -5.6813502e+00 6.5641296e-01 
-7.4466000e+00 -5.5509696e+00 2.0884287e-01 
-7.4559331e+00 -5.5589705e+00 1.9470201e-01 
-7.3879828e+00 -5.5183873e+00 4.6753401e-01 
-7.4722486e+00 -5.5929632e+00 6.2141502e-01 
-7.4829335e+00 -5.5951600e+00 4.5954072e-01 
-7.4908323e+00 -5.6088195e+00 6.4964801e-01 
-7.4008150e+00 -5.5250163e+00 3.9500451e-01 
-7.4955463e+00 -5.6086612e+00 5.4757202e-01 
-7.3827648e+00 -5.5214076e+00 6.2595630e-01 
-7.4164791e+00 -5.5297041e+00 2.1251336e-01 
-7.5025420e+00 -5.6211047e+00 7.5335103e-01 
-7.3809662e+00 -5.5106840e+00 4.2923295e-01 
-7.3172703e+00 -5.4567766e+00 3.9126578e-01 
-7.3297582e+00 -5.4626427e+00 3.1609464e-01 
-7.3172970e+00 -5.4645848e+00 5.3083652e-01 
-7.3193951e+00 -5.4478912e+00 2.1501125e-01 
-7.3265672e+00 -5.4533944e+00 1.8990926e-01 
-7.3014002e+00 -5.4539719e+00 5.8619934e-01 
-7.3347383e+00 -5.4611926e+00 1.8450531e-01 
-7.4190879e+00 -5.5512323e+00 6.8443352e-01 
-7.4208436e+00 -5.5511546e+00 6.4329451e-01 
-7.3195739e+00 -5.4579287e+00 3.7096709e-01 
-7.2846913e+00 -5.4247570e+00 2.9977310e-01 
-7.3107815e+00 -5.4620972e+00 6.2061280e-01 
-7.3387761e+00 -5.4696555e+00 2.5665495e-01 
-7.2480278e+00 -5.4048071e+00 4.5565462e-01 
-7.2593031e+00 -5.4088540e+00 3.7103882e-01 
-7.2552958e+00 -5.4120207e+00 4.9455467e-01 
-7.3330212e+00 -5.4800377e+00 6.3740122e-01 
-7.3374987e+00 -5.4801140e+00 5.3505284e-01 
-7.2262168e+00 -5.3940320e+00 6.1503047e-01 
-7.2592630e+00 -5.4018364e+00 1.9943343e-01 
-7.2244239e+00 -5.3799839e+00 3.4641209e-01 
-7.3444705e+00 -5.4919763e+00 7.3973048e-01 
-7.2405186e+00 -5.4039178e+00 6.0150272e-01 
-7.2600274e+00 -5.4095726e+00 3.3269456e-01 
-7.1802168e+00 -5.3450570e+00 3.7308916e-01 
-7.1905375e+00 -5.3448119e+00 2.3014507e-01 
-7.2005992e+00 -5.3512735e+00 1.8912894e-01 
-7.1785841e+00 -5.3518667e+00 5.1863956e-01 
-7.2084970e+00 -5.3575363e+00 1.7464347e-01 
-7.2006907e+00 -5.3656855e+00 4.4515520e-01 
-7.1701427e+00 -5.3481903e+00 6.1227781e-01 
-7.1458373e+00 -5.3283153e+00 5.7470161e-01 
-7.1988978e+00 -5.3556767e+00 2.3654661e-01 
-7.1790428e+00 -5.3345070e+00 1.7176244e-01 
-7.2621336e+00 -5.4234781e+00 6.7168075e-01 
-7.1695442e+00 -5.3372931e+00 3.7748644e-01 
-7.2638364e+00 -5.4233871e+00 6.3057643e-01 
-7.1476555e+00 -5.3210588e+00 4.1203353e-01 
-7.1101546e+00 -5.2927575e+00 4.4433689e-01 
-7.1156874e+00 -5.2903390e+00 3.1375518e-01 
-7.1584315e+00 -5.3376789e+00 5.9858519e-01 
-7.1772141e+00 -5.3537803e+00 6.2538332e-01 
-7.1682787e+00 -5.3395386e+00 4.3393657e-01 
-7.0697532e+00 -5.2507682e+00 2.8186223e-01 
-7.1817975e+00 -5.3537526e+00 5.2278334e-01 
-7.0758996e+00 -5.2503247e+00 1.9230655e-01 
-7.0846114e+00 -5.2570286e+00 1.7096829e-01 
-7.0858312e+00 -5.2653446e+00 2.9248253e-01 
-7.0718265e+00 -5.2691054e+00 6.0388505e-01 
-7.0918422e+00 -5.2633257e+00 1.6303143e-01 
-7.1044669e+00 -5.2763724e+00 1.8791093e-01 
-7.1883717e+00 -5.3652635e+00 7.2649783e-01 
-7.0413179e+00 -5.2409945e+00 5.0790304e-01 
-7.0040350e+00 -5.2048612e+00 3.9384875e-01 
-6.9925947e+00 -5.2042871e+00 5.6450337e-01 
-7.0253162e+00 -5.2102475e+00 1.6055608e-01 
-7.1071692e+00 -5.2981377e+00 6.5936518e-01 
-7.1088257e+00 -5.2980332e+00 6.1831433e-01 
-6.9930291e+00 -5.1913037e+00 3.0778474e-01 
-6.9737968e+00 -5.1832190e+00 4.3354425e-01 
-7.0017734e+00 -5.2118940e+00 5.9906477e-01 
-7.0291781e+00 -5.2189584e+00 2.3249984e-01 
-6.9933743e+00 -5.1970305e+00 4.0874153e-01 
-6.9518719e+00 -5.1518192e+00 2.1102418e-01 
-6.9618359e+00 -5.1581144e+00 1.7076594e-01 
-6.9693856e+00 -5.1643720e+00 1.5602382e-01 
-7.0236106e+00 -5.2295623e+00 6.1441070e-01 
-7.0279441e+00 -5.2296267e+00 5.1139414e-01 
-6.9078794e+00 -5.1251497e+00 3.5046911e-01 
-6.9190345e+00 -5.1303363e+00 2.8183362e-01 
-6.9247255e+00 -5.1406140e+00 3.8193575e-01 
-6.9057312e+00 -5.1319828e+00 4.9661604e-01 
-6.9195628e+00 -5.1468029e+00 5.9286386e-01 
-6.9522724e+00 -5.1535354e+00 1.7661026e-01 
-6.9417005e+00 -5.1565785e+00 4.2235827e-01 
-7.0345025e+00 -5.2408304e+00 7.1349376e-01 
-6.9331388e+00 -5.1557922e+00 5.8104342e-01 
-6.9529238e+00 -5.1611090e+00 3.0545774e-01 
-6.8483963e+00 -5.0722513e+00 2.6383999e-01 
-6.8394804e+00 -5.0748444e+00 4.2269549e-01 
-6.8647661e+00 -5.1021538e+00 5.9099960e-01 
-6.8413100e+00 -5.0830827e+00 5.5424070e-01 
-6.8925734e+00 -5.1083140e+00 2.1327092e-01 
-6.8742495e+00 -5.0886993e+00 1.4897582e-01 
-6.9545603e+00 -5.1749015e+00 6.4735061e-01 
-6.8603516e+00 -5.0911264e+00 4.1967654e-01 
-6.9561772e+00 -5.1747713e+00 6.0639989e-01 
-6.8398204e+00 -5.0604472e+00 1.7368023e-01 
-6.8483448e+00 -5.0667281e+00 1.5292786e-01 
-6.7828445e+00 -5.0254569e+00 3.4718105e-01 
-6.7874060e+00 -5.0251403e+00 2.8027135e-01 
-6.8534365e+00 -5.0918870e+00 5.7830757e-01 
-6.7722616e+00 -5.0246420e+00 4.8714027e-01 
-6.8721366e+00 -5.1078181e+00 6.0303235e-01 
-6.8630638e+00 -5.0935812e+00 4.1057906e-01 
-6.8766122e+00 -5.1077132e+00 5.0010872e-01 
-6.7782516e+00 -5.0244861e+00 3.9866254e-01 
-6.7696481e+00 -5.0265145e+00 5.8189714e-01 
-6.8021111e+00 -5.0330658e+00 1.6498548e-01 
-6.8066564e+00 -5.0484343e+00 4.2340463e-01 
-6.8829112e+00 -5.1187630e+00 7.0094198e-01 
-6.7300601e+00 -4.9730191e+00 1.8101533e-01 
-6.7063155e+00 -4.9684291e+00 4.1185394e-01 
-6.7282462e+00 -4.9705071e+00 1.5255444e-01 
-6.7354951e+00 -4.9765773e+00 1.3762118e-01 
-6.6925721e+00 -4.9638677e+00 5.4474771e-01 
-6.7249479e+00 -4.9689765e+00 1.3759193e-01 
-6.8042045e+00 -5.0542364e+00 6.3575405e-01 
-6.8057795e+00 -5.0540876e+00 5.9495932e-01 
-6.7107987e+00 -4.9668097e+00 3.1345850e-01 
-6.6879134e+00 -4.9490299e+00 3.2957578e-01 
-6.7010431e+00 -4.9713964e+00 5.7976675e-01 
-6.6747098e+00 -4.9359131e+00 2.9025540e-01 
-6.7289515e+00 -4.9773760e+00 2.0851313e-01 
-6.6400638e+00 -4.9191561e+00 4.7616941e-01 
-6.7232747e+00 -4.9883499e+00 5.9268171e-01 
-6.6201825e+00 -4.8895659e+00 2.4565504e-01 
-6.7274632e+00 -4.9883456e+00 4.8955533e-01 
-6.6298695e+00 -4.9063406e+00 3.9137447e-01 
-6.6217971e+00 -4.9087152e+00 5.7292986e-01 
-6.6540909e+00 -4.9145317e+00 1.5405960e-01 
-6.6375699e+00 -4.9131970e+00 4.0784031e-01 
-6.7336240e+00 -4.9991221e+00 6.8878454e-01 
-6.6084514e+00 -4.8753390e+00 1.5663904e-01 
-6.6169982e+00 -4.8816061e+00 1.3570060e-01 
-6.6358294e+00 -4.9179397e+00 5.5967891e-01 
-6.6537848e+00 -4.9216328e+00 2.8299099e-01 
-6.6041341e+00 -4.8778901e+00 2.3774579e-01 
-6.5754495e+00 -4.8637538e+00 4.0166244e-01 
-6.6201191e+00 -4.9010258e+00 4.5271307e-01 
-6.5680900e+00 -4.8655210e+00 5.7220089e-01 
-6.5454111e+00 -4.8469748e+00 5.3548849e-01 
-6.5967884e+00 -4.8710518e+00 1.8948348e-01 
-6.5774484e+00 -4.8515477e+00 1.2648329e-01 
-6.6561437e+00 -4.9357719e+00 6.2454522e-01 
-6.6576724e+00 -4.9355969e+00 5.8385080e-01 
-6.5638537e+00 -4.8496408e+00 3.0012181e-01 
-6.5122747e+00 -4.8089008e+00 3.1887585e-01 
-6.5099969e+00 -4.8159251e+00 4.6643168e-01 
-6.5212955e+00 -4.8152299e+00 3.0160469e-01 
-6.5002675e+00 -4.7899575e+00 1.6431876e-01 
-6.5581350e+00 -4.8563414e+00 5.5864149e-01 
-6.4996524e+00 -4.7884135e+00 1.3602203e-01 
-6.5761757e+00 -4.8713470e+00 5.8205765e-01 
-6.5677061e+00 -4.8575878e+00 3.8806030e-01 
-6.5039430e+00 -4.7920184e+00 1.2097505e-01 
-6.5805202e+00 -4.8711371e+00 4.7884792e-01 
-6.4769239e+00 -4.7853808e+00 3.9242449e-01 
-6.4753947e+00 -4.7923560e+00 5.6394929e-01 
-6.5078659e+00 -4.7978759e+00 1.4276861e-01 
-6.5863786e+00 -4.8816504e+00 6.7708260e-01 
-6.4459591e+00 -4.7609715e+00 3.9128104e-01 
-6.4470472e+00 -4.7546568e+00 2.7022547e-01 
-6.4699516e+00 -4.7797251e+00 3.8552424e-01 
-6.4000211e+00 -4.7317910e+00 5.2606863e-01 
-6.4327188e+00 -4.7361574e+00 1.1520321e-01 
-6.5099034e+00 -4.8194776e+00 6.1364007e-01 
-6.5113926e+00 -4.8192854e+00 5.7301122e-01 
-6.4186692e+00 -4.7343650e+00 2.8683224e-01 
-6.3853240e+00 -4.7030950e+00 2.2784555e-01 
-6.3812447e+00 -4.7135367e+00 4.5654663e-01 
-6.4094939e+00 -4.7395625e+00 5.6063920e-01 
-6.4363155e+00 -4.7447720e+00 1.8661633e-01 
-6.3824592e+00 -4.6960111e+00 1.4032331e-01 
-6.3909225e+00 -4.7022729e+00 1.1947839e-01 
-6.4311466e+00 -4.7558689e+00 5.7232285e-01 
-6.3368239e+00 -4.6673584e+00 2.5885919e-01 
-6.4352050e+00 -4.7557673e+00 4.6867430e-01 
-6.3182731e+00 -4.6599870e+00 3.8193750e-01 
-6.3310475e+00 -4.6786113e+00 5.5524194e-01 
-6.3632526e+00 -4.6837611e+00 1.3265994e-01 
-6.3466401e+00 -4.6825757e+00 3.9325646e-01 
-6.4409647e+00 -4.7661133e+00 6.6561675e-01 
-6.3455625e+00 -4.6877933e+00 5.4267979e-01 
-6.3207464e+00 -4.6552367e+00 2.5976568e-01 
-6.3640800e+00 -4.6912870e+00 2.5863829e-01 
-6.3297467e+00 -4.6715183e+00 4.3812743e-01 
-6.2569695e+00 -4.6067071e+00 2.9955566e-01 
-6.2705746e+00 -4.6083217e+00 1.4782903e-01 
-6.2540669e+00 -4.6132498e+00 4.4750908e-01 
-6.2760372e+00 -4.6114841e+00 1.2013964e-01 
-6.2795439e+00 -4.6373301e+00 5.5399460e-01 
-6.2566223e+00 -4.6190019e+00 5.1797557e-01 
-6.2846403e+00 -4.6181951e+00 1.0309712e-01 
-6.3074031e+00 -4.6425667e+00 1.6781186e-01 
-6.2892661e+00 -4.6231194e+00 1.0577510e-01 
-6.3654709e+00 -4.7048388e+00 6.0297710e-01 
-6.2684546e+00 -4.6206703e+00 3.8432559e-01 
-6.2812619e+00 -4.6268024e+00 2.9552922e-01 
-6.3669248e+00 -4.7046208e+00 5.6237811e-01 
-6.2227759e+00 -4.5771241e+00 2.4903205e-01 
-6.2337270e+00 -4.5849619e+00 2.2987194e-01 
-6.1923141e+00 -4.5605130e+00 3.7261155e-01 
-6.2700791e+00 -4.6278811e+00 5.4021531e-01 
-6.2874432e+00 -4.6423311e+00 5.6241220e-01 
-6.2793827e+00 -4.6290932e+00 3.6648318e-01 
-6.2917490e+00 -4.6421003e+00 4.5843425e-01 
-6.1888866e+00 -4.5661893e+00 5.4599226e-01 
-6.2206879e+00 -4.5710521e+00 1.2241046e-01 
-6.1799870e+00 -4.5508599e+00 3.7601122e-01 
-6.2105126e+00 -4.5736856e+00 3.4843063e-01 
-6.2972469e+00 -4.6522417e+00 6.5439141e-01 
-6.1616774e+00 -4.5219054e+00 1.2458472e-01 
-6.1700220e+00 -4.5278721e+00 1.0419317e-01 
-6.1427426e+00 -4.5117979e+00 2.0978801e-01 
-6.1399012e+00 -4.5142055e+00 2.7901343e-01 
-6.1288419e+00 -4.5144272e+00 4.3848774e-01 
-6.1151719e+00 -4.5072470e+00 5.0937730e-01 
-6.1473131e+00 -4.5113287e+00 9.4843552e-02 
-6.2226248e+00 -4.5919209e+00 5.9246683e-01 
-6.1267800e+00 -4.5092440e+00 3.7781525e-01 
-6.2240415e+00 -4.5916867e+00 5.5196720e-01 
-6.1245151e+00 -4.5150290e+00 5.4391778e-01 
-6.1514573e+00 -4.5197816e+00 1.6519465e-01 
-6.0674472e+00 -4.4622293e+00 3.6352175e-01 
-6.1456771e+00 -4.5303144e+00 5.5273467e-01 
-6.1496034e+00 -4.5301285e+00 4.4874090e-01 
-6.0671220e+00 -4.4470997e+00 8.9037076e-02 
-6.0569439e+00 -4.4393649e+00 1.0430096e-01 
-6.0481424e+00 -4.4554949e+00 5.3730822e-01 
-6.0633345e+00 -4.4529829e+00 2.4899141e-01 
-6.0803051e+00 -4.4607444e+00 1.1218225e-01 
-6.0627809e+00 -4.4590778e+00 3.7969780e-01 
-6.0405397e+00 -4.4273825e+00 1.3174488e-01 
-6.1553040e+00 -4.5402184e+00 6.4330947e-01 
-6.0617251e+00 -4.4643626e+00 5.2562332e-01 
-6.0808220e+00 -4.4684987e+00 2.3563179e-01 
-6.0074229e+00 -4.4104681e+00 2.8126308e-01 
-6.0045781e+00 -4.4167933e+00 4.2989865e-01 
-6.0457735e+00 -4.4479599e+00 4.2407572e-01 
-6.0012889e+00 -4.4027319e+00 2.2752026e-01 
-5.9976931e+00 -4.4155197e+00 5.3731215e-01 
-5.9755197e+00 -4.3973317e+00 5.0175893e-01 
-6.0257134e+00 -4.4205990e+00 1.4741631e-01 
-6.0076456e+00 -4.4015551e+00 8.5613936e-02 
-5.9866810e+00 -4.3993344e+00 3.7093812e-01 
-6.0816255e+00 -4.4808826e+00 5.8205682e-01 
-6.0830321e+00 -4.4806070e+00 5.4174829e-01 
-5.9439301e+00 -4.3656201e+00 3.5431689e-01 
-5.9528637e+00 -4.3687625e+00 2.9162771e-01 
-5.9448972e+00 -4.3515916e+00 1.0940394e-01 
-5.9531741e+00 -4.3576698e+00 8.8833429e-02 
-6.0055299e+00 -4.4204159e+00 5.4277897e-01 
-6.0096898e+00 -4.4199972e+00 4.3904397e-01 
-5.9788275e+00 -4.3985310e+00 5.2226931e-01 
-5.9863954e+00 -4.3983917e+00 3.4592342e-01 
-5.9093294e+00 -4.3465528e+00 5.2843201e-01 
-5.9246745e+00 -4.3447199e+00 2.3743029e-01 
-5.9406309e+00 -4.3512793e+00 1.0238914e-01 
-5.9012399e+00 -4.3246517e+00 2.2308658e-01 
-5.9441390e+00 -4.3653240e+00 3.4131360e-01 
-5.8915567e+00 -4.3146696e+00 1.9207191e-01 
-6.0152459e+00 -4.4302716e+00 6.3245016e-01 
-5.8818140e+00 -4.3207932e+00 4.2051023e-01 
-5.8917065e+00 -4.3252020e+00 3.6565456e-01 
-5.8374710e+00 -4.2895989e+00 4.9307394e-01 
-5.8695984e+00 -4.2935929e+00 7.6061085e-02 
-5.9425445e+00 -4.3719850e+00 5.7189006e-01 
-5.8579416e+00 -4.2836175e+00 7.2970040e-02 
-5.9439354e+00 -4.3716764e+00 5.3181982e-01 
-5.8221326e+00 -4.2702985e+00 3.4573010e-01 
-5.8427510e+00 -4.2714467e+00 9.0131678e-02 
-5.8311477e+00 -4.2739711e+00 2.8512397e-01 
-5.8462019e+00 -4.2971859e+00 5.2716732e-01 
-5.8731713e+00 -4.3011255e+00 1.4466383e-01 
-5.8398232e+00 -4.2797360e+00 2.5419286e-01 
-5.8094597e+00 -4.2466340e+00 1.1653695e-01 
-5.7824550e+00 -4.2312913e+00 2.0580801e-01 
-5.8675404e+00 -4.3123441e+00 5.3352588e-01 
-5.8714676e+00 -4.3120251e+00 4.2977610e-01 
-5.7638726e+00 -4.2201409e+00 2.6349545e-01 
-5.7609735e+00 -4.2265334e+00 4.1177058e-01 
-5.7790446e+00 -4.2370534e+00 3.5145468e-01 
-5.7722878e+00 -4.2400384e+00 5.2105218e-01 
-5.7878356e+00 -4.2375751e+00 2.2567967e-01 
-5.8038812e+00 -4.2442250e+00 9.2522427e-02 
-5.7930412e+00 -4.2442379e+00 2.7015820e-01 
-5.8770571e+00 -4.3223705e+00 6.2179828e-01 
-5.7858448e+00 -4.2481751e+00 5.0707948e-01 
-5.8046064e+00 -4.2521772e+00 2.1639019e-01 
-5.7783155e+00 -4.2335610e+00 2.7592057e-01 
-5.7406654e+00 -4.1917467e+00 7.4723370e-02 
-5.7324524e+00 -4.1856451e+00 9.0717532e-02 
-5.7017622e+00 -4.1766648e+00 3.3689073e-01 
-5.7228608e+00 -4.2010260e+00 5.2141672e-01 
-5.7012367e+00 -4.1839509e+00 4.8552504e-01 
-5.7503986e+00 -4.2052412e+00 1.2782012e-01 
-5.7334070e+00 -4.1872344e+00 6.6381805e-02 
-5.7178116e+00 -4.1901283e+00 3.6526102e-01 
-5.8052173e+00 -4.2648787e+00 5.6194049e-01 
-5.7094288e+00 -4.1752234e+00 2.0491542e-01 
-5.8065724e+00 -4.2645202e+00 5.2198160e-01 
-5.6765609e+00 -4.1498089e+00 2.0951290e-01 
-5.6649170e+00 -4.1391258e+00 1.8824613e-01 
-5.7250772e+00 -4.2012024e+00 5.0540382e-01 
-5.7307634e+00 -4.2062106e+00 5.2425075e-01 
-5.7225356e+00 -4.1928310e+00 3.2524309e-01 
-5.7350011e+00 -4.2059007e+00 4.2038375e-01 
-5.6321740e+00 -4.1126928e+00 1.7450097e-01 
-5.6601281e+00 -4.1379914e+00 2.1334410e-01 
-5.6367702e+00 -4.1347747e+00 5.1222712e-01 
-5.6680393e+00 -4.1388412e+00 8.3225489e-02 
-5.6581039e+00 -4.1399088e+00 2.7293891e-01 
-5.6325583e+00 -4.1077027e+00 7.5842038e-02 
-5.7405624e+00 -4.2160878e+00 6.1117333e-01 
-5.6297407e+00 -4.1057305e+00 5.8722358e-02 
-5.6552577e+00 -4.1422520e+00 3.7991574e-01 
-5.5887737e+00 -4.0941257e+00 4.2614856e-01 
-5.5821424e+00 -4.0837593e+00 3.3415708e-01 
-5.5863862e+00 -4.0792861e+00 1.9487350e-01 
-5.6711025e+00 -4.1588087e+00 4.9079981e-01 
-5.5664921e+00 -4.0791292e+00 4.7812146e-01 
-5.5985599e+00 -4.0829620e+00 5.7366900e-02 
-5.6696610e+00 -4.1596704e+00 5.5183673e-01 
-5.6709805e+00 -4.1592460e+00 5.1209188e-01 
-5.5761065e+00 -4.0704718e+00 1.6888021e-01 
-5.5754685e+00 -4.0862751e+00 5.1114720e-01 
-5.6019187e+00 -4.0904708e+00 1.2608436e-01 
-5.5539651e+00 -4.0624332e+00 3.3873829e-01 
-5.5324855e+00 -4.0301986e+00 6.1515465e-02 
-5.5209804e+00 -4.0219216e+00 8.2056828e-02 
-5.5390224e+00 -4.0356088e+00 5.0341722e-02 
-5.5958104e+00 -4.1015911e+00 5.1468670e-01 
-5.5997558e+00 -4.1008291e+00 4.1115808e-01 
-5.4909220e+00 -4.0192132e+00 4.3628815e-01 
-5.5027008e+00 -4.0307317e+00 5.0482494e-01 
-5.5342860e+00 -4.0353060e+00 7.4096903e-02 
-5.4807363e+00 -4.0029321e+00 2.8359246e-01 
-5.4794588e+00 -4.0069308e+00 3.6945772e-01 
-5.6055012e+00 -4.1112881e+00 6.0053623e-01 
-5.5061145e+00 -4.0192027e+00 2.1379331e-01 
-5.5170140e+00 -4.0333710e+00 3.2290530e-01 
-5.5146208e+00 -4.0385604e+00 4.9128005e-01 
-5.5345693e+00 -4.0418029e+00 1.9554086e-01 
-5.4606581e+00 -3.9887869e+00 3.0578497e-01 
-5.5193200e+00 -4.0419269e+00 4.9200541e-01 
-5.4721422e+00 -3.9903107e+00 1.6719238e-01 
-5.4546781e+00 -3.9796638e+00 2.2430205e-01 
-5.4544649e+00 -3.9927623e+00 5.0560361e-01 
-5.4331102e+00 -3.9761655e+00 4.7017521e-01 
-5.4654536e+00 -3.9796784e+00 4.8762705e-02 
-5.4439764e+00 -3.9779286e+00 3.4650683e-01 
-5.5351996e+00 -4.0554385e+00 5.4171866e-01 
-5.4478693e+00 -3.9841955e+00 4.2218164e-01 
-5.5365238e+00 -4.0550218e+00 5.0233346e-01 
-5.4688668e+00 -3.9876840e+00 1.1669529e-01 
-5.4379945e+00 -3.9571440e+00 4.6443108e-02 
-5.4218121e+00 -3.9448116e+00 6.3474707e-02 
-5.4070058e+00 -3.9389646e+00 1.6357611e-01 
-5.3909545e+00 -3.9410546e+00 4.1120890e-01 
-5.3789029e+00 -3.9271731e+00 3.2081354e-01 
-5.3809018e+00 -3.9182479e+00 1.5748525e-01 
-5.4626365e+00 -3.9985440e+00 5.0515467e-01 
-5.4666328e+00 -3.9978724e+00 4.0235233e-01 
-5.3723040e+00 -3.9140153e+00 1.8710598e-01 
-5.4468789e+00 -3.9791963e+00 3.0619559e-01 
-5.3705230e+00 -3.9289227e+00 4.9655047e-01 
-5.4019132e+00 -3.9326816e+00 6.5409027e-02 
-5.3928285e+00 -3.9351394e+00 2.5970548e-01 
-5.4722190e+00 -4.0082693e+00 5.8994687e-01 
-5.3490047e+00 -3.9014447e+00 2.7157176e-01 
-5.4000459e+00 -3.9446299e+00 3.5138881e-01 
-5.3598771e+00 -3.9055595e+00 1.8569642e-01 
-5.3348393e+00 -3.8846698e+00 1.6293646e-01 
-5.3284802e+00 -3.8728466e+00 4.8493851e-02 
-5.3197689e+00 -3.8664978e+00 6.4632460e-02 
-5.3020997e+00 -3.8753729e+00 4.6333963e-01 
-5.3342333e+00 -3.8784115e+00 4.0339202e-02 
-5.3126621e+00 -3.8771737e+00 3.4033498e-01 
-5.2969170e+00 -3.8548195e+00 1.6480117e-01 
-5.4031286e+00 -3.9536052e+00 5.3189868e-01 
-5.4043927e+00 -3.9531710e+00 4.9294078e-01 
-5.3113561e+00 -3.8825293e+00 4.9511552e-01 
-5.2795916e+00 -3.8479803e+00 2.7021298e-01 
-5.2782841e+00 -3.8520353e+00 3.5525107e-01 
-5.3271933e+00 -3.8774664e+00 9.6911192e-02 
-5.2616878e+00 -3.8366325e+00 3.1195834e-01 
-5.2573214e+00 -3.8248119e+00 1.6475926e-01 
-5.3314595e+00 -3.8977525e+00 4.9612883e-01 
-5.3072143e+00 -3.8786020e+00 4.7801071e-01 
-5.2557182e+00 -3.8256705e+00 1.9004370e-01 
-5.3353920e+00 -3.8970621e+00 3.9368325e-01 
-5.2402673e+00 -3.8286948e+00 4.8852640e-01 
-5.2395082e+00 -3.8057706e+00 8.0313116e-02 
-5.2718539e+00 -3.8322871e+00 5.6942206e-02 
-5.2723207e+00 -3.8409193e+00 2.1701720e-01 
-5.2602134e+00 -3.8309474e+00 2.0897195e-01 
-5.2527947e+00 -3.8311067e+00 3.3723664e-01 
-5.3409824e+00 -3.9071250e+00 5.7954133e-01 
-5.2721429e+00 -3.8398123e+00 1.7701221e-01 
-5.2244124e+00 -3.7932222e+00 5.0763492e-02 
-5.2790818e+00 -3.8538060e+00 3.9149669e-01 
-5.2260494e+00 -3.7942550e+00 3.3009145e-02 
-5.1803617e+00 -3.7794847e+00 3.9589146e-01 
-5.1737680e+00 -3.7689159e+00 2.9792115e-01 
-5.1725526e+00 -3.7761822e+00 4.5513719e-01 
-5.2210107e+00 -3.7960749e+00 9.2470400e-02 
-5.2048879e+00 -3.7789621e+00 3.1885687e-02 
-5.2728190e+00 -3.8533385e+00 5.2214926e-01 
-5.1928773e+00 -3.7778578e+00 1.8487142e-01 
-5.2740321e+00 -3.8529122e+00 4.8353705e-01 
-5.1677637e+00 -3.7727385e+00 4.8805434e-01 
-5.1470504e+00 -3.7388229e+00 1.4263324e-01 
-5.1500316e+00 -3.7430911e+00 1.6640420e-01 
-5.1544347e+00 -3.7458816e+00 1.4726697e-01 
-5.1245904e+00 -3.7306795e+00 2.8134263e-01 
-5.2021990e+00 -3.7983861e+00 4.8692989e-01 
-5.1211066e+00 -3.7143557e+00 5.6804296e-02 
-5.1288981e+00 -3.7197502e+00 3.6795203e-02 
-5.1353388e+00 -3.7249656e+00 2.4674630e-02 
-5.1280475e+00 -3.7259912e+00 1.4231032e-01 
-5.1116800e+00 -3.7306931e+00 4.8034337e-01 
-5.1429195e+00 -3.7338152e+00 4.9319100e-02 
-5.1364727e+00 -3.7383406e+00 2.4567141e-01 
-5.1201982e+00 -3.7305214e+00 3.5140491e-01 
-5.1936984e+00 -3.7886422e+00 3.9773196e-01 
-5.2112846e+00 -3.8075688e+00 5.6930107e-01 
-5.0829582e+00 -3.6972988e+00 2.5742269e-01 
-5.1205540e+00 -3.7319942e+00 3.8851827e-01 
-5.0813789e+00 -3.7013545e+00 3.4180862e-01 
-5.0818214e+00 -3.7054667e+00 4.1403723e-01 
-5.1242561e+00 -3.7381639e+00 4.6668586e-01 
-5.1360149e+00 -3.7401898e+00 2.8322488e-01 
-5.0450325e+00 -3.6788592e+00 4.4761565e-01 
-5.0628972e+00 -3.6926894e+00 4.8119915e-01 
-5.0772276e+00 -3.6817043e+00 2.4896894e-02 
-5.0472345e+00 -3.6735590e+00 3.1282055e-01 
-5.0655174e+00 -3.6805584e+00 1.7503291e-01 
-5.1439805e+00 -3.7545600e+00 5.1243609e-01 
-5.1451011e+00 -3.7540367e+00 4.7407702e-01 
-5.0802722e+00 -3.6891389e+00 9.2204757e-02 
-5.0332069e+00 -3.6550522e+00 1.7764299e-01 
-5.0305710e+00 -3.6461115e+00 6.7864984e-02 
-5.0271773e+00 -3.6421802e+00 3.8694322e-02 
-5.0055680e+00 -3.6364670e+00 2.2089130e-01 
-5.0338349e+00 -3.6474314e+00 2.3123974e-02 
-4.9853320e+00 -3.6259542e+00 2.9491585e-01 
-5.0887451e+00 -3.7085257e+00 3.9340478e-01 
-4.9833026e+00 -3.6292894e+00 3.8819581e-01 
-5.0312195e+00 -3.6585968e+00 2.4246964e-01 
-4.9879003e+00 -3.6191332e+00 1.4574602e-01 
-4.9850187e+00 -3.6339731e+00 4.7254616e-01 
-5.0163140e+00 -3.6371646e+00 4.1890644e-02 
-5.0622764e+00 -3.6914165e+00 4.7997782e-01 
-5.0525994e+00 -3.6793473e+00 3.5001251e-01 
-4.9938426e+00 -3.6336770e+00 3.2691786e-01 
-5.0829921e+00 -3.7091758e+00 5.5874974e-01 
-5.0010877e+00 -3.6441143e+00 4.5701474e-01 
-4.9286404e+00 -3.5724623e+00 1.2943265e-01 
-4.9347062e+00 -3.5878348e+00 3.0668327e-01 
-4.9316144e+00 -3.5794988e+00 1.9754963e-01 
-5.0030847e+00 -3.6429648e+00 3.8203073e-01 
-4.9187889e+00 -3.5827367e+00 4.4025692e-01 
-4.9509907e+00 -3.5853672e+00 1.6710846e-02 
-4.9370098e+00 -3.5781586e+00 9.2800625e-02 
-4.9254975e+00 -3.5654762e+00 4.4934865e-02 
-4.9330287e+00 -3.5706475e+00 2.5351379e-02 
-4.9400530e+00 -3.5849965e+00 1.6562271e-01 
-5.0163879e+00 -3.6570265e+00 5.0233483e-01 
-4.9697747e+00 -3.6083879e+00 1.5573987e-01 
-5.0174890e+00 -3.6565189e+00 4.6459857e-01 
-4.9224410e+00 -3.5791538e+00 3.2023999e-01 
-4.9281602e+00 -3.5900238e+00 4.7025883e-01 
-4.9541101e+00 -3.5930254e+00 8.4296994e-02 
-4.8900418e+00 -3.5506678e+00 2.4550480e-01 
-4.8889647e+00 -3.5547743e+00 3.2909590e-01 
-4.8887711e+00 -3.5585582e+00 4.0118870e-01 
-4.9012613e+00 -3.5551114e+00 1.6413702e-01 
-4.9473071e+00 -3.6037378e+00 4.6820906e-01 
-4.9507909e+00 -3.6028781e+00 3.6831513e-01 
-4.8590388e+00 -3.5212004e+00 1.4443891e-01 
-4.8597913e+00 -3.5386703e+00 4.6475518e-01 
-4.8909302e+00 -3.5421240e+00 3.3949692e-02 
-4.9565115e+00 -3.6128471e+00 5.4819751e-01 
-4.8422251e+00 -3.5183005e+00 3.1107447e-01 
-4.8354096e+00 -3.5086496e+00 2.2979791e-01 
-4.8296766e+00 -3.4933829e+00 5.6613557e-02 
-4.8333473e+00 -3.4950609e+00 2.7634995e-02 
-4.8391533e+00 -3.4994743e+00 9.7214710e-03 
-4.8061142e+00 -3.4850781e+00 2.0840858e-01 
-4.8829436e+00 -3.5477157e+00 2.6859623e-01 
-4.7943201e+00 -3.4805567e+00 2.8240150e-01 
-4.7936234e+00 -3.4846439e+00 3.6065653e-01 
-4.7945485e+00 -3.4888146e+00 4.3259048e-01 
-4.8265882e+00 -3.4910994e+00 9.4659207e-03 
-4.8269067e+00 -3.5120151e+00 4.4699940e-01 
-4.8155460e+00 -3.4905155e+00 1.5625842e-01 
-4.8909006e+00 -3.5616970e+00 4.9242970e-01 
-4.8919806e+00 -3.5611551e+00 4.5527032e-01 
-4.8035583e+00 -3.4953423e+00 4.6286240e-01 
-4.8305244e+00 -3.4995224e+00 7.5668670e-02 
-4.7906880e+00 -3.4800053e+00 3.3387938e-01 
-4.7673011e+00 -3.4515226e+00 1.2251595e-01 
-4.7418332e+00 -3.4356592e+00 1.8811439e-01 
-4.7408400e+00 -3.4391804e+00 2.5886482e-01 
-4.8265638e+00 -3.5085387e+00 3.5988152e-01 
-4.7421942e+00 -3.4424548e+00 3.0383268e-01 
-4.7368617e+00 -3.4460793e+00 4.5680752e-01 
-4.7676048e+00 -3.4485521e+00 2.6882781e-02 
-4.7488828e+00 -3.4379070e+00 1.1781224e-01 
-4.7231369e+00 -3.4166949e+00 1.1700866e-01 
-4.8120370e+00 -3.5011976e+00 4.6082342e-01 
-4.7341375e+00 -3.4202797e+00 3.4223679e-02 
-4.7414985e+00 -3.4253261e+00 1.4368746e-02 
-4.7539592e+00 -3.4467344e+00 2.0161657e-01 
-4.7479482e+00 -3.4306347e+00 1.7912228e-03 
-4.7623081e+00 -3.4538560e+00 2.1393849e-01 
-4.8320866e+00 -3.5182829e+00 5.3760529e-01 
-4.7010183e+00 -3.4075592e+00 2.3383930e-01 
-4.6997862e+00 -3.4117100e+00 3.1643766e-01 
-4.7000132e+00 -3.4155381e+00 3.8818750e-01 
-4.7531061e+00 -3.4561403e+00 4.3970010e-01 
-4.6719894e+00 -3.3962054e+00 4.2559537e-01 
-4.7040210e+00 -3.3984563e+00 2.6995507e-03 
-4.6705804e+00 -3.3879149e+00 2.9071590e-01 
-4.7675452e+00 -3.4680901e+00 4.8244342e-01 
-4.7685423e+00 -3.4675362e+00 4.4591326e-01 
-4.6813307e+00 -3.4034166e+00 4.5475909e-01 
-4.7076306e+00 -3.4065433e+00 6.8655811e-02 
-4.6691060e+00 -3.3774815e+00 1.2392425e-01 
-4.7158403e+00 -3.4165044e+00 1.3973914e-01 
-4.6561060e+00 -3.3740380e+00 2.3587678e-01 
-4.6776266e+00 -3.3886585e+00 1.9351816e-01 
-4.6485257e+00 -3.3628874e+00 1.4359994e-01 
-4.6347804e+00 -3.3469141e+00 5.9828632e-02 
-4.6438112e+00 -3.3517210e+00 1.7095394e-02 
-4.6502128e+00 -3.3566821e+00 1.6512532e-03 
-4.6430578e+00 -3.3565927e+00 8.6654112e-02 
-4.7008586e+00 -3.4170215e+00 4.4933149e-01 
-4.6090188e+00 -3.3355880e+00 1.8420766e-01 
-4.6073575e+00 -3.3396673e+00 2.7039707e-01 
-4.6073642e+00 -3.3448257e+00 3.6408114e-01 
-4.6146083e+00 -3.3540256e+00 4.4907910e-01 
-4.6458421e+00 -3.3564827e+00 1.9625045e-02 
-4.6289864e+00 -3.3577261e+00 3.0745420e-01 
-4.6925106e+00 -3.4077358e+00 3.6372036e-01 
-4.7094479e+00 -3.4254625e+00 5.2717859e-01 
-4.6222925e+00 -3.3524144e+00 2.9827616e-01 
-4.6381025e+00 -3.3631165e+00 2.5335529e-01 
-4.5559173e+00 -3.2957537e+00 1.7861055e-01 
-4.5509014e+00 -3.3052723e+00 4.1856307e-01 
-4.5550232e+00 -3.2995274e+00 2.5293562e-01 
-4.5829535e+00 -3.3072917e+00 -4.4265827e-03 
-4.6458268e+00 -3.3762267e+00 4.7251195e-01 
-4.5718060e+00 -3.3087738e+00 1.7317475e-01 
-4.6467385e+00 -3.3756535e+00 4.3649834e-01 
-4.5867562e+00 -3.3152874e+00 6.1043743e-02 
-4.5464067e+00 -3.2788892e+00 2.4114424e-02 
-4.5536027e+00 -3.2837913e+00 4.0586153e-03 
-4.5599546e+00 -3.2890534e+00 -8.7786345e-03 
-4.5304265e+00 -3.2716382e+00 1.0595037e-01 
-4.5472031e+00 -3.3029864e+00 4.4852924e-01 
-4.5158634e+00 -3.2682850e+00 2.2237919e-01 
-4.5146136e+00 -3.2724361e+00 3.0428237e-01 
-4.5146718e+00 -3.2762656e+00 3.7561157e-01 
-4.5247517e+00 -3.2692792e+00 1.0719749e-01 
-4.5154309e+00 -3.2616892e+00 1.0694028e-01 
-4.5430775e+00 -3.2878704e+00 1.7939104e-01 
-4.5829597e+00 -3.3248808e+00 3.4285492e-01 
-4.4946246e+00 -3.2640576e+00 4.4182876e-01 
-4.5255909e+00 -3.2662535e+00 1.2273057e-02 
-4.5030460e+00 -3.2641058e+00 3.1998733e-01 
-4.5689163e+00 -3.3176365e+00 4.4190556e-01 
-4.5036011e+00 -3.2657950e+00 3.5464442e-01 
-4.5880761e+00 -3.3339808e+00 5.1676744e-01 
-4.5072384e+00 -3.2712944e+00 4.2566925e-01 
-4.4699712e+00 -3.2379880e+00 2.9030666e-01 
-4.4649034e+00 -3.2256742e+00 1.4530998e-01 
-4.4634748e+00 -3.2286918e+00 2.1039757e-01 
-4.5113764e+00 -3.2740092e+00 4.2247221e-01 
-4.4577656e+00 -3.2121224e+00 6.6978550e-03 
-4.4498463e+00 -3.2072802e+00 3.6124777e-02 
-4.4642539e+00 -3.2170124e+00 -8.5210474e-03 
-4.4293823e+00 -3.2015591e+00 1.8552569e-01 
-4.4311571e+00 -3.2156975e+00 4.1113165e-01 
-4.4490747e+00 -3.2293339e+00 4.4219390e-01 
-4.4634352e+00 -3.2174118e+00 -1.1241027e-02 
-4.4239292e+00 -3.2020481e+00 2.5874016e-01 
-4.4230733e+00 -3.2056723e+00 3.3554047e-01 
-4.4416356e+00 -3.2171719e+00 2.9824504e-01 
-4.4527135e+00 -3.2172515e+00 1.3029671e-01 
-4.5250974e+00 -3.2853703e+00 4.6261248e-01 
-4.5259514e+00 -3.2848105e+00 4.2718360e-01 
-4.4671950e+00 -3.2252944e+00 5.2900832e-02 
-4.4744554e+00 -3.2346604e+00 1.2459648e-01 
-4.4214463e+00 -3.1912887e+00 1.0769736e-01 
-4.4598551e+00 -3.2355733e+00 4.3093202e-01 
-4.3735499e+00 -3.1591370e+00 1.6930160e-01 
-4.3723512e+00 -3.1624641e+00 2.3943615e-01 
-4.3753810e+00 -3.1744578e+00 4.3383306e-01 
-4.4067183e+00 -3.1769185e+00 5.7617603e-03 
-4.4517350e+00 -3.2266896e+00 3.4703001e-01 
-4.3835487e+00 -3.1740358e+00 2.9738551e-01 
-4.4682970e+00 -3.2438412e+00 5.0615084e-01 
-4.3622885e+00 -3.1410489e+00 1.4322848e-02 
-4.3690586e+00 -3.1456878e+00 -5.6719938e-03 
-4.3489265e+00 -3.1357834e+00 9.5908739e-02 
-4.3757849e+00 -3.1507540e+00 -1.9226070e-02 
-4.3343253e+00 -3.1323884e+00 2.1143535e-01 
-4.3329244e+00 -3.1363926e+00 2.9229420e-01 
-4.3329282e+00 -3.1401989e+00 3.6316052e-01 
-4.3842611e+00 -3.1736298e+00 2.8090113e-01 
-4.3987904e+00 -3.1831849e+00 2.3845023e-01 
-4.3133826e+00 -3.1272533e+00 4.0431538e-01 
-4.3451772e+00 -3.1290572e+00 -1.7691752e-02 
-4.3237658e+00 -3.1289368e+00 2.9229861e-01 
-4.3271847e+00 -3.1206844e+00 8.8709012e-02 
-4.4062943e+00 -3.1960368e+00 4.5256907e-01 
-4.3343620e+00 -3.1305656e+00 1.5558340e-01 
-4.3086085e+00 -3.1166847e+00 2.6906955e-01 
-4.4071007e+00 -3.1954343e+00 4.1783237e-01 
-4.3227429e+00 -3.1346133e+00 4.3146080e-01 
-4.3490047e+00 -3.1371655e+00 4.5909695e-02 
-4.2887392e+00 -3.0994620e+00 2.2231635e-01 
-4.2692723e+00 -3.0784683e+00 1.1659430e-01 
-4.2667394e+00 -3.0713661e+00 4.0954832e-02 
-4.2755208e+00 -3.0761497e+00 -2.8705390e-03 
-4.2827206e+00 -3.0813110e+00 -2.1272961e-02 
-4.2508879e+00 -3.0682924e+00 1.7506547e-01 
-4.3449159e+00 -3.1461840e+00 3.2676610e-01 
-4.2461386e+00 -3.0747850e+00 3.4033465e-01 
-4.2584500e+00 -3.0873780e+00 4.2636672e-01 
-4.2441349e+00 -3.0678141e+00 2.4773091e-01 
-4.2894168e+00 -3.0892510e+00 -1.0125714e-03 
-4.2712507e+00 -3.0899870e+00 2.9319939e-01 
-4.3315191e+00 -3.1394808e+00 4.2268530e-01 
-4.3502908e+00 -3.1552420e+00 4.9552473e-01 
-4.2718925e+00 -3.0950055e+00 4.0876412e-01 
-4.2559166e+00 -3.0800099e+00 3.2958406e-01 
-4.2759094e+00 -3.0976706e+00 4.0430760e-01 
-4.2117109e+00 -3.0352933e+00 1.0799424e-01 
-4.2167225e+00 -3.0557525e+00 4.2632961e-01 
-4.2141185e+00 -3.0365231e+00 8.7514944e-02 
-4.1966553e+00 -3.0407171e+00 3.9698392e-01 
-4.2286515e+00 -3.0420439e+00 -2.3882702e-02 
-4.1971898e+00 -3.0283365e+00 1.6933212e-01 
-4.2183318e+00 -3.0418780e+00 1.1406620e-01 
-4.2891603e+00 -3.1083720e+00 4.4236946e-01 
-4.2899041e+00 -3.1077635e+00 4.0847048e-01 
-4.2329359e+00 -3.0502310e+00 3.8836449e-02 
-4.2391639e+00 -3.0592506e+00 1.1047325e-01 
-4.1774330e+00 -3.0079706e+00 8.6899683e-02 
-4.1817074e+00 -3.0064082e+00 5.2553127e-03 
-4.1888533e+00 -3.0113888e+00 -1.4955728e-02 
-4.1950583e+00 -3.0161822e+00 -2.8652323e-02 
-4.1560540e+00 -2.9996419e+00 2.0081337e-01 
-4.1547236e+00 -3.0035200e+00 2.8088844e-01 
-4.1546125e+00 -3.0075624e+00 3.5080659e-01 
-4.1688123e+00 -3.0034006e+00 8.4058620e-02 
-4.1564307e+00 -3.0010920e+00 2.1662042e-01 
-4.1570196e+00 -3.0082142e+00 3.4685111e-01 
-4.1467385e+00 -2.9871500e+00 1.1111758e-01 
-4.2259545e+00 -3.0606821e+00 4.1120255e-01 
-4.1426744e+00 -3.0010841e+00 4.1835719e-01 
-4.1733503e+00 -3.0029194e+00 -6.8943924e-03 
-4.1646056e+00 -3.0092754e+00 2.5558728e-01 
-4.1607842e+00 -3.0016606e+00 1.5762265e-01 
-4.2177696e+00 -3.0519118e+00 3.3025274e-01 
-4.2339430e+00 -3.0685079e+00 4.8495179e-01 
-4.1287899e+00 -2.9745684e+00 1.1190805e-01 
-4.1119256e+00 -2.9710033e+00 2.6922336e-01 
-4.1054063e+00 -2.9616263e+00 1.9124013e-01 
-4.1522183e+00 -3.0005810e+00 2.6240161e-01 
-4.0957036e+00 -2.9433103e+00 1.8488323e-02 
-4.1661143e+00 -3.0098982e+00 2.2396742e-01 
-4.0781350e+00 -2.9396827e+00 1.6528155e-01 
-4.0964284e+00 -2.9426546e+00 -1.1643359e-02 
-4.0814161e+00 -2.9551420e+00 3.8942114e-01 
-4.1134787e+00 -2.9563835e+00 -3.0083846e-02 
-4.1030097e+00 -2.9473174e+00 -2.7800461e-02 
-4.1736555e+00 -3.0224943e+00 4.3223700e-01 
-4.0672059e+00 -2.9362917e+00 2.3655787e-01 
-4.0667005e+00 -2.9401858e+00 3.1106773e-01 
-4.0909357e+00 -2.9620569e+00 4.1506886e-01 
-4.1743379e+00 -3.0218503e+00 3.9905244e-01 
-4.1172767e+00 -2.9644594e+00 3.2210831e-02 
-4.0386248e+00 -2.9138057e+00 2.1332343e-01 
-4.1137004e+00 -2.9742877e+00 3.1018609e-01 
-4.0362067e+00 -2.9040494e+00 7.6631702e-02 
-4.0283122e+00 -2.9163549e+00 4.1043502e-01 
-4.0591793e+00 -2.9181852e+00 -1.3711412e-02 
-4.0406528e+00 -2.9188981e+00 2.8024405e-01 
-4.0152912e+00 -2.8876889e+00 7.8560963e-02 
-4.0189357e+00 -2.8955405e+00 1.5156643e-01 
-4.1007476e+00 -2.9679115e+00 4.0292203e-01 
-4.0178323e+00 -2.8987410e+00 2.1933694e-01 
-4.0463772e+00 -2.9169815e+00 1.4970532e-01 
-4.0334740e+00 -2.9026513e+00 7.7405527e-02 
-4.0543694e+00 -2.9237342e+00 1.6147958e-01 
-4.1190777e+00 -2.9831226e+00 4.7424871e-01 
-4.0416203e+00 -2.9239466e+00 3.9148855e-01 
-4.0044241e+00 -2.8748178e+00 -3.3038827e-03 
-4.0260324e+00 -2.9096041e+00 3.1482273e-01 
-4.0115647e+00 -2.8794343e+00 -2.4000319e-02 
-4.0178347e+00 -2.8844202e+00 -3.7832458e-02 
-3.9810073e+00 -2.8698726e+00 1.9066121e-01 
-3.9797814e+00 -2.8737743e+00 2.6894423e-01 
-3.9798110e+00 -2.8777232e+00 3.3798116e-01 
-4.0463228e+00 -2.9272463e+00 3.8599756e-01 
-3.9879301e+00 -2.8861089e+00 4.0981743e-01 
-3.9679828e+00 -2.8710222e+00 3.8243341e-01 
-3.9996889e+00 -2.8719068e+00 -3.5880048e-02 
-3.9786634e+00 -2.8728402e+00 2.7330428e-01 
-3.9899492e+00 -2.8722479e+00 9.8831549e-02 
-4.0594764e+00 -2.9377708e+00 4.2186257e-01 
-4.0601130e+00 -2.9371159e+00 3.8945889e-01 
-4.0035515e+00 -2.8799589e+00 2.5820186e-02 
-4.0104699e+00 -2.8887591e+00 9.5267616e-02 
-3.9364297e+00 -2.8329082e+00 1.2156206e-01 
-3.9318497e+00 -2.8385847e+00 2.7488688e-01 
-3.9219503e+00 -2.8256428e+00 1.7318432e-01 
-3.9107709e+00 -2.8161113e+00 1.5620069e-01 
-3.9978254e+00 -2.8915393e+00 3.9147761e-01 
-3.9413984e+00 -2.8387647e+00 1.3336535e-01 
-3.9153624e+00 -2.8327184e+00 4.0231824e-01 
-3.9460750e+00 -2.8343351e+00 -1.9440144e-02 
-3.9274902e+00 -2.8174303e+00 -3.6518220e-02 
-3.9228864e+00 -2.8189261e+00 4.1130025e-02 
-3.8940673e+00 -2.8084285e+00 2.2551773e-01 
-3.9130085e+00 -2.8068163e+00 -1.9370770e-02 
-3.9896173e+00 -2.8827553e+00 3.1306002e-01 
-4.0055904e+00 -2.8990529e+00 4.6343935e-01 
-3.9194579e+00 -2.8200245e+00 9.0306915e-02 
-3.8868694e+00 -2.8074698e+00 3.0350772e-01 
-3.8611968e+00 -2.7737794e+00 7.0915654e-02 
-3.9389515e+00 -2.8418193e+00 2.0967241e-01 
-3.9153445e+00 -2.8264079e+00 2.7839723e-01 
-3.8554187e+00 -2.7881806e+00 3.7431511e-01 
-3.8872762e+00 -2.7889168e+00 -4.1642461e-02 
-3.8665705e+00 -2.7899234e+00 2.6683640e-01 
-3.8551795e+00 -2.7706494e+00 7.9384960e-02 
-3.9467528e+00 -2.8543677e+00 4.1143540e-01 
-3.8654506e+00 -2.7950437e+00 3.9857799e-01 
-3.9473193e+00 -2.8537006e+00 3.7976944e-01 
-3.8728426e+00 -2.7836254e+00 2.1138314e-02 
-3.8175919e+00 -2.7484384e+00 1.6882959e-01 
-3.8303823e+00 -2.7463605e+00 -1.0740161e-02 
-3.8376498e+00 -2.7512987e+00 -3.2359704e-02 
-3.8436229e+00 -2.7557640e+00 -4.6385031e-02 
-3.8082728e+00 -2.7472823e+00 2.5754300e-01 
-3.8085482e+00 -2.7513504e+00 3.2534224e-01 
-3.8259711e+00 -2.7494574e+00 6.3684091e-02 
-3.8858254e+00 -2.8087106e+00 3.8161626e-01 
-3.8691061e+00 -2.7961876e+00 3.7146965e-01 
-3.8880849e+00 -2.8074775e+00 2.9319999e-01 
-3.8039150e+00 -2.7505951e+00 3.9357805e-01 
-3.8342373e+00 -2.7519958e+00 -2.5223197e-02 
-3.8165085e+00 -2.7525890e+00 2.5379190e-01 
-3.7879529e+00 -2.7294405e+00 2.0891209e-01 
-3.8932652e+00 -2.8160307e+00 4.5251694e-01 
-3.8169136e+00 -2.7580812e+00 3.7421456e-01 
-3.7706623e+00 -2.7085898e+00 7.4635014e-02 
-3.7447898e+00 -2.7065172e+00 3.6694264e-01 
-3.7763846e+00 -2.7073381e+00 -4.7014266e-02 
-3.7564790e+00 -2.7064185e+00 2.0793913e-01 
-3.8349915e+00 -2.7717538e+00 4.0093312e-01 
-3.7644329e+00 -2.7057676e+00 7.7380225e-02 
-3.7547197e+00 -2.7137365e+00 3.8947970e-01 
-3.8354828e+00 -2.7710700e+00 3.6992663e-01 
-3.7554843e+00 -2.6907566e+00 -4.4198584e-02 
-3.7270138e+00 -2.6897516e+00 2.9034397e-01 
-3.7452209e+00 -2.6831529e+00 -2.6499756e-02 
-3.7235787e+00 -2.6820130e+00 2.0377854e-01 
-3.7556992e+00 -2.7056589e+00 1.9493683e-01 
-3.7154064e+00 -2.6666214e+00 6.3862093e-02 
-3.7305732e+00 -2.6787579e+00 5.1553953e-02 
-3.7747471e+00 -2.7267339e+00 3.7186325e-01 
-3.6997437e+00 -2.6671731e+00 2.4930227e-01 
-3.6942880e+00 -2.6701589e+00 3.8582414e-01 
-3.7239144e+00 -2.6708446e+00 -3.0524019e-02 
-3.7013993e+00 -2.6662121e+00 2.1063897e-01 
-3.6783955e+00 -2.6442542e+00 1.2553512e-01 
-3.6783862e+00 -2.6489341e+00 1.9939236e-01 
-3.7190003e+00 -2.6700978e+00 6.2864912e-03 
-3.7821870e+00 -2.7336576e+00 4.4121426e-01 
-3.7243726e+00 -2.6775868e+00 6.5797053e-02 
-3.6608548e+00 -2.6217461e+00 -1.7975055e-02 
-3.6675513e+00 -2.6260700e+00 -3.9958823e-02 
-3.6737981e+00 -2.6311798e+00 -5.4025698e-02 
-3.7265882e+00 -2.6854959e+00 2.1140328e-01 
-3.6416602e+00 -2.6198339e+00 1.6458032e-01 
-3.6406825e+00 -2.6243534e+00 2.4593997e-01 
-3.6408024e+00 -2.6282184e+00 3.1247544e-01 
-3.6877301e+00 -2.6580915e+00 2.5199768e-01 
-3.6360464e+00 -2.6266685e+00 3.5949752e-01 
-3.6670525e+00 -2.6271775e+00 -5.1850256e-02 
-3.7199323e+00 -2.6834161e+00 2.8808910e-01 
-3.7248018e+00 -2.6900091e+00 3.9002138e-01 
-3.6456039e+00 -2.6336758e+00 3.8102099e-01 
-3.6514328e+00 -2.6230333e+00 7.9530947e-02 
-3.7252004e+00 -2.6893055e+00 3.5995322e-01 
-3.6262310e+00 -2.6025772e+00 6.9881074e-02 
-3.6335747e+00 -2.6074591e+00 5.3652063e-02 
-3.6765585e+00 -2.6541722e+00 3.5497865e-01 
-3.6493979e+00 -2.6346657e+00 3.6042890e-01 
-3.6460950e+00 -2.6189902e+00 6.1806154e-02 
-3.6310408e+00 -2.6156580e+00 2.2454673e-01 
-3.6027412e+00 -2.5952265e+00 2.2622773e-01 
-3.6655979e+00 -2.6458747e+00 3.6102599e-01 
-3.5770683e+00 -2.5653808e+00 5.7411168e-02 
-3.5763888e+00 -2.5717533e+00 1.5353793e-01 
-3.5796499e+00 -2.5860672e+00 3.7778252e-01 
-3.5817840e+00 -2.5637057e+00 -3.3677395e-02 
-3.5868163e+00 -2.5672691e+00 -5.1576961e-02 
-3.5582952e+00 -2.5616579e+00 2.0420341e-01 
-3.5872617e+00 -2.5719504e+00 7.9811029e-03 
-3.6725705e+00 -2.6527455e+00 4.2997316e-01 
-3.5998442e+00 -2.5797875e+00 -3.9871726e-02 
-3.5523436e+00 -2.5618935e+00 2.8029910e-01 
-3.6142015e+00 -2.6039798e+00 2.3436688e-01 
-3.5279653e+00 -2.5476837e+00 3.5113883e-01 
-3.5590117e+00 -2.5484293e+00 -5.6406684e-02 
-3.5713217e+00 -2.5618021e+00 -5.1903087e-03 
-3.5725532e+00 -2.5653901e+00 3.6088444e-02 
-3.5330024e+00 -2.5513418e+00 3.7586737e-01 
-3.6103582e+00 -2.6058068e+00 3.7733778e-01 
-3.5389864e+00 -2.5544975e+00 3.5956129e-01 
-3.5757160e+00 -2.5718555e+00 1.2360591e-01 
-3.5263596e+00 -2.5408034e+00 2.5077328e-01 
-3.5102243e+00 -2.5259922e+00 1.9208989e-01 
-3.5158811e+00 -2.5228772e+00 6.7429312e-02 
-3.6031575e+00 -2.5999238e+00 3.6055684e-01 
-3.5495830e+00 -2.5610719e+00 3.4757629e-01 
-3.5922148e+00 -2.5901256e+00 2.9756519e-01 
-3.5261116e+00 -2.5335639e+00 1.0812890e-01 
-3.5545886e+00 -2.5541430e+00 7.3573656e-02 
-3.5745637e+00 -2.5752244e+00 2.2606631e-01 
-3.5556035e+00 -2.5652046e+00 3.4550372e-01 
-3.4934666e+00 -2.4996274e+00 -2.4812715e-02 
-3.5013440e+00 -2.5049982e+00 -4.6769544e-02 
-3.5563836e+00 -2.5597920e+00 1.7560443e-01 
-3.5186677e+00 -2.5298200e+00 1.3330220e-01 
-3.5188277e+00 -2.5388176e+00 3.4780711e-01 
-3.4765275e+00 -2.5042965e+00 2.3441964e-01 
-3.5064156e+00 -2.5089431e+00 -6.1043549e-02 
-3.4737778e+00 -2.4969771e+00 1.4947425e-01 
-3.4751489e+00 -2.5070956e+00 3.0256739e-01 
-3.5036297e+00 -2.5236592e+00 2.4232678e-01 
-3.5581689e+00 -2.5670033e+00 3.5395384e-01 
-3.5309031e+00 -2.5471370e+00 3.4112680e-01 
-3.5034125e+00 -2.5232449e+00 2.3584968e-01 
-3.4740186e+00 -2.4991615e+00 1.8401575e-01 
-3.5644968e+00 -2.5731099e+00 4.1844144e-01 
-3.4622169e+00 -2.4828022e+00 5.7571787e-02 
-3.4456279e+00 -2.4697206e+00 5.1556583e-02 
-3.4787819e+00 -2.4923816e+00 -3.5707191e-02 
-3.4463823e+00 -2.4885197e+00 3.6757809e-01 
-3.4334226e+00 -2.4679346e+00 1.5241461e-01 
-3.4798081e+00 -2.5055366e+00 2.2120832e-01 
-3.4222903e+00 -2.4704955e+00 3.4326774e-01 
-3.4526122e+00 -2.4710128e+00 -6.1387327e-02 
-3.4756255e+00 -2.5028236e+00 2.2526005e-01 
-3.4225590e+00 -2.4479196e+00 -3.9899100e-02 
-3.4507248e+00 -2.4751043e+00 8.7556886e-03 
-3.3997536e+00 -2.4505312e+00 2.6797071e-01 
-3.3959887e+00 -2.4434896e+00 1.9389841e-01 
-3.4222379e+00 -2.4474638e+00 -5.8117129e-02 
-3.4212255e+00 -2.4691186e+00 3.5853219e-01 
-3.4518096e+00 -2.4782491e+00 5.0963253e-02 
-3.4200580e+00 -2.4500077e+00 -2.4534375e-03 
-3.4267571e+00 -2.4720247e+00 3.4152293e-01 
-3.3893912e+00 -2.4342430e+00 1.2529072e-01 
-3.4526734e+00 -2.4813840e+00 9.3578830e-02 
-3.4316187e+00 -2.4749019e+00 3.3812234e-01 
-3.3915858e+00 -2.4442713e+00 2.6830590e-01 
-3.4532826e+00 -2.4836011e+00 1.3811810e-01 
-3.4054978e+00 -2.4500129e+00 1.9165060e-01 
-3.4814143e+00 -2.5099688e+00 3.2308269e-01 
-3.4258814e+00 -2.4662693e+00 2.2165363e-01 
-3.4761951e+00 -2.5072978e+00 3.5957766e-01 
-3.4355707e+00 -2.4775620e+00 3.3410123e-01 
-3.4532201e+00 -2.4853897e+00 1.8838075e-01 
-3.4389293e+00 -2.4799881e+00 3.3156151e-01 
-3.3746178e+00 -2.4214067e+00 9.0351477e-02 
-3.4526320e+00 -2.4869914e+00 2.4317501e-01 
-3.4418581e+00 -2.4818895e+00 3.3724090e-01 
-3.3748128e+00 -2.4243462e+00 1.2834451e-01 
-3.4579742e+00 -2.4952559e+00 4.0689531e-01 
-3.3526578e+00 -2.4111888e+00 1.7900558e-01 
-3.3608570e+00 -2.4087079e+00 3.7033901e-02 
-3.3667781e+00 -2.4244874e+00 2.4428958e-01 
-3.3749073e+00 -2.4245498e+00 1.1168712e-01 
-3.3807304e+00 -2.4335680e+00 2.1833093e-01 
-3.3212225e+00 -2.3795521e+00 4.6240162e-02 
-3.3314173e+00 -2.3821640e+00 -3.1532023e-02 
-3.3170323e+00 -2.3836455e+00 1.5188557e-01 
-3.3159826e+00 -2.3875113e+00 2.2304213e-01 
-3.3382511e+00 -2.3864834e+00 -5.3303119e-02 
-3.3160822e+00 -2.3911567e+00 2.8576604e-01 
-3.3438759e+00 -2.3908370e+00 -6.6968597e-02 
-3.3477914e+00 -2.3948188e+00 -6.5437138e-02 
-3.3178096e+00 -2.3944561e+00 3.3470723e-01 
-3.3214815e+00 -2.3976524e+00 3.5465094e-01 
-3.3507288e+00 -2.3988671e+00 -4.7553517e-02 
-3.3261266e+00 -2.4006450e+00 3.5711634e-01 
-3.3523092e+00 -2.4023480e+00 -1.5404429e-02 
-3.3318777e+00 -2.4032815e+00 3.4003276e-01 
-3.3533924e+00 -2.4058156e+00 2.4905950e-02 
-3.3362238e+00 -2.4057415e+00 3.3003861e-01 
-3.3538637e+00 -2.4084506e+00 6.6558391e-02 
-3.3402057e+00 -2.4082322e+00 3.2730797e-01 
-3.3541727e+00 -2.4109836e+00 1.0889309e-01 
-3.3116946e+00 -2.3743463e+00 4.4782069e-02 
-3.3442030e+00 -2.4109194e+00 3.2235131e-01 
-3.3546231e+00 -2.4128058e+00 1.5480761e-01 
-3.3473022e+00 -2.4131632e+00 3.2412648e-01 
-3.3121436e+00 -2.3841782e+00 2.2381108e-01 
-3.3547006e+00 -2.4148400e+00 2.0647897e-01 
-3.2784014e+00 -2.3596442e+00 2.1395965e-01 
-3.2746229e+00 -2.3489399e+00 8.5437752e-02 
-3.3147228e+00 -2.3857493e+00 2.1768799e-01 
-3.2717085e+00 -2.3504012e+00 1.4082351e-01 
-3.3501046e+00 -2.4151456e+00 3.3210075e-01 
-3.3105462e+00 -2.3799152e+00 1.4851928e-01 
-3.3545024e+00 -2.4163382e+00 2.6233456e-01 
-3.2746935e+00 -2.3470993e+00 4.8704240e-02 
-3.3521903e+00 -2.4172113e+00 3.5234758e-01 
-3.3540668e+00 -2.4175990e+00 3.2426929e-01 
-3.2473605e+00 -2.3312778e+00 1.1751848e-01 
-3.2651772e+00 -2.3513269e+00 2.4868587e-01 
-3.3536220e+00 -2.4192331e+00 3.9499706e-01 
-3.2748823e+00 -2.3500688e+00 7.0474751e-02 
-3.2377248e+00 -2.3285975e+00 1.8329076e-01 
-3.2610326e+00 -2.3307989e+00 -6.4092711e-02 
-3.2329569e+00 -2.3294027e+00 2.5533113e-01 
-3.2483685e+00 -2.3217125e+00 -4.6631556e-02 
-3.2900546e+00 -2.3677466e+00 2.0870171e-01 
-3.2790029e+00 -2.3595219e+00 2.0839512e-01 
-3.2377503e+00 -2.3356378e+00 3.4119391e-01 
-3.2177866e+00 -2.3055201e+00 4.7561005e-02 
-3.2145309e+00 -2.3197017e+00 3.2642415e-01 
-3.2443771e+00 -2.3197508e+00 -6.9572523e-02 
-3.2423422e+00 -2.3378396e+00 3.2362014e-01 
-3.2560587e+00 -2.3342104e+00 -6.2964583e-04 
-3.2564871e+00 -2.3367918e+00 4.0955983e-02 
-3.2461886e+00 -2.3402555e+00 3.1946591e-01 
-3.2015543e+00 -2.2928646e+00 4.1365050e-02 
-3.2565637e+00 -2.3390770e+00 8.2227789e-02 
-3.2496581e+00 -2.3423896e+00 3.1489882e-01 
-3.1971521e+00 -2.2941847e+00 1.0007143e-01 
-3.2571070e+00 -2.3411601e+00 1.2392218e-01 
-3.2537146e+00 -2.3452690e+00 3.1279159e-01 
-3.1997473e+00 -2.3093741e+00 3.4572738e-01 
-3.2730589e+00 -2.3565080e+00 2.3155797e-01 
-3.2254241e+00 -2.3171725e+00 1.1889703e-01 
-3.1926153e+00 -2.2953584e+00 1.7096350e-01 
-3.2229431e+00 -2.3071237e+00 -4.7750805e-02 
-3.2576952e+00 -2.3436062e+00 1.7179273e-01 
-3.2571430e+00 -2.3476655e+00 3.1732106e-01 
-3.2118561e+00 -2.3113461e+00 2.1167167e-01 
-3.1653566e+00 -2.2732220e+00 1.3138780e-01 
-3.2133546e+00 -2.3106270e+00 1.6269229e-01 
-3.2300367e+00 -2.3244300e+00 2.0137361e-01 
-3.2583432e+00 -2.3475091e+00 2.8930470e-01 
-3.1591213e+00 -2.2739718e+00 2.1142000e-01 
-3.1797481e+00 -2.2719738e+00 -5.8941368e-02 
-3.1595151e+00 -2.2778823e+00 2.7691266e-01 
-3.1738882e+00 -2.2739744e+00 3.2817684e-02 
-3.1841028e+00 -2.2755206e+00 -7.3277816e-02 
-3.1846652e+00 -2.2817128e+00 1.1773220e-02 
-3.1625214e+00 -2.2602260e+00 -3.5283633e-02 
-3.2496667e+00 -2.3437126e+00 3.8270393e-01 
-3.1504004e+00 -2.2688346e+00 2.3960616e-01 
-3.2284114e+00 -2.3272488e+00 3.3239406e-01 
-3.1368740e+00 -2.2473824e+00 4.2917229e-02 
-3.1162624e+00 -2.2384224e+00 1.3379951e-01 
-3.1130590e+00 -2.2464049e+00 3.1825343e-01 
-3.1420057e+00 -2.2461226e+00 -7.3882408e-02 
-3.1256211e+00 -2.2554460e+00 3.3882937e-01 
-3.1585124e+00 -2.2669175e+00 5.2028928e-02 
-3.1304936e+00 -2.2573729e+00 3.2097256e-01 
-3.1590388e+00 -2.2765651e+00 3.0247691e-01 
-3.1341286e+00 -2.2590938e+00 3.1008109e-01 
-3.1547959e+00 -2.2689567e+00 1.6722545e-01 
-3.0969133e+00 -2.2304685e+00 2.3700717e-01 
-3.1364288e+00 -2.2607913e+00 3.0645347e-01 
-3.1093993e+00 -2.2215261e+00 -7.0197225e-02 
-3.1350825e+00 -2.2478919e+00 1.0411207e-02 
-3.0821970e+00 -2.2164965e+00 1.7275392e-01 
-3.0986681e+00 -2.2138629e+00 -5.2788515e-02 
-3.0818486e+00 -2.2200255e+00 2.3649582e-01 
-3.1785123e+00 -2.2905574e+00 3.1160918e-01 
-3.0800149e+00 -2.2055254e+00 3.6433965e-02 
-3.1219647e+00 -2.2357550e+00 -3.2158282e-02 
-3.1400726e+00 -2.2557456e+00 9.4414726e-02 
-3.1449690e+00 -2.2663612e+00 3.0248791e-01 
-3.0989046e+00 -2.2301371e+00 2.1431448e-01 
-3.1067164e+00 -2.2348516e+00 1.9162132e-01 
-3.1041834e+00 -2.2207801e+00 -6.1773170e-02 
-3.1485100e+00 -2.2692623e+00 3.0973223e-01 
-3.1392827e+00 -2.2577255e+00 1.5718339e-01 
-3.0956552e+00 -2.2209048e+00 6.6890247e-02 
-3.0868487e+00 -2.2123082e+00 2.6549270e-02 
-3.0665934e+00 -2.2132335e+00 3.3197179e-01 
-3.1421266e+00 -2.2625070e+00 2.4025457e-01 
-3.1477466e+00 -2.2700777e+00 3.7085837e-01 
-3.0536058e+00 -2.1920161e+00 9.9205136e-02 
-3.0423951e+00 -2.1869435e+00 1.5736431e-01 
-3.0379534e+00 -2.1794693e+00 8.7849922e-02 
-3.0135357e+00 -2.1727450e+00 2.6623824e-01 
-3.0130765e+00 -2.1743405e+00 3.0951884e-01 
-3.0412509e+00 -2.1740465e+00 -7.7510871e-02 
-3.0054665e+00 -2.1632378e+00 1.9980331e-01 
-3.0180919e+00 -2.1566882e+00 -3.8877819e-02 
-3.0237260e+00 -2.1599512e+00 -6.3799225e-02 
-3.0278697e+00 -2.1632402e+00 -7.8702107e-02 
-3.0948827e+00 -2.2307909e+00 3.2160386e-01 
-3.0227578e+00 -2.1806827e+00 3.2409090e-01 
-2.9966292e+00 -2.1518800e+00 1.2200131e-01 
-3.0948761e+00 -2.2300243e+00 2.9828104e-01 
-3.0284665e+00 -2.1831923e+00 2.9967815e-01 
-2.9922743e+00 -2.1432571e+00 2.1785654e-02 
-2.9737570e+00 -2.1363080e+00 1.2924384e-01 
-3.0163436e+00 -2.1705604e+00 2.0375733e-01 
-2.9702079e+00 -2.1367960e+00 1.8247482e-01 
-3.0408866e+00 -2.1914072e+00 2.9499274e-01 
-2.9730372e+00 -2.1395521e+00 2.0013195e-01 
-3.0021858e+00 -2.1503768e+00 -2.7874678e-02 
-2.9822514e+00 -2.1377447e+00 3.3784512e-02 
-2.9678218e+00 -2.1421900e+00 3.2302824e-01 
-2.9567657e+00 -2.1170826e+00 3.1701740e-02 
-3.0417898e+00 -2.1900849e+00 2.2471489e-01 
-2.9934893e+00 -2.1418090e+00 -6.2253069e-02 
-2.9592214e+00 -2.1215580e+00 6.3220158e-02 
-3.0006692e+00 -2.1526217e+00 2.5777355e-02 
-3.0107608e+00 -2.1694274e+00 2.8613189e-01 
-2.9431746e+00 -2.1228433e+00 2.7325353e-01 
-3.0473492e+00 -2.1975057e+00 3.5833576e-01 
-2.9512718e+00 -2.1164622e+00 6.1693538e-02 
-3.0003650e+00 -2.1560299e+00 1.0622462e-01 
-2.9316070e+00 -2.1037722e+00 9.5243223e-02 
-2.9305177e+00 -2.1075313e+00 1.6275892e-01 
-2.9301372e+00 -2.1110234e+00 2.2389248e-01 
-2.9446545e+00 -2.1033435e+00 -5.7490848e-02 
-2.9495070e+00 -2.1068084e+00 -7.4367158e-02 
-2.9469712e+00 -2.1217527e+00 2.1767943e-01 
-2.9523664e+00 -2.1182008e+00 6.6324942e-02 
-2.9145257e+00 -2.1035788e+00 3.0120853e-01 
-2.9420455e+00 -2.1029465e+00 -8.0650188e-02 
-2.9142671e+00 -2.0874510e+00 2.6651796e-02 
-2.9244606e+00 -2.1099131e+00 3.1417587e-01 
-2.9955878e+00 -2.1592300e+00 3.0984867e-01 
-2.9955311e+00 -2.1584673e+00 2.8781351e-01 
-2.9432487e+00 -2.1165724e+00 1.4693983e-01 
-2.8933372e+00 -2.0833044e+00 2.0808817e-01 
-2.8892040e+00 -2.0736120e+00 9.0654954e-02 
-2.8886499e+00 -2.0767281e+00 1.4728892e-01 
-2.9138491e+00 -2.0964077e+00 1.8056582e-01 
-2.9423931e+00 -2.1204751e+00 2.8351575e-01 
-2.8563087e+00 -2.0521841e+00 1.2456550e-01 
-2.8694680e+00 -2.0715899e+00 3.1373054e-01 
-2.8957722e+00 -2.0715334e+00 -6.6321969e-02 
-2.8556511e+00 -2.0558076e+00 1.8855394e-01 
-2.8829932e+00 -2.0595436e+00 -8.3305046e-02 
-2.8555288e+00 -2.0589631e+00 2.4584125e-01 
-2.8657975e+00 -2.0477901e+00 -4.2233348e-02 
-2.8713698e+00 -2.0510871e+00 -6.8416908e-02 
-2.9287486e+00 -2.1082060e+00 2.0232779e-01 
-2.9489195e+00 -2.1267419e+00 3.4604758e-01 
-2.8315091e+00 -2.0276995e+00 2.7063366e-02 
-2.8366880e+00 -2.0321560e+00 2.8299203e-02 
-2.8450744e+00 -2.0417862e+00 7.6199777e-02 
-2.8282754e+00 -2.0362134e+00 1.9448559e-01 
-2.8173578e+00 -2.0340643e+00 2.9267973e-01 
-2.8449347e+00 -2.0333080e+00 -8.4522292e-02 
-2.8370392e+00 -2.0341475e+00 3.1399880e-02 
-2.8149493e+00 -2.0253773e+00 1.6725989e-01 
-2.8270061e+00 -2.0403173e+00 3.0455059e-01 
-2.8980572e+00 -2.0891545e+00 2.9823169e-01 
-2.8483741e+00 -2.0403516e+00 -3.1984307e-02 
-2.8398023e+00 -2.0475781e+00 2.7933025e-01 
-2.8979793e+00 -2.0883756e+00 2.7747515e-01 
-2.8041811e+00 -2.0032489e+00 -6.0045101e-02 
-2.7820189e+00 -2.0012932e+00 1.5295124e-01 
-2.8058622e+00 -2.0043221e+00 -8.0269441e-02 
-2.7817392e+00 -2.0046594e+00 2.1181761e-01 
-2.7822032e+00 -2.0080197e+00 2.6407462e-01 
-2.7754695e+00 -1.9927633e+00 9.5104188e-02 
-2.7808635e+00 -2.0030527e+00 1.9909824e-01 
-2.7860370e+00 -2.0054166e+00 1.7834812e-01 
-2.7730701e+00 -2.0026109e+00 3.0395037e-01 
-2.7987914e+00 -2.0022213e+00 -7.0168562e-02 
-2.7640371e+00 -1.9859322e+00 1.1176635e-01 
-2.7928395e+00 -2.0114567e+00 2.0319131e-01 
-2.7624533e+00 -1.9813713e+00 6.1080210e-02 
-2.8366868e+00 -2.0450191e+00 2.7222416e-01 
-2.8001184e+00 -2.0093927e+00 2.1305099e-02 
-2.8344173e+00 -2.0414279e+00 2.1316910e-01 
-2.8522546e+00 -2.0575550e+00 3.3395177e-01 
-2.7527435e+00 -1.9729626e+00 1.8458523e-02 
-2.7908785e+00 -2.0120502e+00 2.6177984e-01 
-2.7621768e+00 -1.9845533e+00 8.7894335e-02 
-2.7614632e+00 -1.9781609e+00 -4.1946631e-02 
-2.7216198e+00 -1.9657429e+00 2.8415763e-01 
-2.7484238e+00 -1.9645920e+00 -8.8174693e-02 
-2.7238276e+00 -1.9467803e+00 -4.4464767e-02 
-2.7442491e+00 -1.9691628e+00 4.1310858e-02 
-2.7094810e+00 -1.9473954e+00 1.1605008e-01 
-2.7087593e+00 -1.9509654e+00 1.7773144e-01 
-2.7316618e+00 -1.9721626e+00 2.9451364e-01 
-2.7089083e+00 -1.9542575e+00 2.3294291e-01 
-2.8020246e+00 -2.0206833e+00 2.8650329e-01 
-2.7816432e+00 -2.0013602e+00 1.3427235e-01 
-2.8019061e+00 -2.0198886e+00 2.6694712e-01 
-2.7223063e+00 -1.9446528e+00 -7.3202342e-02 
-2.7042682e+00 -1.9371624e+00 2.2592060e-02 
-2.7267110e+00 -1.9480904e+00 -8.8262811e-02 
-2.6913934e+00 -1.9358687e+00 1.3364805e-01 
-2.6871319e+00 -1.9261374e+00 3.0147372e-02 
-2.6923497e+00 -1.9291749e+00 9.5958710e-03 
-2.7503734e+00 -1.9832532e+00 2.6052755e-01 
-2.6921110e+00 -1.9303533e+00 1.8564593e-02 
-2.6784482e+00 -1.9351054e+00 2.9494122e-01 
-2.7030370e+00 -1.9343253e+00 -7.3260263e-02 
-2.7509797e+00 -1.9816490e+00 1.9854879e-01 
-2.6681364e+00 -1.9137864e+00 4.8466224e-02 
-2.6792336e+00 -1.9292582e+00 1.7145514e-01 
-2.6694798e+00 -1.9234380e+00 1.8617517e-01 
-2.7568736e+00 -1.9896337e+00 3.2187286e-01 
-2.6376841e+00 -1.8942605e+00 8.1231713e-02 
-2.6368732e+00 -1.8979303e+00 1.4315315e-01 
-2.6365187e+00 -1.9012717e+00 2.0001508e-01 
-2.6427338e+00 -1.8902549e+00 -3.0688111e-02 
-2.6370230e+00 -1.9044670e+00 2.5062642e-01 
-2.6464851e+00 -1.8911700e+00 -6.5497123e-02 
-2.6534915e+00 -1.8999516e+00 -3.0845046e-02 
-2.6511712e+00 -1.8942186e+00 -8.4624730e-02 
-2.6857808e+00 -1.9306943e+00 5.7962384e-02 
-2.6274090e+00 -1.8986176e+00 2.7557296e-01 
-2.6532860e+00 -1.8971665e+00 -9.0974376e-02 
-2.6570957e+00 -1.9173160e+00 2.5944668e-01 
-2.6372015e+00 -1.9046303e+00 2.8518301e-01 
-2.7073135e+00 -1.9532093e+00 2.7491570e-01 
-2.6569686e+00 -1.9048207e+00 -3.9916761e-02 
-2.6192367e+00 -1.8861598e+00 1.5276600e-01 
-2.7071505e+00 -1.9524262e+00 2.5647220e-01 
-2.6096389e+00 -1.8713063e+00 2.8491123e-02 
-2.6258922e+00 -1.8856342e+00 4.2503130e-02 
-2.5948734e+00 -1.8602791e+00 1.2287474e-02 
-2.5896528e+00 -1.8652829e+00 1.5629448e-01 
-2.5748763e+00 -1.8454672e+00 1.8089924e-02 
-2.5979819e+00 -1.8714825e+00 1.6248435e-01 
-2.6108913e+00 -1.8782429e+00 9.9288687e-02 
-2.5849442e+00 -1.8683034e+00 2.8585738e-01 
-2.6088464e+00 -1.8675008e+00 -7.6777339e-02 
-2.6566186e+00 -1.9147005e+00 1.8972297e-01 
-2.6494009e+00 -1.9116176e+00 2.5042295e-01 
-2.5657837e+00 -1.8454369e+00 1.0784677e-01 
-2.5651691e+00 -1.8490158e+00 1.6717122e-01 
-2.5654051e+00 -1.8523312e+00 2.2004484e-01 
-2.5766160e+00 -1.8413339e+00 -7.6719135e-02 
-2.6107352e+00 -1.8748877e+00 1.0836398e-02 
-2.6627765e+00 -1.9225625e+00 3.0980664e-01 
-2.5625620e+00 -1.8325568e+00 -4.7899906e-02 
-2.5769081e+00 -1.8419361e+00 -9.3326382e-02 
-2.6031837e+00 -1.8784081e+00 2.3996432e-01 
-2.6051383e+00 -1.8757173e+00 1.2008916e-01 
-2.5343764e+00 -1.8326688e+00 2.6721424e-01 
-2.5602772e+00 -1.8314412e+00 -9.4186194e-02 
-2.5522604e+00 -1.8320850e+00 1.7067906e-02 
-2.5263610e+00 -1.8138263e+00 4.8487075e-02 
-2.5446062e+00 -1.8388599e+00 2.7590707e-01 
-2.6138222e+00 -1.8865029e+00 2.6321936e-01 
-2.5637798e+00 -1.8385798e+00 -4.3859057e-02 
-2.5265372e+00 -1.8202825e+00 1.4542422e-01 
-2.6135895e+00 -1.8856990e+00 2.4583651e-01 
-2.5481689e+00 -1.8311762e+00 3.7793823e-02 
-2.4997733e+00 -1.7971581e+00 8.1343547e-02 
-2.4950132e+00 -1.7974473e+00 1.3389313e-01 
-2.4948494e+00 -1.8007177e+00 1.8808307e-01 
-2.4954393e+00 -1.8039849e+00 2.3684739e-01 
-2.5734589e+00 -1.8572471e+00 2.4075776e-01 
-2.4982145e+00 -1.8019195e+00 1.7385250e-01 
-2.5073268e+00 -1.7926517e+00 -8.6638495e-02 
-2.5112941e+00 -1.7958097e+00 -9.7683519e-02 
-2.5060747e+00 -1.7971965e+00 -1.5976846e-02 
-2.5055292e+00 -1.8058609e+00 1.5453249e-01 
-2.4925578e+00 -1.8033016e+00 2.7703792e-01 
-2.5161023e+00 -1.8020571e+00 -7.9596110e-02 
-2.5638607e+00 -1.8484571e+00 1.8076915e-01 
-2.5119944e+00 -1.8117808e+00 1.7671761e-01 
-2.4901583e+00 -1.7804765e+00 -6.7984566e-02 
-2.5697832e+00 -1.8562999e+00 2.9764453e-01 
-2.4699121e+00 -1.7718711e+00 8.5835690e-03 
-2.4564266e+00 -1.7660236e+00 6.6445276e-02 
-2.5068598e+00 -1.8033404e+00 4.8022490e-02 
-2.4436278e+00 -1.7527614e+00 1.3951525e-02 
-2.4540701e+00 -1.7703221e+00 1.6453773e-01 
-2.4428911e+00 -1.7680670e+00 2.5849053e-01 
-2.4679263e+00 -1.7661288e+00 -9.6757323e-02 
-2.4769866e+00 -1.7784079e+00 -3.2293893e-02 
-2.4529803e+00 -1.7741287e+00 2.6564458e-01 
-2.5215447e+00 -1.8208176e+00 2.5161555e-01 
-2.4255168e+00 -1.7462327e+00 1.0010746e-01 
-2.4251890e+00 -1.7499450e+00 1.5659004e-01 
-2.5212638e+00 -1.8200316e+00 2.3537266e-01 
-2.4254935e+00 -1.7530855e+00 2.0754305e-01 
-2.4588246e+00 -1.7764773e+00 2.3813064e-01 
-2.4444408e+00 -1.7573191e+00 4.3251466e-02 
-2.4344532e+00 -1.7412153e+00 -7.9771973e-02 
-2.4348629e+00 -1.7416675e+00 -9.7807229e-02 
-2.4206741e+00 -1.7384084e+00 2.1322792e-02 
-2.4088745e+00 -1.7356355e+00 1.1382449e-01 
-2.4109735e+00 -1.7255826e+00 -5.3717643e-02 
-2.4188123e+00 -1.7363086e+00 -3.3759803e-03 
-2.4719262e+00 -1.7850059e+00 2.2682811e-01 
-2.4019570e+00 -1.7391478e+00 2.6722717e-01 
-2.4248717e+00 -1.7378459e+00 -8.2920499e-02 
-2.4203174e+00 -1.7429409e+00 8.1871234e-02 
-2.3879156e+00 -1.7160151e+00 4.2441279e-02 
-2.3920021e+00 -1.7266356e+00 1.6033059e-01 
-2.4635637e+00 -1.7775874e+00 1.7961408e-01 
-2.4781525e+00 -1.7913181e+00 2.8562364e-01 
-2.3789554e+00 -1.7080766e+00 1.1644183e-02 
-2.3638263e+00 -1.7012480e+00 7.4833140e-02 
-2.3567042e+00 -1.6997030e+00 1.2484724e-01 
-2.3566601e+00 -1.7030674e+00 1.7676623e-01 
-2.3573213e+00 -1.7060546e+00 2.2355887e-01 
-2.4218166e+00 -1.7458470e+00 1.0528480e-01 
-2.3531191e+00 -1.7043332e+00 2.5028715e-01 
-2.3667710e+00 -1.6938074e+00 -8.9775465e-02 
-2.3674810e+00 -1.7083883e+00 1.4496768e-01 
-2.3775795e+00 -1.7024952e+00 -9.9222057e-02 
-2.3633811e+00 -1.7104607e+00 2.5631353e-01 
-2.3518863e+00 -1.6834339e+00 -7.0214808e-02 
-2.4304886e+00 -1.7563747e+00 2.4007246e-01 
-2.3813913e+00 -1.7097030e+00 -5.2158404e-02 
-2.4301803e+00 -1.7555890e+00 2.2489485e-01 
-2.3825305e+00 -1.7215048e+00 2.1339883e-01 
-2.3395586e+00 -1.6783615e+00 -3.9196197e-02 
-2.3215394e+00 -1.6749477e+00 1.1841477e-01 
-2.3190157e+00 -1.6690978e+00 5.9133887e-02 
-2.3104165e+00 -1.6591113e+00 9.8445453e-03 
-2.3330989e+00 -1.6842428e+00 1.4538080e-01 
-2.3813338e+00 -1.7209791e+00 2.1566144e-01 
-2.3893902e+00 -1.7253295e+00 1.7389980e-01 
-2.3131473e+00 -1.6759228e+00 2.5830451e-01 
-2.3248968e+00 -1.6713567e+00 1.5322014e-03 
-2.3353350e+00 -1.6749400e+00 -8.5719399e-02 
-2.3286176e+00 -1.6760302e+00 3.1716168e-02 
-2.3063736e+00 -1.6642181e+00 1.2270492e-01 
-2.2888575e+00 -1.6500385e+00 9.2343457e-02 
-2.2886980e+00 -1.6537184e+00 1.4670217e-01 
-2.3367503e+00 -1.6811966e+00 -5.4478282e-03 
-2.3876925e+00 -1.7274724e+00 2.7362502e-01 
-2.2848768e+00 -1.6541888e+00 1.9783796e-01 
-2.2900674e+00 -1.6410968e+00 -5.0244037e-02 
-2.2958236e+00 -1.6437250e+00 -8.2805112e-02 
-2.3178720e+00 -1.6689343e+00 3.5413671e-02 
-2.2989516e+00 -1.6463757e+00 -9.9849768e-02 
-2.2800541e+00 -1.6401911e+00 2.5161691e-02 
-2.3009849e+00 -1.6530299e+00 -6.0700264e-02 
-2.2647309e+00 -1.6420336e+00 2.4195977e-01 
-2.2883260e+00 -1.6399992e+00 -1.0162049e-01 
-2.3404031e+00 -1.6928771e+00 2.2857030e-01 
-2.2538249e+00 -1.6196146e+00 3.0566466e-03 
-2.3401067e+00 -1.6920995e+00 2.1439436e-01 
-2.2513769e+00 -1.6231608e+00 7.9653472e-02 
-2.2503135e+00 -1.6143337e+00 -3.3176880e-02 
-2.2650280e+00 -1.6413810e+00 2.4930575e-01 
-2.2505598e+00 -1.6257041e+00 1.2783469e-01 
-2.2291489e+00 -1.6067587e+00 6.8634473e-02 
-2.2217000e+00 -1.6049095e+00 1.1586030e-01 
-2.2219813e+00 -1.6083820e+00 1.6581112e-01 
-2.2228332e+00 -1.6114898e+00 2.1052204e-01 
-2.2914708e+00 -1.6577730e+00 2.0482758e-01 
-2.2344828e+00 -1.6156127e+00 1.5350847e-01 
-2.2249928e+00 -1.6143066e+00 2.4914055e-01 
-2.2339923e+00 -1.6061163e+00 -2.2291427e-02 
-2.2464886e+00 -1.6126173e+00 -8.8548757e-02 
-2.2302098e+00 -1.5979275e+00 -9.2251875e-02 
-2.2915521e+00 -1.6561292e+00 1.5447085e-01 
-2.2207336e+00 -1.5914003e+00 -6.8789616e-02 
-2.2339761e+00 -1.6008368e+00 -1.0433176e-01 
-2.2350333e+00 -1.6166869e+00 1.7097281e-01 
-2.2371020e+00 -1.6196105e+00 2.1334238e-01 
-2.2342310e+00 -1.6101152e+00 3.1318184e-02 
-2.2985680e+00 -1.6644802e+00 2.6141936e-01 
-2.1919250e+00 -1.5762914e+00 3.2182676e-03 
-2.1948845e+00 -1.5784647e+00 -9.3375443e-04 
-2.2024195e+00 -1.5836154e+00 -1.4784093e-02 
-2.1916046e+00 -1.5855778e+00 1.4623299e-01 
-2.1751571e+00 -1.5644760e+00 5.9388308e-03 
-2.2426648e+00 -1.6196388e+00 9.2374146e-02 
-2.1935973e+00 -1.5909218e+00 2.4167873e-01 
-2.1781578e+00 -1.5811430e+00 2.3356654e-01 
-2.2006631e+00 -1.5785681e+00 -1.0363818e-01 
-2.1755714e+00 -1.5712223e+00 9.4353519e-02 
-2.1937544e+00 -1.5795912e+00 -6.9124908e-05 
-2.2042422e+00 -1.5854007e+00 -5.8982320e-02 
-2.2519407e+00 -1.6303635e+00 2.1676426e-01 
-2.2515903e+00 -1.6295683e+00 2.0362903e-01 
-2.1557665e+00 -1.5568345e+00 8.5066788e-02 
-2.1556501e+00 -1.5602335e+00 1.3690564e-01 
-2.1561871e+00 -1.5634336e+00 1.8301736e-01 
-2.1607833e+00 -1.5493995e+00 -8.4823735e-02 
-2.1652079e+00 -1.5525028e+00 -1.0072281e-01 
-2.1633532e+00 -1.5553509e+00 -4.1312777e-02 
-2.1945033e+00 -1.5891546e+00 1.9105946e-01 
-2.2136827e+00 -1.6014067e+00 1.5437312e-01 
-2.2043841e+00 -1.5961771e+00 1.9337419e-01 
-2.1376441e+00 -1.5343304e+00 -5.5934083e-02 
-2.1422913e+00 -1.5430955e+00 8.6252345e-03 
-2.1394370e+00 -1.5536427e+00 2.4041896e-01 
-2.1634572e+00 -1.5630442e+00 7.5292014e-02 
-2.1596951e+00 -1.5519304e+00 -9.0540253e-02 
-2.1424527e+00 -1.5501565e+00 1.3116485e-01 
-2.1193137e+00 -1.5307345e+00 7.1577065e-02 
-2.1615901e+00 -1.5581636e+00 -1.5211084e-02 
-2.1211393e+00 -1.5271407e+00 -2.3946376e-04 
-2.1199048e+00 -1.5339618e+00 1.1456204e-01 
-2.2107990e+00 -1.6025685e+00 2.4908337e-01 
-2.1212330e+00 -1.5331268e+00 8.2746416e-02 
-2.1186762e+00 -1.5288266e+00 3.1296890e-02 
-2.0907130e+00 -1.5096186e+00 5.6873541e-02 
-2.0905263e+00 -1.5129732e+00 1.0779731e-01 
-2.0907865e+00 -1.5163453e+00 1.5498765e-01 
-2.0917320e+00 -1.5194578e+00 1.9780198e-01 
-2.0931323e+00 -1.5213192e+00 2.2560954e-01 
-2.1147759e+00 -1.5186888e+00 -1.0541317e-01 
-2.0921340e+00 -1.5017598e+00 -7.4033685e-02 
-2.1024272e+00 -1.5261409e+00 2.2716227e-01 
-2.0968194e+00 -1.5048624e+00 -9.4562881e-02 
-2.1182370e+00 -1.5255941e+00 -6.2804729e-02 
-2.1651945e+00 -1.5692637e+00 2.0535707e-01 
-2.1006627e+00 -1.5076964e+00 -1.0650242e-01 
-2.1647775e+00 -1.5684884e+00 1.9322422e-01 
-2.0763466e+00 -1.4951595e+00 -9.1003338e-03 
-2.0719857e+00 -1.5014286e+00 1.2971191e-01 
-2.0703335e+00 -1.4933473e+00 1.1254712e-02 
-2.0747566e+00 -1.4950054e+00 -2.2963729e-02 
-2.1184590e+00 -1.5357857e+00 1.8264042e-01 
-2.0546882e+00 -1.4940463e+00 2.3167451e-01 
-2.0740547e+00 -1.4982005e+00 3.0420810e-02 
-2.0744143e+00 -1.4926344e+00 -9.2821524e-02 
-2.1181262e+00 -1.5341494e+00 1.3718449e-01 
-2.0385058e+00 -1.4691931e+00 2.2621814e-03 
-2.0433047e+00 -1.4756516e+00 3.7898596e-02 
-2.0475929e+00 -1.4758416e+00 -1.2507234e-02 
-2.0658655e+00 -1.4991254e+00 1.9333661e-01 
-2.0262654e+00 -1.4664708e+00 7.8374073e-02 
-2.0264938e+00 -1.4698163e+00 1.2742555e-01 
-2.1248028e+00 -1.5420681e+00 2.3701040e-01 
-2.0271125e+00 -1.4728190e+00 1.7140073e-01 
-2.0764859e+00 -1.5016705e+00 3.1844795e-02 
-2.0280838e+00 -1.4678462e+00 7.6555461e-02 
-2.0238681e+00 -1.4555073e+00 -5.1053025e-02 
-2.0296359e+00 -1.4579692e+00 -8.6589113e-02 
-2.0336845e+00 -1.4612050e+00 -1.0252468e-01 
-2.0113111e+00 -1.4516296e+00 1.5777281e-02 
-2.0190005e+00 -1.4643099e+00 1.2795195e-01 
-2.0087719e+00 -1.4623600e+00 2.1715149e-01 
-2.0303481e+00 -1.4599478e+00 -1.0688809e-01 
-2.0238259e+00 -1.4611268e+00 -6.7574210e-03 
-2.0182664e+00 -1.4672379e+00 2.1783119e-01 
-2.0798643e+00 -1.5093874e+00 1.9394775e-01 
-2.0794396e+00 -1.5086236e+00 1.8279026e-01 
-2.0266342e+00 -1.4613922e+00 -7.1902916e-02 
-1.9910023e+00 -1.4409826e+00 6.3931830e-02 
-1.9814060e+00 -1.4271386e+00 -3.6222838e-02 
-2.0289662e+00 -1.4728519e+00 1.7112225e-01 
-1.9859031e+00 -1.4328922e+00 -2.1519685e-02 
-2.0328214e+00 -1.4730449e+00 8.3320908e-02 
-1.9630613e+00 -1.4205568e+00 5.1260635e-02 
-1.9629900e+00 -1.4240421e+00 9.9712819e-02 
-1.9736428e+00 -1.4328079e+00 1.2687097e-01 
-1.9634399e+00 -1.4273037e+00 1.4458209e-01 
-2.0339272e+00 -1.4767475e+00 1.7182769e-01 
-1.9649937e+00 -1.4305525e+00 1.8587580e-01 
-1.9717208e+00 -1.4358041e+00 2.2145072e-01 
-1.9909503e+00 -1.4343467e+00 -9.4630405e-02 
-2.0336897e+00 -1.4750543e+00 1.2862842e-01 
-1.9916744e+00 -1.4405885e+00 6.1677182e-03 
-1.9763852e+00 -1.4266347e+00 -2.6847297e-02 
-1.9843884e+00 -1.4346591e+00 2.7513681e-03 
-1.9629935e+00 -1.4118813e+00 -7.5187780e-02 
-1.9941850e+00 -1.4469048e+00 1.3259944e-01 
-1.9675771e+00 -1.4150397e+00 -9.5960811e-02 
-1.9713751e+00 -1.4181621e+00 -1.0805837e-01 
-1.9915093e+00 -1.4400500e+00 -2.3382200e-02 
-1.9729906e+00 -1.4320239e+00 1.2333392e-01 
-2.0404298e+00 -1.4828726e+00 2.2499487e-01 
-1.9484408e+00 -1.4073595e+00 4.2481907e-03 
-1.9487305e+00 -1.4142171e+00 1.0177115e-01 
-1.9586054e+00 -1.4143292e+00 -7.2311305e-02 
-1.9270647e+00 -1.4050846e+00 2.0876440e-01 
-1.9475175e+00 -1.4027390e+00 -1.0837009e-01 
-1.9360232e+00 -1.4101077e+00 2.0770141e-01 
-1.9964710e+00 -1.4509484e+00 1.8270577e-01 
-1.9439180e+00 -1.4136267e+00 1.7872816e-01 
-1.9959805e+00 -1.4501778e+00 1.7243867e-01 
-1.9199812e+00 -1.3872496e+00 -1.5838528e-02 
-1.9005289e+00 -1.3788384e+00 7.1587048e-02 
-1.9153479e+00 -1.3865044e+00 1.7437812e-02 
-1.9008725e+00 -1.3824252e+00 1.1853795e-01 
-1.9005378e+00 -1.3734963e+00 -1.0885765e-03 
-1.9016933e+00 -1.3853657e+00 1.5979016e-01 
-1.9022449e+00 -1.3695806e+00 -8.7476693e-02 
-1.9066910e+00 -1.3731079e+00 -1.0327853e-01 
-1.9050633e+00 -1.3783523e+00 -1.5187026e-02 
-1.9515061e+00 -1.4190536e+00 1.6103941e-01 
-1.8856013e+00 -1.3663777e+00 3.7071291e-02 
-1.8863891e+00 -1.3697101e+00 7.8413971e-02 
-1.8977731e+00 -1.3707244e+00 -5.1320396e-02 
-1.8907806e+00 -1.3798165e+00 2.1348996e-01 
-1.9086823e+00 -1.3777441e+00 -9.6383534e-02 
-1.8839760e+00 -1.3707176e+00 1.2316571e-01 
-1.9511523e+00 -1.4174577e+00 1.2011540e-01 
-1.9018275e+00 -1.3785648e+00 2.6038572e-02 
-1.9576844e+00 -1.4249694e+00 2.1313012e-01 
-1.9160314e+00 -1.3898805e+00 2.1549080e-02 
-1.8394473e+00 -1.3349918e+00 4.6310220e-02 
-1.8395360e+00 -1.3384107e+00 9.2000775e-02 
-1.8467250e+00 -1.3493029e+00 2.0080371e-01 
-1.8593333e+00 -1.3524274e+00 1.0183672e-01 
-1.8429599e+00 -1.3459176e+00 1.7993559e-01 
-1.8400652e+00 -1.3414885e+00 1.3458821e-01 
-1.8664423e+00 -1.3466209e+00 -1.0960741e-01 
-1.8560104e+00 -1.3540475e+00 1.9906184e-01 
-1.8691976e+00 -1.3526447e+00 -7.0058495e-02 
-1.9146045e+00 -1.3938551e+00 1.7179160e-01 
-1.9140699e+00 -1.3931013e+00 1.6232324e-01 
-1.8378122e+00 -1.3253331e+00 -7.4898399e-02 
-1.8423759e+00 -1.3284582e+00 -9.6443512e-02 
-1.8459768e+00 -1.3312781e+00 -1.0907490e-01 
-1.8255134e+00 -1.3232188e+00 1.2190440e-02 
-1.8693516e+00 -1.3613390e+00 1.5157883e-01 
-1.8835080e+00 -1.3693374e+00 8.0949157e-02 
-1.8256372e+00 -1.3300396e+00 1.1718093e-01 
-1.8499756e+00 -1.3436065e+00 2.2200119e-02 
-1.8266869e+00 -1.3230143e+00 -2.8785143e-02 
-1.8704745e+00 -1.3626409e+00 1.5095377e-01 
-1.8061628e+00 -1.3144099e+00 7.3297039e-02 
-1.8116517e+00 -1.3243090e+00 2.0482144e-01 
-1.8280504e+00 -1.3219348e+00 -9.8186992e-02 
-1.8699651e+00 -1.3609532e+00 1.1162056e-01 
-1.8228664e+00 -1.3240482e+00 2.1063272e-02 
-1.8764068e+00 -1.3682474e+00 2.0158680e-01 
-1.7791698e+00 -1.2951393e+00 6.5629348e-02 
-1.7794161e+00 -1.2985154e+00 1.0988195e-01 
-1.7803994e+00 -1.3015935e+00 1.4911604e-01 
-1.7791061e+00 -1.2846767e+00 -8.7737545e-02 
-1.7767048e+00 -1.2894050e+00 -1.5251448e-03 
-1.7832049e+00 -1.2879639e+00 -1.0412902e-01 
-1.7616253e+00 -1.2776504e+00 -3.9163372e-03 
-1.7686989e+00 -1.2951531e+00 1.9274268e-01 
-1.7808180e+00 -1.2980813e+00 9.5062099e-02 
-1.7871910e+00 -1.2918463e+00 -1.1048304e-01 
-1.8044397e+00 -1.3143879e+00 8.0304615e-02 
-1.7807661e+00 -1.2925047e+00 -1.6975362e-02 
-1.7771441e+00 -1.2994648e+00 1.9067100e-01 
-1.8339820e+00 -1.3375890e+00 1.6101505e-01 
-1.7575704e+00 -1.2825990e+00 1.0102502e-01 
-1.8334013e+00 -1.3368294e+00 1.5221104e-01 
-1.7820837e+00 -1.2922392e+00 -7.7502176e-02 
-1.7460994e+00 -1.2714610e+00 5.0233018e-02 
-1.7629219e+00 -1.2877252e+00 1.5974289e-01 
-1.7905437e+00 -1.3067703e+00 1.4099485e-01 
-1.7199049e+00 -1.2558714e+00 8.4956214e-02 
-1.7336292e+00 -1.2705600e+00 1.9667058e-01 
-1.7207046e+00 -1.2590044e+00 1.2514436e-01 
-1.7499208e+00 -1.2677686e+00 -9.8961815e-02 
-1.7899984e+00 -1.3052410e+00 1.0337458e-01 
-1.7410982e+00 -1.2709514e+00 1.0470771e-01 
-1.7426366e+00 -1.2675233e+00 -8.0072489e-03 
-1.7339420e+00 -1.2592659e+00 -2.9978607e-02 
-1.7132292e+00 -1.2558085e+00 1.6423853e-01 
-1.7074999e+00 -1.2443781e+00 4.5982186e-02 
-1.7506474e+00 -1.2735153e+00 -3.4233008e-02 
-1.7428889e+00 -1.2682892e+00 -5.9498888e-03 
-1.7164757e+00 -1.2420349e+00 -7.4324273e-02 
-1.7964551e+00 -1.3123184e+00 1.8998891e-01 
-1.7210970e+00 -1.2447946e+00 -9.6881241e-02 
-1.7247065e+00 -1.2475677e+00 -1.1032079e-01 
-1.7016462e+00 -1.2382264e+00 1.4754201e-02 
-1.7072532e+00 -1.2512171e+00 1.8583776e-01 
-1.7050472e+00 -1.2459594e+00 1.0022220e-01 
-1.6913577e+00 -1.2415608e+00 1.8586272e-01 
-1.7183329e+00 -1.2482409e+00 -7.9511404e-02 
-1.7096826e+00 -1.2385021e+00 -1.1104909e-01 
-1.6968596e+00 -1.2330935e+00 -2.8602654e-02 
-1.6840932e+00 -1.2322571e+00 1.0458121e-01 
-1.7549036e+00 -1.2823205e+00 1.5036395e-01 
-1.7542927e+00 -1.2815632e+00 1.4225766e-01 
-1.7301300e+00 -1.2625053e+00 5.9725974e-02 
-1.6690298e+00 -1.2137631e+00 -9.2626261e-03 
-1.6612704e+00 -1.2136447e+00 6.0074449e-02 
-1.6616060e+00 -1.2169139e+00 1.0167397e-01 
-1.6774855e+00 -1.2244138e+00 4.6472456e-02 
-1.6628158e+00 -1.2201321e+00 1.3880648e-01 
-1.6703264e+00 -1.2179937e+00 2.0003969e-02 
-1.7070311e+00 -1.2485731e+00 1.3148050e-01 
-1.6592278e+00 -1.2189485e+00 1.6743301e-01 
-1.6602463e+00 -1.2028390e+00 -8.8100716e-02 
-1.6519690e+00 -1.2045490e+00 1.9997766e-02 
-1.7128346e+00 -1.2528474e+00 1.3054352e-01 
-1.6641359e+00 -1.2055864e+00 -1.0426224e-01 
-1.6574088e+00 -1.2176180e+00 1.8883236e-01 
-1.6649694e+00 -1.2124883e+00 -2.4707999e-02 
-1.6764717e+00 -1.2257502e+00 8.3640635e-02 
-1.6481265e+00 -1.2050143e+00 6.3087180e-02 
-1.6729317e+00 -1.2152678e+00 -9.9997856e-02 
-1.7118772e+00 -1.2510227e+00 9.4954677e-02 
-1.6532829e+00 -1.2022156e+00 -5.4076578e-02 
-1.6611773e+00 -1.2123853e+00 8.9084273e-03 
-1.6346184e+00 -1.1912521e+00 5.9286749e-04 
-1.7182533e+00 -1.2577188e+00 1.7854714e-01 
-1.6331604e+00 -1.1975266e+00 1.0885065e-01 
-1.6738180e+00 -1.2223380e+00 4.8244586e-03 
-1.6357442e+00 -1.1907763e+00 -2.8358744e-02 
-1.6216353e+00 -1.1812252e+00 -6.0978369e-03 
-1.6160700e+00 -1.1896752e+00 1.7831247e-01 
-1.6336622e+00 -1.1864489e+00 -1.1133999e-01 
-1.6043918e+00 -1.1762388e+00 7.8398325e-02 
-1.6052152e+00 -1.1791285e+00 1.1598419e-01 
-1.6248038e+00 -1.1936401e+00 1.7274599e-01 
-1.6058073e+00 -1.1818372e+00 1.5519916e-01 
-1.6361126e+00 -1.1922535e+00 -7.5937741e-02 
-1.6777254e+00 -1.2288111e+00 1.3972148e-01 
-1.6108965e+00 -1.1820993e+00 1.1257344e-01 
-1.5961881e+00 -1.1679951e+00 4.5962937e-02 
-1.6770452e+00 -1.2280674e+00 1.3236430e-01 
-1.5992098e+00 -1.1615223e+00 -7.3197953e-02 
-1.6105757e+00 -1.1775618e+00 2.3122512e-02 
-1.6041795e+00 -1.1642138e+00 -9.7025402e-02 
-1.6078516e+00 -1.1673980e+00 -1.0970525e-01 
-1.5909824e+00 -1.1644222e+00 4.2447004e-02 
-1.5898620e+00 -1.1664453e+00 8.3689407e-02 
-1.5941690e+00 -1.1669439e+00 4.0452920e-02 
-1.5817078e+00 -1.1564658e+00 2.0493977e-02 
-1.6373593e+00 -1.2005956e+00 1.2071222e-01 
-1.5928717e+00 -1.1679559e+00 7.5745121e-02 
-1.5832146e+00 -1.1664193e+00 1.7984086e-01 
-1.5902520e+00 -1.1611096e+00 -2.6729755e-02 
-1.5980939e+00 -1.1642147e+00 -1.0087769e-01 
-1.6361456e+00 -1.1990789e+00 8.7087758e-02 
-1.5699142e+00 -1.1550156e+00 1.2319896e-01 
-1.5927405e+00 -1.1701149e+00 1.3822046e-01 
-1.5986542e+00 -1.1687983e+00 -4.0243048e-02 
-1.5691649e+00 -1.1459323e+00 -1.7176250e-02 
-1.6418142e+00 -1.2049614e+00 1.6735098e-01 
-1.5489109e+00 -1.1344349e+00 3.1570569e-02 
-1.5479751e+00 -1.1356585e+00 5.5164330e-02 
-1.5483824e+00 -1.1388645e+00 9.3852162e-02 
-1.5493724e+00 -1.1417712e+00 1.2891816e-01 
-1.5954146e+00 -1.1719609e+00 1.1754263e-01 
-1.5470160e+00 -1.1264628e+00 -5.7476416e-02 
-1.5428989e+00 -1.1391064e+00 1.7051019e-01 
-1.5363449e+00 -1.1239475e+00 4.4296933e-03 
-1.5599537e+00 -1.1359512e+00 -1.1128658e-01 
-1.5532578e+00 -1.1331275e+00 -6.3126139e-02 
-1.5453836e+00 -1.1239750e+00 -8.7313287e-02 
-1.5492290e+00 -1.1268026e+00 -1.0388546e-01 
-1.5513002e+00 -1.1429299e+00 1.6417412e-01 
-1.5352927e+00 -1.1274297e+00 5.6460332e-02 
-1.5542665e+00 -1.1381049e+00 -5.2627111e-03 
-1.5625677e+00 -1.1417123e+00 -7.8169711e-02 
-1.6026428e+00 -1.1773348e+00 1.2981474e-01 
-1.6018795e+00 -1.1765769e+00 1.2297550e-01 
-1.5286644e+00 -1.1195258e+00 9.3941456e-03 
-1.5242341e+00 -1.1226891e+00 1.0493933e-01 
-1.5012360e+00 -1.1028131e+00 4.2183246e-02 
-1.5628970e+00 -1.1496135e+00 1.1224236e-01 
-1.5106161e+00 -1.1162134e+00 1.7230023e-01 
-1.5250967e+00 -1.1137626e+00 -1.0230869e-01 
-1.5073358e+00 -1.1028380e+00 -3.1771969e-02 
-1.5077060e+00 -1.1058377e+00 8.2893688e-03 
-1.4928570e+00 -1.0995604e+00 7.2100155e-02 
-1.4937363e+00 -1.1025900e+00 1.0751747e-01 
-1.5549265e+00 -1.1434437e+00 8.4375657e-02 
-1.4891251e+00 -1.1016282e+00 1.4400180e-01 
-1.5137960e+00 -1.1131927e+00 5.2909523e-02 
-1.5316039e+00 -1.1247709e+00 -4.4964831e-03 
-1.4821535e+00 -1.0857426e+00 -8.6902464e-03 
-1.5673590e+00 -1.1536406e+00 1.5652126e-01 
-1.4856212e+00 -1.0900559e+00 1.2261846e-02 
-1.4864565e+00 -1.0843565e+00 -7.2082661e-02 
-1.4913861e+00 -1.0870053e+00 -9.6230209e-02 
-1.4797785e+00 -1.0881172e+00 3.7137028e-02 
-1.4946702e+00 -1.0900291e+00 -1.0886414e-01 
-1.4712607e+00 -1.0899370e+00 1.6310783e-01 
-1.5207204e+00 -1.1188033e+00 3.5379358e-02 
-1.4874239e+00 -1.0861235e+00 -1.1183795e-01 
-1.4804770e+00 -1.0918747e+00 8.8469997e-02 
-1.4820023e+00 -1.0873001e+00 -2.7365845e-02 
-1.4800739e+00 -1.0941436e+00 1.5646254e-01 
-1.4883103e+00 -1.0981828e+00 1.2582469e-01 
-1.4693226e+00 -1.0836289e+00 7.8485474e-02 
-1.4624944e+00 -1.0797819e+00 8.5825995e-02 
-1.5290869e+00 -1.1265568e+00 1.2010507e-01 
-1.5282953e+00 -1.1257864e+00 1.1365281e-01 
-1.4490258e+00 -1.0681219e+00 5.0924089e-02 
-1.4834207e+00 -1.0872060e+00 -8.4316477e-02 
-1.4593232e+00 -1.0712790e+00 -2.6915427e-02 
-1.4506990e+00 -1.0642331e+00 -2.5048200e-02 
-1.4391228e+00 -1.0641049e+00 8.6876042e-02 
-1.4400873e+00 -1.0669496e+00 1.1952487e-01 
-1.4417053e+00 -1.0694031e+00 1.4795516e-01 
-1.4366138e+00 -1.0540423e+00 -2.1637229e-02 
-1.4623705e+00 -1.0756923e+00 -1.0277757e-02 
-1.4401420e+00 -1.0683073e+00 1.6442265e-01 
-1.4537988e+00 -1.0650545e+00 -1.0241878e-01 
-1.4347247e+00 -1.0483100e+00 -8.6111106e-02 
-1.4888917e+00 -1.0979353e+00 7.1507365e-02 
-1.4387444e+00 -1.0515119e+00 -1.0279842e-01 
-1.4261230e+00 -1.0439852e+00 -5.6627803e-02 
-1.4836605e+00 -1.0950879e+00 1.0260857e-01 
-1.4454260e+00 -1.0635878e+00 -1.0885687e-02 
-1.4542760e+00 -1.0699079e+00 -4.6240382e-02 
-1.4945099e+00 -1.1032990e+00 1.4582238e-01 
-1.4090400e+00 -1.0398861e+00 3.3598267e-02 
-1.4512393e+00 -1.0725194e+00 1.0043747e-01 
-1.4068245e+00 -1.0345216e+00 -1.5530332e-02 
-1.3966384e+00 -1.0312771e+00 3.4600001e-02 
-1.4080544e+00 -1.0359268e+00 -2.0484978e-02 
-1.4013555e+00 -1.0421256e+00 1.5646075e-01 
-1.4167690e+00 -1.0381453e+00 -1.1160808e-01 
-1.4116310e+00 -1.0393282e+00 -2.9462403e-02 
-1.4099971e+00 -1.0460137e+00 1.4893381e-01 
-1.4196062e+00 -1.0438485e+00 -8.1188895e-02 
-1.3856635e+00 -1.0264428e+00 6.6070676e-02 
-1.4570649e+00 -1.0770259e+00 1.1041785e-01 
-1.3867493e+00 -1.0291611e+00 9.9566996e-02 
-1.3877621e+00 -1.0316217e+00 1.3012961e-01 
-1.3939490e+00 -1.0305156e+00 4.2983431e-02 
-1.4562597e+00 -1.0762712e+00 1.0441667e-01 
-1.3923833e+00 -1.0303783e+00 5.9075054e-02 
-1.3781167e+00 -1.0106452e+00 -7.0114747e-02 
-1.3828855e+00 -1.0132128e+00 -9.4660953e-02 
-1.3864943e+00 -1.0162075e+00 -1.0779398e-01 
-1.3776627e+00 -1.0154134e+00 -3.3939667e-02 
-1.4198045e+00 -1.0511187e+00 9.4579093e-02 
-1.3711244e+00 -1.0206398e+00 1.5757868e-01 
-1.3841213e+00 -1.0177221e+00 -1.0268348e-01 
-1.3563654e+00 -1.0027179e+00 1.5273659e-02 
-1.3568642e+00 -1.0053878e+00 4.6670109e-02 
-1.3495300e+00 -9.9547696e-01 -1.0957148e-02 
-1.4118637e+00 -1.0451399e+00 6.8972558e-02 
-1.3742561e+00 -1.0168978e+00 1.6744772e-02 
-1.4235513e+00 -1.0544317e+00 1.3522774e-01 
-1.3330237e+00 -9.8899961e-01 4.5722812e-02 
-1.3339779e+00 -9.9232495e-01 7.9922952e-02 
-1.3353918e+00 -9.9533045e-01 1.1089711e-01 
-1.3777143e+00 -1.0195329e+00 -1.4275774e-02 
-1.3368585e+00 -9.9746048e-01 1.3811275e-01 
-1.3339775e+00 -9.9564898e-01 1.5029804e-01 
-1.3801994e+00 -1.0224932e+00 2.4269294e-02 
-1.3488472e+00 -9.9171793e-01 -1.1035699e-01 
-1.3436673e+00 -9.9289906e-01 -3.2359470e-02 
-1.3427912e+00 -1.0001130e+00 1.4174990e-01 
-1.3282442e+00 -9.7611612e-01 -8.4634088e-02 
-1.3875953e+00 -1.0291620e+00 1.0124823e-01 
-1.3321832e+00 -9.7908545e-01 -1.0159441e-01 
-1.3226426e+00 -9.8385239e-01 7.1894512e-02 
-1.3458079e+00 -1.0004776e+00 1.1086055e-01 
-1.3867387e+00 -1.0284002e+00 9.5590487e-02 
-1.3447824e+00 -9.9266529e-01 -8.6712651e-02 
-1.3033910e+00 -9.6538073e-01 -3.3762737e-03 
-1.3073097e+00 -9.6688944e-01 -2.6878254e-02 
-1.3250560e+00 -9.8220372e-01 -1.7585766e-02 
-1.3124197e+00 -9.7605687e-01 5.5109665e-02 
-1.3048602e+00 -9.7539341e-01 1.5067407e-01 
-1.3017502e+00 -9.6948189e-01 6.5471403e-02 
-1.3168731e+00 -9.7182190e-01 -1.0256742e-01 
-1.3499323e+00 -1.0026840e+00 5.7153370e-02 
-1.3451992e+00 -9.9993843e-01 8.5634775e-02 
-1.3093891e+00 -9.7092420e-01 -1.7382797e-02 
-1.2820976e+00 -9.5324856e-01 2.6972489e-02 
-1.2828503e+00 -9.5655614e-01 6.0719308e-02 
-1.2839140e+00 -9.5930552e-01 9.2130236e-02 
-1.2850496e+00 -9.6167225e-01 1.2060530e-01 
-1.3176600e+00 -9.7703290e-01 -5.1892515e-02 
-1.3548137e+00 -1.0071607e+00 1.2512766e-01 
-1.3149174e+00 -9.7906446e-01 8.4695138e-02 
-1.2740983e+00 -9.4025201e-01 -6.7878775e-02 
-1.2708480e+00 -9.4593966e-01 2.7531909e-02 
-1.2787453e+00 -9.4268757e-01 -9.2764035e-02 
-1.2820723e+00 -9.4557786e-01 -1.0684508e-01 
-1.2678771e+00 -9.5093375e-01 1.4379497e-01 
-1.2823709e+00 -9.4706261e-01 -1.1077579e-01 
-1.2760137e+00 -9.5414883e-01 1.3432752e-01 
-1.2847121e+00 -9.5245838e-01 -8.3899543e-02 
-1.3198845e+00 -9.8287457e-01 9.2526689e-02 
-1.2569242e+00 -9.3928570e-01 6.7697272e-02 
-1.3190169e+00 -9.8213047e-01 8.7150127e-02 
-1.2585367e+00 -9.3362200e-01 -3.5106450e-02 
-1.2530243e+00 -9.3029767e-01 -1.8601734e-02 
-1.2532843e+00 -9.3257749e-01 -2.5789614e-03 
-1.2323824e+00 -9.2080939e-01 4.1362092e-02 
-1.2332410e+00 -9.2401677e-01 7.3786877e-02 
-1.2344995e+00 -9.2687476e-01 1.0275406e-01 
-1.2361859e+00 -9.2929208e-01 1.2819119e-01 
-1.2401174e+00 -9.2860925e-01 8.1188664e-02 
-1.2849556e+00 -9.5876008e-01 7.8491688e-02 
-1.2394438e+00 -9.3066597e-01 1.4398831e-01 
-1.2445928e+00 -9.2540479e-01 -3.7722558e-02 
-1.2237000e+00 -9.1035348e-01 -1.1923687e-02 
-1.2519552e+00 -9.2810971e-01 -1.0291715e-01 
-1.2265263e+00 -9.0737104e-01 -8.2418010e-02 
-1.2304311e+00 -9.1000217e-01 -9.9529654e-02 
-1.2772375e+00 -9.5306271e-01 5.4596186e-02 
-1.2417331e+00 -9.2668104e-01 8.2770530e-03 
-1.2881415e+00 -9.6155518e-01 1.1541387e-01 
-1.2239584e+00 -9.0902400e-01 -6.4677283e-02 
-1.2140043e+00 -9.0836811e-01 3.8304299e-02 
-1.2486975e+00 -9.3147069e-01 -2.3639465e-02 
-1.2055438e+00 -9.0149194e-01 2.4819830e-02 
-1.2067755e+00 -8.9867991e-01 -2.7655331e-02 
-1.2041328e+00 -9.0756023e-01 1.3709199e-01 
-1.2475129e+00 -9.3206054e-01 1.3777611e-02 
-1.2182201e+00 -9.0339661e-01 -1.0970183e-01 
-1.2108563e+00 -9.0727538e-01 6.2061053e-02 
-1.2117579e+00 -9.0444469e-01 -2.8139055e-02 
-1.2543656e+00 -9.3803036e-01 8.4146075e-02 
-1.2047348e+00 -9.0589279e-01 1.2999947e-01 
-1.2535059e+00 -9.3730056e-01 7.8969382e-02 
-1.1841344e+00 -8.8946557e-01 5.5667754e-02 
-1.1852175e+00 -8.9226347e-01 8.5062683e-02 
-1.2143615e+00 -9.0447319e-01 -8.8413388e-02 
-1.1864411e+00 -8.9477968e-01 1.1205476e-01 
-1.1936536e+00 -8.9456326e-01 3.7945904e-02 
-1.1750981e+00 -8.8091880e-01 2.7316783e-02 
-1.1746117e+00 -8.7292951e-01 -6.5259531e-02 
-1.1793754e+00 -8.7528479e-01 -9.1088817e-02 
-1.1694285e+00 -8.7492979e-01 -8.4314565e-04 
-1.1825365e+00 -8.7820661e-01 -1.0417974e-01 
-1.1767042e+00 -8.8787013e-01 1.3665067e-01 
-1.1879919e+00 -8.8471752e-01 -1.0279193e-01 
-1.2188753e+00 -9.1333622e-01 4.3670136e-02 
-1.2145081e+00 -9.1077942e-01 7.0189618e-02 
-1.1847074e+00 -8.9047229e-01 9.5600195e-02 
-1.1653510e+00 -8.7194628e-01 -1.5698977e-02 
-1.1888344e+00 -8.8948137e-01 -5.7607666e-02 
-1.1577204e+00 -8.7035668e-01 3.6660973e-02 
-1.1592704e+00 -8.7292880e-01 6.1038487e-02 
-1.2234304e+00 -9.1739291e-01 1.0618596e-01 
-1.1430806e+00 -8.5553527e-01 -1.7026983e-02 
-1.1863303e+00 -8.9146048e-01 7.0515573e-02 
-1.1359677e+00 -8.5541499e-01 3.7895549e-02 
-1.1367576e+00 -8.5847038e-01 6.8136841e-02 
-1.1382117e+00 -8.6141688e-01 9.4879307e-02 
-1.1440704e+00 -8.5611254e-01 -2.8383752e-02 
-1.1398370e+00 -8.6346483e-01 1.1873168e-01 
-1.1421645e+00 -8.6534381e-01 1.3139267e-01 
-1.1550688e+00 -8.6051667e-01 -1.0905769e-01 
-1.1590286e+00 -8.7108231e-01 1.4244387e-02 
-1.1506084e+00 -8.6209410e-01 -3.7145503e-02 
-1.1507450e+00 -8.6905819e-01 1.2113480e-01 
-1.1577207e+00 -8.6605000e-01 -8.6394027e-02 
-1.1905974e+00 -8.9474010e-01 7.6219141e-02 
-1.1897227e+00 -8.9400923e-01 7.1117453e-02 
-1.1291347e+00 -8.4146023e-01 -8.0081739e-02 
-1.1329136e+00 -8.4428948e-01 -9.6960828e-02 
-1.1253158e+00 -8.5015875e-01 6.7708187e-02 
-1.1280175e+00 -8.4363317e-01 -7.3729202e-02 
-1.1118126e+00 -8.3584195e-01 -4.0085530e-03 
-1.1103885e+00 -8.3710462e-01 2.1685092e-02 
-1.1045491e+00 -8.2968205e-01 -1.2619955e-02 
-1.1577759e+00 -8.7221998e-01 6.3927226e-02 
-1.1152325e+00 -8.4680986e-01 1.3082619e-01 
-1.1261804e+00 -8.4276527e-01 -1.0231100e-01 
-1.1214765e+00 -8.4350616e-01 -2.4710333e-02 
-1.1137397e+00 -8.4171772e-01 5.4969937e-02 
-1.1502656e+00 -8.6676341e-01 4.1004624e-02 
-1.0898892e+00 -8.2573825e-01 5.1106926e-02 
-1.0912154e+00 -8.2874280e-01 7.8780487e-02 
-1.1605649e+00 -8.7456340e-01 9.7180232e-02 
-1.0925131e+00 -8.3076161e-01 1.0353614e-01 
-1.1272205e+00 -8.4929937e-01 -3.1487890e-02 
-1.0832201e+00 -8.1912118e-01 2.7713809e-02 
-1.0803430e+00 -8.1859195e-01 4.5070190e-02 
-1.0795041e+00 -8.0891389e-01 -6.2319774e-02 
-1.0819666e+00 -8.2466537e-01 1.2574385e-01 
-1.1224251e+00 -8.4727031e-01 3.8722844e-03 
-1.0949707e+00 -8.1975216e-01 -1.0747092e-01 
-1.0844264e+00 -8.1131762e-01 -8.8437125e-02 
-1.0790799e+00 -8.1193554e-01 -3.1076644e-02 
-1.0879614e+00 -8.1400871e-01 -1.0199347e-01 
-1.0899718e+00 -8.2102448e-01 -3.8900189e-02 
-1.0897610e+00 -8.2760936e-01 1.1514819e-01 
-1.1287150e+00 -8.5254014e-01 6.8404846e-02 
-1.0926182e+00 -8.2822055e-01 8.5023269e-02 
-1.1278597e+00 -8.5182488e-01 6.3365459e-02 
-1.0911989e+00 -8.2063639e-01 -8.9790754e-02 
-1.0612750e+00 -8.0135083e-01 -7.9593267e-03 
-1.0451645e+00 -7.9218554e-01 1.3976519e-02 
-1.0568227e+00 -7.9937512e-01 -8.8547301e-03 
-1.0549011e+00 -8.0274659e-01 6.6347338e-02 
-1.0441067e+00 -7.9351872e-01 3.4535941e-02 
-1.0731819e+00 -8.1111050e-01 -2.9960319e-02 
-1.0450828e+00 -7.9647768e-01 6.2908486e-02 
-1.0463288e+00 -7.9912955e-01 8.7790996e-02 
-1.0633739e+00 -8.0695587e-01 3.9579257e-02 
-1.0566114e+00 -8.0624568e-01 1.2452070e-01 
-1.0479704e+00 -8.0144709e-01 1.1036094e-01 
-1.0667667e+00 -8.0254364e-01 -1.0124962e-01 
-1.0954144e+00 -8.2951939e-01 3.0926099e-02 
-1.0914561e+00 -8.2713968e-01 5.6192942e-02 
-1.0598961e+00 -8.0177116e-01 -2.8309528e-02 
-1.0401601e+00 -7.8346848e-01 -4.9375594e-02 
-1.0386209e+00 -7.8785849e-01 9.8492196e-03 
-1.0672671e+00 -8.0719101e-01 -6.1487980e-02 
-1.0995784e+00 -8.3310002e-01 8.8486798e-02 
-1.0444589e+00 -7.8776157e-01 -6.4133577e-02 
-1.0353130e+00 -7.8912419e-01 5.3415265e-02 
-1.0362989e+00 -7.7921432e-01 -7.7044196e-02 
-1.0403717e+00 -7.8167337e-01 -9.4738320e-02 
-1.0652881e+00 -8.0918437e-01 5.7969470e-02 
-1.0189974e+00 -7.7349055e-01 -1.9072859e-03 
-1.0238962e+00 -7.8538603e-01 1.2006913e-01 
-1.0361779e+00 -7.8041214e-01 -1.0641561e-01 
-1.0318807e+00 -7.8811890e-01 1.0980970e-01 
-1.0382165e+00 -7.8576410e-01 -8.6978689e-02 
-1.0688466e+00 -8.1201094e-01 6.1189204e-02 
-1.0679795e+00 -8.1130081e-01 5.6096528e-02 
-1.0064716e+00 -7.6396728e-01 -2.0012446e-02 
-1.0004057e+00 -7.6513362e-01 4.6913575e-02 
-1.0013547e+00 -7.6769400e-01 7.2652258e-02 
-1.0026584e+00 -7.7013975e-01 9.5867530e-02 
-9.9724346e-01 -7.6111722e-01 2.3198549e-02 
-1.0068359e+00 -7.6350993e-01 -3.6424506e-02 
-9.9283034e-01 -7.5472575e-01 -1.3172447e-02 
-1.0013654e+00 -7.6818502e-01 8.6689740e-02 
-1.0382763e+00 -7.9101527e-01 5.0781399e-02 
-1.0040634e+00 -7.6634872e-01 2.4476225e-02 
-9.9951470e-01 -7.6819456e-01 1.1889800e-01 
-1.0034553e+00 -7.6212484e-01 -4.2621512e-02 
-1.0093832e+00 -7.6429409e-01 -1.0101086e-01 
-9.8911250e-01 -7.4837703e-01 -5.8915928e-02 
-9.9389648e-01 -7.5040609e-01 -8.5949205e-02 
-9.8318404e-01 -7.4868035e-01 -1.0323424e-02 
-9.9710494e-01 -7.5286621e-01 -9.8846622e-02 
-1.0310594e+00 -7.8586382e-01 2.8436469e-02 
-1.0002004e+00 -7.6301140e-01 -6.2447786e-03 
-9.8794740e-01 -7.5455487e-01 1.1042922e-02 
-1.0406386e+00 -7.9308468e-01 8.0157682e-02 
-9.7785091e-01 -7.5008965e-01 5.0445661e-02 
-9.7170144e-01 -7.4217385e-01 3.7408297e-04 
-1.0052532e+00 -7.6645267e-01 -3.8238257e-02 
-9.6793246e-01 -7.4739623e-01 1.1469019e-01 
-1.0051516e+00 -7.6778454e-01 -5.2924608e-03 
-9.7970414e-01 -7.4242288e-01 -1.0472130e-01 
-9.5671296e-01 -7.3471999e-01 3.1383116e-02 
-9.7335505e-01 -7.4680197e-01 4.6281993e-02 
-9.5782620e-01 -7.3762602e-01 5.7899043e-02 
-9.5919412e-01 -7.4017137e-01 8.1241988e-02 
-9.6060950e-01 -7.4209273e-01 1.0210568e-01 
-9.6225303e-01 -7.3369724e-01 -2.8702326e-02 
-1.0108635e+00 -7.7258450e-01 5.4119710e-02 
-9.4934875e-01 -7.2770798e-01 1.1911396e-02 
-9.7001517e-01 -7.4684662e-01 1.0614893e-01 
-1.0100373e+00 -7.7190101e-01 4.8978299e-02 
-9.7662210e-01 -7.4388796e-01 -9.0032317e-02 
-9.4766349e-01 -7.2821844e-01 2.7657567e-02 
-9.4414151e-01 -7.1892422e-01 -4.6864919e-02 
-9.4836408e-01 -7.1983200e-01 -7.3825791e-02 
-9.5258647e-01 -7.2264183e-01 -9.1556557e-02 
-9.3975413e-01 -7.1927834e-01 -1.2466199e-02 
-9.5528489e-01 -7.2515035e-01 -1.0210615e-01 
-9.5902890e-01 -7.3453391e-01 -3.5071410e-02 
-9.4409662e-01 -7.3031634e-01 1.1365598e-01 
-9.5363665e-01 -7.2638971e-01 -1.0068576e-01 
-9.3752027e-01 -7.2372389e-01 6.6104785e-02 
-9.7974479e-01 -7.5114864e-01 1.9214895e-02 
-9.7609711e-01 -7.4895942e-01 4.3701541e-02 
-9.4719529e-01 -7.2572011e-01 -3.1342428e-02 
-9.5130676e-01 -7.3180610e-01 7.2955541e-02 
-9.5429242e-01 -7.3100793e-01 -6.5867223e-02 
-9.8364216e-01 -7.5450832e-01 7.2174579e-02 
-9.1427016e-01 -7.0464957e-01 1.7688781e-02 
-9.1506362e-01 -7.0764154e-01 4.3168847e-02 
-9.1637003e-01 -7.1034640e-01 6.7136727e-02 
-9.1787785e-01 -7.1269208e-01 8.8603951e-02 
-9.2217904e-01 -7.0863903e-01 -9.9200793e-03 
-9.5199829e-01 -7.3242611e-01 4.6761647e-02 
-9.2591459e-01 -7.0910323e-01 -4.9026236e-02 
-9.2265439e-01 -7.1325171e-01 6.7387849e-02 
-9.1339493e-01 -7.1034998e-01 1.0919870e-01 
-9.2482167e-01 -7.0566732e-01 -1.0335346e-01 
-9.0498221e-01 -6.9635195e-01 -9.2944484e-03 
-9.2071819e-01 -7.0670444e-01 -4.2649828e-02 
-9.2061532e-01 -7.1348643e-01 9.7304702e-02 
-9.0520275e-01 -6.9886923e-01 1.5034593e-02 
-9.2721957e-01 -7.1063739e-01 -8.7489627e-02 
-9.0358227e-01 -6.9087344e-01 -5.5741221e-02 
-9.5499587e-01 -7.3495358e-01 4.7680628e-02 
-9.0825158e-01 -6.9274950e-01 -8.2348548e-02 
-9.5416230e-01 -7.3427707e-01 4.2351756e-02 
-9.0839934e-01 -6.9338202e-01 -9.8018177e-02 
-8.8828623e-01 -6.8421727e-01 -1.3183980e-02 
-8.8831347e-01 -6.9019902e-01 5.4564498e-02 
-9.2634034e-01 -7.1534836e-01 3.9091479e-02 
-8.9101475e-01 -6.9405228e-01 1.0756441e-01 
-8.9962608e-01 -6.8993431e-01 -9.9455230e-02 
-8.8157171e-01 -6.8866539e-01 9.5442213e-02 
-8.7381583e-01 -6.7870051e-01 2.8810931e-02 
-8.7506074e-01 -6.8166757e-01 5.3365629e-02 
-8.7621617e-01 -6.8416452e-01 7.5407006e-02 
-8.9557368e-01 -6.9081098e-01 -3.3147242e-02 
-9.1963226e-01 -7.1061271e-01 1.6942963e-02 
-9.2857283e-01 -7.1727729e-01 6.4638473e-02 
-8.9790982e-01 -6.9439024e-01 -4.4632830e-02 
-8.6870140e-01 -6.7665613e-01 4.5108806e-02 
-8.6435306e-01 -6.7017263e-01 2.9720271e-03 
-8.6506838e-01 -6.6410065e-01 -7.0360683e-02 
-8.6894745e-01 -6.6648078e-01 -8.8472538e-02 
-8.7122744e-01 -6.7696387e-01 2.4240099e-02 
-8.6139655e-01 -6.7513525e-01 1.0423325e-01 
-8.9532757e-01 -6.9377154e-01 -1.3742848e-02 
-8.7234622e-01 -6.7000723e-01 -1.0196356e-01 
-8.6792201e-01 -6.7115706e-01 -4.4031415e-02 
-8.6804610e-01 -6.7732102e-01 9.3551278e-02 
-9.0071940e-01 -6.9815964e-01 4.1404650e-02 
-8.5777044e-01 -6.6307449e-01 -4.3267351e-02 
-8.7039399e-01 -6.7781788e-01 6.4679362e-02 
-8.9992934e-01 -6.9749683e-01 3.5852499e-02 
-8.6941904e-01 -6.7119336e-01 -8.9696258e-02 
-8.4096050e-01 -6.6082621e-01 8.4126830e-02 
-8.4096879e-01 -6.5208447e-01 -2.4671031e-02 
-8.4733272e-01 -6.5869111e-01 -8.2485005e-03 
-8.3376437e-01 -6.5052772e-01 1.5915239e-02 
-8.3464772e-01 -6.5343577e-01 3.9848592e-02 
-8.3586371e-01 -6.5607274e-01 6.2197253e-02 
-8.5298187e-01 -6.6263181e-01 -3.9914072e-02 
-8.4451169e-01 -6.5914381e-01 2.8219080e-02 
-8.3063006e-01 -6.4191753e-01 -5.5590618e-02 
-8.3491778e-01 -6.5542966e-01 7.3612183e-02 
-8.3952278e-01 -6.5954244e-01 1.0298780e-01 
-8.4801477e-01 -6.5500098e-01 -9.7886540e-02 
-8.7157094e-01 -6.7813957e-01 8.3435997e-03 
-8.6839330e-01 -6.7621630e-01 3.2663025e-02 
-8.2527727e-01 -6.4502513e-01 1.3227605e-02 
-8.4193158e-01 -6.5483046e-01 -3.5613187e-02 
-8.4890419e-01 -6.5984994e-01 -6.9346122e-02 
-8.2714301e-01 -6.3824624e-01 -7.8950495e-02 
-8.3003169e-01 -6.4077413e-01 -9.2674822e-02 
-8.7526780e-01 -6.8118793e-01 5.7294294e-02 
-8.1616586e-01 -6.4085525e-01 4.0227141e-02 
-8.4602553e-01 -6.6079408e-01 3.7085548e-02 
-8.1106359e-01 -6.4119416e-01 9.9383138e-02 
-8.1787056e-01 -6.4137423e-01 3.1022757e-02 
-8.2124001e-01 -6.3565379e-01 -1.0070419e-01 
-8.0973184e-01 -6.3114601e-01 -3.0531939e-02 
-8.1800461e-01 -6.4370096e-01 8.9204565e-02 
-8.2363993e-01 -6.4072007e-01 -8.7080032e-02 
-8.4838361e-01 -6.6291994e-01 3.5405453e-02 
-7.9524016e-01 -6.2598836e-01 2.6657769e-02 
-7.9641271e-01 -6.2876046e-01 4.9435522e-02 
-7.9774022e-01 -6.3130230e-01 6.9637246e-02 
-7.9947513e-01 -6.3318372e-01 8.7652616e-02 
-8.4760606e-01 -6.6226321e-01 2.9592384e-02 
-7.9021215e-01 -6.1843544e-01 -1.3494347e-02 
-7.9651117e-01 -6.2361109e-01 -1.9599982e-02 
-7.8644520e-01 -6.1796951e-01 1.8392694e-03 
-7.8560346e-01 -6.1106485e-01 -6.6521406e-02 
-8.2224542e-01 -6.4497560e-01 2.8849127e-02 
-7.8974843e-01 -6.1308253e-01 -8.4343269e-02 
-7.8989464e-01 -6.2655693e-01 9.8101683e-02 
-7.9305112e-01 -6.1582798e-01 -9.5852867e-02 
-7.9264253e-01 -6.1996663e-01 -4.5829501e-02 
-7.9803431e-01 -6.2162805e-01 -9.6910983e-02 
-7.9409820e-01 -6.2345755e-01 -1.0469578e-02 
-7.7956432e-01 -6.1713898e-01 5.0138365e-02 
-7.7607036e-01 -6.1346436e-01 2.9861752e-02 
-8.1569600e-01 -6.4043146e-01 6.4189476e-03 
-8.2401305e-01 -6.4646178e-01 5.0100274e-02 
-7.9804790e-01 -6.2710655e-01 -4.9834061e-02 
-7.8726131e-01 -6.1921388e-01 -2.5100054e-02 
-7.8390282e-01 -6.1868387e-01 3.7422437e-02 
-7.5815457e-01 -6.0212457e-01 3.7001528e-02 
-7.5977814e-01 -6.0488385e-01 5.7884667e-02 
-7.6084477e-01 -6.0699075e-01 7.8266844e-02 
-7.6846701e-01 -6.0284066e-01 -5.0165590e-02 
-7.6251417e-01 -6.0878289e-01 9.5344238e-02 
-7.9363787e-01 -6.2530988e-01 -2.1042040e-02 
-7.7244300e-01 -6.0306114e-01 -9.8395742e-02 
-7.5174564e-01 -5.9571749e-01 1.6675467e-02 
-7.6825970e-01 -6.0465986e-01 -4.1266277e-02 
-7.9837704e-01 -6.2896335e-01 2.9559419e-02 
-7.6474059e-01 -6.0809582e-01 8.6527668e-02 
-7.9759812e-01 -6.2832177e-01 2.3528052e-02 
-7.4943304e-01 -5.9397036e-01 1.1590644e-02 
-7.6985687e-01 -6.0431737e-01 -8.8687003e-02 
-7.4565643e-01 -5.8507335e-01 -4.8334084e-02 
-7.5076932e-01 -5.8700770e-01 -7.5167499e-02 
-7.4860430e-01 -5.9643602e-01 5.4274440e-02 
-7.5301027e-01 -5.9394193e-01 -3.8177162e-02 
-7.5047642e-01 -5.8725637e-01 -9.2429705e-02 
-7.3940456e-01 -5.8932453e-01 3.6550961e-02 
-7.4249411e-01 -5.9379596e-01 9.4087154e-02 
-7.4514717e-01 -5.9198254e-01 2.1230528e-02 
-7.5040287e-01 -5.9005946e-01 -9.5564000e-02 
-7.3615897e-01 -5.8229059e-01 -2.6287103e-02 
-7.7205056e-01 -6.1109084e-01 -9.1842090e-04 
-7.3061544e-01 -5.7830209e-01 -1.9138286e-02 
-7.6909643e-01 -6.0916466e-01 2.2829756e-02 
-7.4905825e-01 -5.9521461e-01 5.4417718e-02 
-7.5099391e-01 -5.9381735e-01 -6.9906577e-02 
-7.2239232e-01 -5.7906902e-01 4.5670778e-02 
-7.2382396e-01 -5.8159876e-01 6.4911723e-02 
-7.7503759e-01 -6.1334795e-01 4.3185309e-02 
-7.2371471e-01 -5.8242553e-01 8.3453745e-02 
-7.1600449e-01 -5.7272381e-01 2.4625419e-02 
-7.2798014e-01 -5.7541269e-01 -5.2685630e-02 
-7.4872512e-01 -5.9555805e-01 2.8370149e-02 
-7.1403348e-01 -5.7105923e-01 2.0013653e-02 
-7.1610349e-01 -5.7703024e-01 9.1470607e-02 
-7.2865313e-01 -5.7982570e-01 -9.1729527e-03 
-7.2571921e-01 -5.7191736e-01 -9.6267395e-02 
-7.1159238e-01 -5.6129676e-01 -6.2137563e-02 
-7.2284794e-01 -5.7914704e-01 7.9976462e-02 
-7.1564633e-01 -5.6340098e-01 -8.0803484e-02 
-7.2815913e-01 -5.7703340e-01 -8.6755924e-02 
-7.1128392e-01 -5.7144696e-01 5.2396554e-02 
-7.1881056e-01 -5.6607980e-01 -9.1389559e-02 
-7.5092059e-01 -5.9703797e-01 2.4525493e-02 
-6.9911712e-01 -5.5725306e-01 -1.2949149e-02 
-7.5013620e-01 -5.9641588e-01 1.8171564e-02 
-6.9719166e-01 -5.5733359e-01 -3.6203689e-03 
-7.0395404e-01 -5.6591779e-01 4.8829243e-02 
-7.1039581e-01 -5.6584704e-01 -3.7306022e-02 
-6.9878185e-01 -5.5963826e-01 3.7340678e-03 
-6.8637389e-01 -5.5391407e-01 3.3882596e-02 
-6.8773592e-01 -5.5675554e-01 5.3595986e-02 
-6.8936932e-01 -5.5872166e-01 7.0920765e-02 
-7.2710812e-01 -5.8083385e-01 1.9959414e-02 
-6.9121873e-01 -5.6052512e-01 8.4742643e-02 
-6.9711190e-01 -5.6313521e-01 9.0101846e-02 
-7.0447040e-01 -5.5882245e-01 -9.4536081e-02 
-6.8141782e-01 -5.4876179e-01 1.7364936e-02 
-7.2553015e-01 -5.7948977e-01 -5.2234610e-03 
-6.9377887e-01 -5.5662769e-01 -7.5322474e-05 
-7.2845936e-01 -5.8181590e-01 3.6976613e-02 
-6.7946708e-01 -5.4860330e-01 2.7339777e-02 
-6.7826796e-01 -5.3830981e-01 -7.1091451e-02 
-6.8168199e-01 -5.4105014e-01 -8.4269539e-02 
-6.7641461e-01 -5.4799241e-01 5.0127074e-02 
-6.6883415e-01 -5.3344506e-01 -4.8211452e-02 
-6.6687900e-01 -5.3780687e-01 1.7534050e-03 
-6.6529566e-01 -5.3522027e-01 -1.0620639e-02 
-6.7180324e-01 -5.3811705e-01 -3.5151541e-02 
-6.7157310e-01 -5.4729390e-01 8.7463386e-02 
-6.8066293e-01 -5.4124570e-01 -9.4324686e-02 
-6.7697334e-01 -5.4241878e-01 -4.5566086e-02 
-6.9919825e-01 -5.6153530e-01 -2.0751575e-02 
-7.0533681e-01 -5.6607521e-01 1.9677436e-02 
-6.6898781e-01 -5.4265481e-01 5.0416715e-02 
-6.7267978e-01 -5.4562438e-01 7.8766070e-02 
-7.0453441e-01 -5.6545693e-01 1.2903090e-02 
-6.7849153e-01 -5.4302579e-01 -8.8419653e-02 
-6.5255976e-01 -5.2806741e-01 5.7434021e-03 
-6.5908617e-01 -5.3881729e-01 7.7697657e-02 
-6.5217084e-01 -5.2993983e-01 2.3190279e-02 
-6.5300196e-01 -5.3239059e-01 4.2639535e-02 
-6.5434450e-01 -5.3474575e-01 5.9907839e-02 
-6.8053794e-01 -5.4826516e-01 -4.6818804e-02 
-6.5380228e-01 -5.2992016e-01 1.0177284e-02 
-6.8544382e-01 -5.5260217e-01 -6.5513430e-03 
-6.4767140e-01 -5.2749294e-01 3.2049254e-02 
-6.6412330e-01 -5.3555870e-01 -4.7631890e-02 
-6.5294564e-01 -5.3340900e-01 8.5271060e-02 
-6.6022050e-01 -5.2894449e-01 -9.2066489e-02 
-6.4316189e-01 -5.2263993e-01 1.0911247e-02 
-6.5144992e-01 -5.2439690e-01 -4.7736585e-02 
-6.7805082e-01 -5.4771119e-01 1.4690852e-02 
-6.4237404e-01 -5.1471108e-01 -5.8125604e-02 
-6.5513980e-01 -5.3141809e-01 2.4341185e-02 
-6.5513605e-01 -5.2878022e-01 -4.1053809e-02 
-6.5891546e-01 -5.3462613e-01 5.0139740e-02 
-6.4600301e-01 -5.1692468e-01 -7.6208398e-02 
-6.6159320e-01 -5.3388131e-01 -7.3118657e-02 
-6.3842499e-01 -5.1679713e-01 -1.5273099e-02 
-6.4276087e-01 -5.2600288e-01 5.9529178e-02 
-6.4861590e-01 -5.1878685e-01 -8.6886026e-02 
-6.8332243e-01 -5.5129582e-01 3.1238528e-02 
-6.5932822e-01 -5.3502470e-01 2.0384368e-02 
-6.4963198e-01 -5.2752221e-01 -7.9057319e-03 
-6.2846464e-01 -5.1801211e-01 8.3316170e-02 
-6.3737082e-01 -5.1223677e-01 -9.1361731e-02 
-6.1812407e-01 -5.0574565e-01 1.2396202e-02 
-6.1923188e-01 -5.0861895e-01 3.1829547e-02 
-6.2070382e-01 -5.1127720e-01 4.9564485e-02 
-6.2217355e-01 -5.1344717e-01 6.5114044e-02 
-6.3520402e-01 -5.1988983e-01 7.1422555e-02 
-6.1560082e-01 -5.0126272e-01 -1.2042799e-02 
-6.3978422e-01 -5.1716340e-01 -8.5772946e-02 
-6.6087031e-01 -5.3622210e-01 1.5210546e-02 
-6.6005886e-01 -5.3562737e-01 7.9448996e-03 
-6.2460434e-01 -5.1179570e-01 3.4389257e-02 
-6.1879629e-01 -5.0161994e-01 -4.5914572e-02 
-6.1543965e-01 -5.0752509e-01 5.5673461e-02 
-6.0631800e-01 -4.9578524e-01 -7.3472308e-03 
-6.4412796e-01 -5.2500141e-01 -1.4076509e-02 
-6.1126989e-01 -4.9342573e-01 -6.6488422e-02 
-6.3895524e-01 -5.2138317e-01 1.2040708e-02 
-6.1117238e-01 -5.0513470e-01 8.0672987e-02 
-6.0845208e-01 -4.9936929e-01 4.6806103e-03 
-6.1808592e-01 -5.0070727e-01 -9.0381108e-02 
-6.0223222e-01 -4.9588719e-01 1.7352896e-02 
-6.1173820e-01 -4.9757016e-01 -4.8797023e-02 
-6.1244607e-01 -4.9455699e-01 -8.5442483e-02 
-5.9816581e-01 -4.9143654e-01 8.4027892e-04 
-6.1121565e-01 -5.0015420e-01 -2.7785962e-02 
-6.3943273e-01 -5.2172470e-01 2.5754081e-02 
-5.9416550e-01 -4.8305699e-01 -4.8043292e-02 
-5.8698308e-01 -4.8601702e-01 2.0871650e-02 
-5.8834374e-01 -4.8876020e-01 3.9280150e-02 
-5.8989954e-01 -4.9117082e-01 5.5620741e-02 
-5.9158909e-01 -4.9316826e-01 7.1475312e-02 
-5.9328562e-01 -4.8520306e-01 -3.1511933e-02 
-5.9639877e-01 -4.9356386e-01 4.3296471e-02 
-5.9628981e-01 -4.8331791e-01 -7.5026460e-02 
-5.9848905e-01 -4.9196377e-01 -9.6312901e-03 
-5.8220202e-01 -4.8111868e-01 7.6827067e-03 
-6.1204809e-01 -5.0151759e-01 -6.0459282e-02 
-5.8812338e-01 -4.9063906e-01 7.8913487e-02 
-5.9656447e-01 -4.8482168e-01 -8.8575110e-02 
-5.9251106e-01 -4.8561662e-01 -4.4278987e-02 
-5.9856522e-01 -4.8932666e-01 -8.4266201e-02 
-5.8209842e-01 -4.8322511e-01 2.9107289e-02 
-5.7697153e-01 -4.7578514e-01 -9.7940899e-03 
-6.1774606e-01 -5.0713229e-01 1.0931296e-02 
-5.7645220e-01 -4.7287178e-01 -3.0151857e-02 
-5.8180141e-01 -4.8393014e-01 4.3049805e-02 
-6.1692327e-01 -5.0652707e-01 3.1446673e-03 
-5.9703040e-01 -4.9020424e-01 -7.4582569e-02 
-6.0402399e-01 -4.9750790e-01 -3.8913451e-02 
-5.7530671e-01 -4.7173423e-01 -3.8035538e-02 
-5.8758122e-01 -4.8695526e-01 6.2781788e-02 
-5.8776832e-01 -4.8492023e-01 -3.6233012e-02 
-5.8754981e-01 -4.8561943e-01 3.7131317e-02 
-5.6575108e-01 -4.7041431e-01 8.8665066e-03 
-5.7140237e-01 -4.7816646e-01 7.6583095e-02 
-5.7097703e-01 -4.6685222e-01 -8.1001498e-02 
-5.6382251e-01 -4.7427154e-01 7.2360255e-02 
-5.9513170e-01 -4.9185371e-01 -1.7766889e-02 
-5.5709624e-01 -4.6675253e-01 2.9339122e-02 
-5.5536163e-01 -4.6383360e-01 1.3930005e-02 
-5.5852574e-01 -4.6927831e-01 4.6424102e-02 
-5.7609051e-01 -4.7235870e-01 -8.7696277e-02 
-5.5979317e-01 -4.7108239e-01 6.0437866e-02 
-5.7289857e-01 -4.7334498e-01 -4.2055145e-02 
-5.8537525e-01 -4.8459700e-01 1.6389919e-02 
-5.6307769e-01 -4.6106821e-01 -6.5336749e-02 
-5.5808622e-01 -4.5912251e-01 -4.2785536e-02 
-5.6518316e-01 -4.7137782e-01 2.5506118e-02 
-5.6933856e-01 -4.7393003e-01 3.7326988e-02 
-5.9739214e-01 -4.9314591e-01 2.0180503e-02 
-5.7535493e-01 -4.7703132e-01 -1.6945083e-02 
-5.7627225e-01 -4.7809324e-01 -1.8801615e-02 
-5.4922324e-01 -4.5772877e-01 -5.0331899e-03 
-5.5342346e-01 -4.6444431e-01 3.6111720e-02 
-5.6721085e-01 -4.7169599e-01 -1.5165039e-05 
-5.7998824e-01 -4.8141426e-01 7.5614685e-03 
-5.5434150e-01 -4.6377623e-01 2.7472250e-02 
-5.4929572e-01 -4.6407849e-01 7.5429410e-02 
-5.5754608e-01 -4.5882994e-01 -8.6979732e-02 
-5.3895980e-01 -4.4971678e-01 -1.0936419e-02 
-5.7928878e-01 -4.8096311e-01 7.1168472e-03 
-5.4239714e-01 -4.5555994e-01 1.8159339e-02 
-5.5900562e-01 -4.6216181e-01 -8.4495299e-02 
-5.5858630e-01 -4.6327177e-01 -7.9275995e-02 
-5.7609618e-01 -4.7873846e-01 -1.3062259e-03 
-5.5837917e-01 -4.6453762e-01 -7.2156914e-02 
-5.5809093e-01 -4.6486914e-01 -6.4727806e-02 
-5.5763054e-01 -4.6517083e-01 -5.6901045e-02 
-5.3015620e-01 -4.4955689e-01 3.7983842e-02 
-5.3199095e-01 -4.5196056e-01 5.2433293e-02 
-5.4268086e-01 -4.5759925e-01 6.8727143e-02 
-5.3753543e-01 -4.5054355e-01 -2.9737600e-03 
-5.3322566e-01 -4.5333955e-01 6.4884380e-02 
-5.2679574e-01 -4.4539222e-01 2.0788427e-02 
-5.4518580e-01 -4.5755282e-01 4.5104917e-02 
-5.3150427e-01 -4.4002974e-01 -5.4592472e-02 
-5.3516704e-01 -4.4203493e-01 -7.0224144e-02 
-5.3828746e-01 -4.4482809e-01 -8.1105657e-02 
-5.5704832e-01 -4.6590534e-01 -2.9086821e-02 
-5.4066360e-01 -4.5201412e-01 -3.9945304e-02 
-5.3514975e-01 -4.4590306e-01 -4.8902858e-02 
-5.4627019e-01 -4.5764512e-01 2.7570982e-02 
-5.3839636e-01 -4.5365772e-01 5.7406414e-02 
-5.4998922e-01 -4.6037608e-01 -4.8670907e-02 
-5.4066342e-01 -4.5256507e-01 -3.3885408e-02 
-5.5694473e-01 -4.6583551e-01 -1.7036455e-02 
-5.4052961e-01 -4.5291853e-01 -2.7103340e-02 
-5.2139413e-01 -4.3972367e-01 2.6964480e-03 
-5.2473307e-01 -4.4457689e-01 2.9572351e-02 
-5.2693778e-01 -4.4675058e-01 4.2640418e-02 
-5.3999776e-01 -4.5390919e-01 3.4494281e-02 
-5.1909751e-01 -4.3541890e-01 -1.9843578e-02 
-5.4797190e-01 -4.5950148e-01 -4.0331651e-02 
-5.4671258e-01 -4.5808420e-01 1.1115112e-02 
-5.2459413e-01 -4.3896511e-01 -3.5152901e-02 
-5.5742550e-01 -4.6622956e-01 1.5202250e-02 
-5.2947813e-01 -4.4695854e-01 2.7288513e-02 
-5.4117566e-01 -4.5439768e-01 1.6935706e-02 
-5.4607487e-01 -4.5828307e-01 3.2654465e-03 
-5.3259397e-01 -4.4825071e-01 -4.7768387e-03 
-5.2847427e-01 -4.4066250e-01 -8.5336082e-02 
-5.1299763e-01 -4.3133616e-01 -2.2442587e-02 
-5.3391641e-01 -4.4915357e-01 -1.7449124e-02 
-5.1968247e-01 -4.3879718e-01 -9.2520822e-05 
-5.1842177e-01 -4.4058719e-01 4.4977613e-02 
-5.3836620e-01 -4.5289668e-01 5.1248022e-03 
-5.3402251e-01 -4.4973329e-01 -2.1694524e-02 
-5.1265359e-01 -4.3912631e-01 7.1674258e-02 
-5.1987576e-01 -4.3327102e-01 -8.3696075e-02 
-5.2176940e-01 -4.4082421e-01 6.7780549e-03 
-5.0075692e-01 -4.2710838e-01 1.5179753e-02 
-5.0272226e-01 -4.3126070e-01 4.3664377e-02 
-5.0419956e-01 -4.2257461e-01 -4.2219516e-02 
-5.0053132e-01 -4.2843062e-01 2.9485375e-02 
-5.0410503e-01 -4.3319190e-01 5.6582306e-02 
-5.1238519e-01 -4.3748385e-01 6.9862157e-02 
-5.0541204e-01 -4.3451706e-01 6.6998079e-02 
-5.1535296e-01 -4.3372601e-01 -4.7911871e-02 
-5.1831281e-01 -4.3516713e-01 -8.0404475e-02 
-5.0451338e-01 -4.2143661e-01 -6.0706977e-02 
-5.0814843e-01 -4.2396754e-01 -7.3389187e-02 
-5.1768309e-01 -4.3635041e-01 -7.4768171e-02 
-5.0767803e-01 -4.2616409e-01 -5.9301984e-02 
-5.1753938e-01 -4.3703023e-01 -6.8719067e-02 
-5.0944179e-01 -4.3434706e-01 6.0869288e-02 
-5.1746613e-01 -4.3755826e-01 -6.1491687e-02 
-5.1038677e-01 -4.3411633e-01 4.8274301e-02 
-4.9862501e-01 -4.2211881e-01 -1.9905640e-02 
-4.9956512e-01 -4.2800528e-01 3.8460795e-02 
-5.1106638e-01 -4.3414056e-01 3.6929518e-02 
-5.0474429e-01 -4.2618278e-01 -4.6123251e-02 
-5.1688880e-01 -4.3805981e-01 -5.4278355e-02 
-5.2603948e-01 -4.4452137e-01 -9.6685831e-03 
-5.1123428e-01 -4.3388000e-01 2.8599637e-02 
-5.1643336e-01 -4.3810141e-01 -4.6222970e-02 
-5.1155913e-01 -4.3413299e-01 2.0261876e-02 
-4.8902914e-01 -4.1739640e-01 -5.2025716e-04 
-5.1573008e-01 -4.3782666e-01 -3.7238784e-02 
-5.0393426e-01 -4.2712390e-01 -4.2490769e-02 
-4.9020013e-01 -4.2058709e-01 2.4497524e-02 
-5.1144850e-01 -4.3416408e-01 1.1553572e-02 
-5.1525104e-01 -4.3755087e-01 -2.6968965e-02 
-5.0820887e-01 -4.3194291e-01 -2.1764379e-02 
-5.1129037e-01 -4.3430233e-01 5.8407187e-03 
-5.0230408e-01 -4.2769736e-01 -2.3430101e-04 
-5.1551187e-01 -4.3744007e-01 6.0993881e-04 
-5.1966792e-01 -4.4025490e-01 1.0040423e-02 
-5.0269747e-01 -4.2784101e-01 -8.7704808e-03 
-5.1079875e-01 -4.3399605e-01 1.2721355e-03 
-4.8859149e-01 -4.1365007e-01 -4.1366797e-02 
-4.9224514e-01 -4.2163378e-01 2.7550379e-02 
-5.0356096e-01 -4.2899275e-01 -2.4843410e-02 
-4.9227205e-01 -4.2087734e-01 1.5768658e-02 
-4.8464352e-01 -4.1452760e-01 -4.5429505e-03 
-4.9312547e-01 -4.2083919e-01 -3.3892680e-02 
-4.7040552e-01 -4.0314662e-01 -9.5931562e-03 
-4.7740096e-01 -4.0358463e-01 -5.1406555e-02 
-4.7176450e-01 -4.0875486e-01 2.8504234e-02 
-4.7351107e-01 -4.1172788e-01 4.6643052e-02 
-4.8141533e-01 -4.0563980e-01 -6.6053264e-02 
-4.7560474e-01 -4.1423985e-01 6.0592469e-02 
-4.8341796e-01 -4.0772542e-01 -7.4799888e-02 
-4.7786030e-01 -4.1543317e-01 6.8136856e-02 
-4.8490915e-01 -4.0949181e-01 -8.0468282e-02 
-4.8016736e-01 -4.1604167e-01 6.7846164e-02 
-4.8602831e-01 -4.1142157e-01 -8.1730351e-02 
-4.8208839e-01 -4.1635755e-01 6.3079268e-02 
-4.8696288e-01 -4.1318938e-01 -8.0279306e-02 
-4.8353282e-01 -4.1586334e-01 5.2350182e-02 
-4.8689747e-01 -4.1446742e-01 -7.6552503e-02 
-4.8303804e-01 -4.1320419e-01 -2.0934945e-02 
-4.7611660e-01 -4.1151324e-01 3.4759101e-02 
-4.8410690e-01 -4.1554040e-01 3.9916407e-02 
-4.8667195e-01 -4.1565818e-01 -7.1107015e-02 
-4.8433107e-01 -4.1549942e-01 3.0395888e-02 
-4.8644349e-01 -4.1618940e-01 -6.5107048e-02 
-4.8440298e-01 -4.1546467e-01 2.2413377e-02 
-4.8585731e-01 -4.1659009e-01 -5.8664002e-02 
-4.6919116e-01 -4.0716770e-01 3.4839068e-02 
-4.7255960e-01 -4.0341470e-01 -4.2083692e-02 
-4.6363547e-01 -3.9929059e-01 -6.3888310e-03 
-4.8449317e-01 -4.1567656e-01 1.3891484e-02 
-4.8532328e-01 -4.1684431e-01 -5.1545069e-02 
-4.8445705e-01 -4.1589481e-01 6.6552358e-03 
-4.8432112e-01 -4.1640663e-01 -4.3544341e-02 
-4.8390925e-01 -4.1556665e-01 1.2813867e-03 
-4.8362532e-01 -4.1616273e-01 -3.4363296e-02 
-4.7547576e-01 -4.0930712e-01 -4.8135566e-03 
-4.6231690e-01 -3.9640430e-01 -3.2304771e-02 
-4.7317627e-01 -4.0647876e-01 -4.0292021e-02 
-4.5809549e-01 -3.9857867e-01 2.2487927e-02 
-4.5387486e-01 -3.9195299e-01 -9.7652320e-03 
-4.8328385e-01 -4.1520688e-01 -2.3462742e-03 
-4.8297983e-01 -4.1542551e-01 -2.4003448e-02 
-4.7114831e-01 -4.0611815e-01 1.0026030e-03 
-4.7648555e-01 -4.1043228e-01 -2.1631544e-02 
-4.8286790e-01 -4.1501582e-01 -1.8976437e-03 
-4.8301280e-01 -4.1491804e-01 -1.0969030e-02 
-4.5148566e-01 -3.9633703e-01 4.2420659e-02 
-4.6097630e-01 -4.0098041e-01 3.3036284e-02 
-4.7149521e-01 -4.0666631e-01 -1.6531056e-02 
-4.4801784e-01 -3.9133698e-01 1.7270982e-02 
-4.5367154e-01 -3.9905068e-01 6.2547728e-02 
-4.8414138e-01 -4.1582507e-01 5.4699192e-03 
-4.5457080e-01 -3.8769427e-01 -5.6829471e-02 
-4.5743117e-01 -3.8982379e-01 -6.8372346e-02 
-4.5902455e-01 -3.9863995e-01 1.9017259e-02 
-4.4656411e-01 -3.8341388e-01 -3.7797604e-02 
-4.6324778e-01 -4.0065369e-01 -3.2306042e-02 
-4.5563021e-01 -3.9401919e-01 -2.1286707e-02 
-4.5678684e-01 -3.9841789e-01 5.5846997e-02 
-4.4487211e-01 -3.9254418e-01 5.2207544e-02 
-4.5781425e-01 -3.9806810e-01 4.4030871e-02 
-4.5847940e-01 -3.9787585e-01 3.2651722e-02 
-4.4984785e-01 -3.9521566e-01 6.3926995e-02 
-4.5701149e-01 -3.9355677e-01 -7.7106133e-02 
-4.5862269e-01 -3.9777023e-01 2.4273207e-02 
-4.4494355e-01 -3.9272484e-01 6.5209538e-02 
-4.5210055e-01 -3.8680103e-01 -7.7284195e-02 
-4.5703936e-01 -3.9466032e-01 -7.2733529e-02 
-4.3562484e-01 -3.8156059e-01 7.6264506e-03 
-4.5860738e-01 -3.9783680e-01 1.6195834e-02 
-4.4247457e-01 -3.8928658e-01 3.7236400e-02 
-4.5680398e-01 -3.9554656e-01 -6.8108797e-02 
-4.3562907e-01 -3.8437942e-01 3.0385520e-02 
-4.3664548e-01 -3.8070491e-01 -6.4370497e-03 
-4.3864611e-01 -3.8454977e-01 1.3976205e-02 
-4.5861819e-01 -3.9799365e-01 8.1129866e-03 
-4.5610720e-01 -3.9588052e-01 -6.2176637e-02 
-4.5823193e-01 -3.9794070e-01 1.9592729e-03 
-4.5572847e-01 -3.9621115e-01 -5.5499554e-02 
-4.3760648e-01 -3.7924850e-01 -2.9082213e-02 
-4.5025355e-01 -3.9190093e-01 -1.7442356e-03 
-4.4623801e-01 -3.8799879e-01 -2.0521151e-02 
-4.4738391e-01 -3.8509303e-01 -7.9297498e-02 
-4.5516181e-01 -3.9630079e-01 -4.8567262e-02 
-4.5776916e-01 -3.9768898e-01 -3.1312807e-03 
-4.3882799e-01 -3.8401538e-01 1.0751446e-03 
-4.5453700e-01 -3.9600819e-01 -4.0676601e-02 
-4.3549940e-01 -3.8448411e-01 4.2594712e-02 
-4.5385379e-01 -3.9557159e-01 -3.1665612e-02 
-4.4640285e-01 -3.8942418e-01 -1.2245496e-02 
-4.3893626e-01 -3.8492998e-01 2.3344215e-02 
-4.3917844e-01 -3.8444421e-01 1.2431039e-02 
-4.5295396e-01 -3.9455688e-01 -5.2944920e-03 
-4.3098354e-01 -3.7142774e-01 -6.0471982e-02 
-4.2717773e-01 -3.8079849e-01 5.9266951e-02 
-4.3398705e-01 -3.7367028e-01 -7.1026988e-02 
-4.2313334e-01 -3.7686694e-01 4.1094787e-02 
-4.2307782e-01 -3.7265372e-01 3.0525634e-03 
-4.1964132e-01 -3.7204751e-01 1.7416587e-02 
-4.2478368e-01 -3.6790904e-01 -4.4408049e-02 
-4.3263066e-01 -3.8115582e-01 4.7912028e-02 
-4.4073883e-01 -3.8600770e-01 -2.2169549e-02 
-4.5102566e-01 -3.9293632e-01 1.1132939e-03 
-4.3557265e-01 -3.8125461e-01 -3.9223041e-02 
-4.3365887e-01 -3.8073212e-01 2.5354253e-02 
-4.4403341e-01 -3.8848889e-01 -1.7940700e-02 
-4.2626268e-01 -3.7806883e-01 5.6807663e-02 
-4.2839891e-01 -3.7736851e-01 3.5259444e-02 
-4.3366012e-01 -3.8100162e-01 9.4025275e-03 
-4.3118927e-01 -3.7826002e-01 -6.5223508e-02 
-4.1977054e-01 -3.6664733e-01 -4.1688897e-02 
-4.0711379e-01 -3.5985062e-01 -8.1435051e-03 
-4.1207707e-01 -3.7012151e-01 5.0210174e-02 
-4.3493673e-01 -3.8174009e-01 -3.0528703e-03 
-4.2304465e-01 -3.7028816e-01 -4.2829569e-02 
-4.2908770e-01 -3.7745088e-01 1.8139869e-02 
-4.2805964e-01 -3.7532035e-01 -6.9126241e-02 
-4.1418397e-01 -3.6935493e-01 3.1224295e-02 
-4.1073573e-01 -3.6545709e-01 1.4099767e-02 
-4.0867352e-01 -3.6056158e-01 -1.3232744e-02 
-4.0741956e-01 -3.6524716e-01 2.9550822e-02 
-4.1404071e-01 -3.7152827e-01 6.1829649e-02 
-4.2103139e-01 -3.6539108e-01 -7.4589089e-02 
-4.1194484e-01 -3.6228812e-01 -2.3677684e-02 
-4.2312208e-01 -3.6969063e-01 -7.6992840e-02 
-4.2936155e-01 -3.7759733e-01 2.6180381e-03 
-4.2312223e-01 -3.7057564e-01 -7.4427195e-02 
-4.2246813e-01 -3.7276155e-01 -3.0328864e-02 
-4.1279012e-01 -3.6680245e-01 1.8197713e-02 
-4.2635903e-01 -3.7646830e-01 -4.5346361e-02 
-4.1106349e-01 -3.5782060e-01 -6.5406993e-02 
-4.2201358e-01 -3.7273291e-01 -5.9425604e-02 
-4.2789558e-01 -3.7712348e-01 -7.3083653e-03 
-4.0162081e-01 -3.5302049e-01 -3.1833388e-02 
-4.1589236e-01 -3.6725157e-01 -3.7162915e-02 
-4.0532514e-01 -3.5387444e-01 -5.1524661e-02 
-4.2169136e-01 -3.7286726e-01 -5.3015087e-02 
-3.9950591e-01 -3.5874015e-01 2.3348991e-02 
-3.9998591e-01 -3.6200413e-01 5.6853276e-02 
-4.2074087e-01 -3.7279701e-01 -3.8279280e-02 
-3.9632177e-01 -3.5854053e-01 3.9942130e-02 
-4.0348938e-01 -3.6100787e-01 2.4388373e-02 
-4.1531557e-01 -3.6815882e-01 -1.5022639e-02 
-3.9302313e-01 -3.5383376e-01 1.7713351e-02 
-4.0952238e-01 -3.6177003e-01 -4.2281095e-02 
-4.1142049e-01 -3.6489072e-01 -5.9357835e-03 
-3.9601561e-01 -3.5420701e-01 4.0534749e-03 
-4.0152439e-01 -3.5716891e-01 -6.3579637e-03 
-4.0872341e-01 -3.5801527e-01 -7.5601891e-02 
-4.0730983e-01 -3.6296460e-01 1.8083956e-02 
-4.2030743e-01 -3.7244874e-01 -2.9294064e-02 
-4.0371373e-01 -3.5643330e-01 -4.1396849e-02 
-4.0246797e-01 -3.6212257e-01 5.8639929e-02 
-4.2020071e-01 -3.7181339e-01 -2.7349426e-03 
-4.0736300e-01 -3.6159313e-01 -4.6579402e-02 
-3.8584429e-01 -3.5203734e-01 4.8739947e-02 
-3.9612579e-01 -3.5183382e-01 -4.1884229e-02 
-3.8775870e-01 -3.5116121e-01 3.0574776e-02 
-3.9635235e-01 -3.5609305e-01 4.4032499e-02 
-3.8139835e-01 -3.4706858e-01 2.8981861e-02 
-3.8202968e-01 -3.4326175e-01 -4.3950481e-03 
-3.7904039e-01 -3.4268349e-01 8.0197984e-03 
-3.8540888e-01 -3.4263366e-01 -3.1305615e-02 
-3.9244771e-01 -3.5266370e-01 1.9580035e-02 
-3.9850438e-01 -3.5628527e-01 2.0729700e-02 
-4.0435034e-01 -3.6082616e-01 -6.1481879e-03 
-4.0700224e-01 -3.6286765e-01 -1.9517120e-02 
-3.9136213e-01 -3.4505475e-01 -7.1854576e-02 
-3.8501599e-01 -3.5114333e-01 5.8916260e-02 
-4.0109557e-01 -3.5821471e-01 3.7155668e-03 
-3.7928662e-01 -3.3824086e-01 -2.4631046e-02 
-3.8080445e-01 -3.3769205e-01 -4.0996943e-02 
-3.9315367e-01 -3.4884590e-01 -7.4235991e-02 
-3.8434562e-01 -3.3925438e-01 -5.5861712e-02 
-3.9550379e-01 -3.5299999e-01 -6.5989740e-02 
-4.0425867e-01 -3.6074904e-01 -9.4189551e-03 
-3.9069244e-01 -3.4902003e-01 -5.1541667e-02 
-3.8832432e-01 -3.4876537e-01 -5.3553991e-03 
-3.7459621e-01 -3.4411588e-01 5.4690115e-02 
-3.7382069e-01 -3.4079987e-01 2.3436183e-02 
-3.7082928e-01 -3.4076247e-01 3.9124005e-02 
-3.6779949e-01 -3.3625561e-01 1.7346857e-02 
-3.8959605e-01 -3.5100335e-01 -4.5262486e-02 
-3.7375057e-01 -3.3575532e-01 -2.9868441e-02 
-3.9105022e-01 -3.5216194e-01 -3.3595871e-02 
-3.7380987e-01 -3.4237999e-01 5.6168579e-02 
-3.7859753e-01 -3.3733484e-01 -7.3211722e-02 
-3.7458700e-01 -3.3610660e-01 -4.1947562e-02 
-3.8003731e-01 -3.4289473e-01 -2.6210986e-02 
-3.6237517e-01 -3.2906798e-01 -6.5512629e-03 
-3.8183114e-01 -3.4433419e-01 -3.8865402e-02 
-3.7009621e-01 -3.3852628e-01 3.0186580e-02 
-3.9182761e-01 -3.5188550e-01 -6.0687931e-03 
-3.8255790e-01 -3.4532985e-01 -5.6297109e-02 
-3.7307832e-01 -3.3661106e-01 -3.4463696e-02 
-3.6065710e-01 -3.2867455e-01 -2.5232311e-03 
-3.6091202e-01 -3.3427325e-01 4.6734113e-02 
-3.5774973e-01 -3.3075893e-01 2.8567219e-02 
-3.6274323e-01 -3.3354762e-01 2.9404476e-02 
-3.6317745e-01 -3.3030194e-01 -8.3224643e-03 
-3.5988334e-01 -3.3039176e-01 1.4540802e-02 
-3.6412340e-01 -3.3177516e-01 -3.8674925e-03 
-3.6132592e-01 -3.2340318e-01 -4.7316778e-02 
-3.5672909e-01 -3.2165018e-01 -3.1720378e-02 
-3.6428106e-01 -3.2551050e-01 -6.0387470e-02 
-3.6542535e-01 -3.3410037e-01 2.0166177e-02 
-3.5108766e-01 -3.2101932e-01 -6.6749584e-03 
-3.7838149e-01 -3.4288231e-01 -1.1654953e-02 
-3.6355326e-01 -3.2559848e-01 -6.8476133e-02 
-3.5767099e-01 -3.3212209e-01 5.6239057e-02 
-3.7763351e-01 -3.4261143e-01 -2.1315619e-02 
-3.6299467e-01 -3.3291882e-01 4.5219395e-02 
-3.6118314e-01 -3.2738188e-01 -4.2353597e-02 
-3.6361101e-01 -3.2774869e-01 -7.2197139e-02 
-3.4980470e-01 -3.1911600e-01 -1.7584825e-02 
-3.5033751e-01 -3.2714909e-01 5.2449245e-02 
-3.4961554e-01 -3.2400072e-01 2.2498228e-02 
-3.4681261e-01 -3.2394865e-01 3.7687313e-02 
-3.4371865e-01 -3.1940836e-01 1.7751385e-02 
-3.6605376e-01 -3.3414340e-01 -8.8451821e-03 
-3.4832644e-01 -3.1728172e-01 -3.3114132e-02 
-3.6448142e-01 -3.3381644e-01 -3.5200100e-02 
-3.4713072e-01 -3.2370600e-01 5.3329766e-02 
-3.5163736e-01 -3.1812733e-01 -7.0584655e-02 
-3.5051996e-01 -3.2289758e-01 1.0090382e-02 
-3.4615877e-01 -3.1569871e-01 -3.9901409e-02 
-3.6493275e-01 -3.3328524e-01 -9.1515081e-03 
-3.4624788e-01 -3.1286141e-01 -6.0857192e-02 
-3.5126439e-01 -3.2370663e-01 2.6048196e-02 
-3.3824021e-01 -3.0820110e-01 -3.7121575e-02 
-3.3748919e-01 -3.1806543e-01 4.5314968e-02 
-3.4166384e-01 -3.0953714e-01 -5.0992761e-02 
-3.3931050e-01 -3.1716108e-01 2.8942142e-02 
-3.3407930e-01 -3.1391546e-01 2.7933417e-02 
-3.5137022e-01 -3.2357150e-01 -3.9593601e-03 
-3.3989295e-01 -3.1463340e-01 -2.9614107e-03 
-3.4786081e-01 -3.1853643e-01 -4.2525891e-02 
-3.5031834e-01 -3.1983745e-01 -6.9186203e-02 
-3.5375741e-01 -3.2513618e-01 1.2530416e-03 
-3.3269203e-01 -3.0582136e-01 -2.1513246e-02 
-3.3247638e-01 -3.0847868e-01 -3.6494972e-03 
-3.2866237e-01 -3.0739108e-01 8.3478391e-03 
-3.3727205e-01 -3.1476191e-01 2.2610448e-02 
-3.4364140e-01 -3.1671524e-01 -3.2255966e-02 
-3.4696007e-01 -3.1970581e-01 -6.1403133e-02 
-3.3903188e-01 -3.1669074e-01 4.4826340e-02 
-3.5261762e-01 -3.2480323e-01 -1.3582171e-02 
-3.5181403e-01 -3.2450226e-01 -2.3637107e-02 
-3.3772826e-01 -3.0743736e-01 -6.5068811e-02 
-3.3194184e-01 -3.1402016e-01 5.3930625e-02 
-3.3555353e-01 -3.1311822e-01 1.9672954e-02 
-3.3551082e-01 -3.0848366e-01 -4.1231066e-02 
-3.4002182e-01 -3.1108829e-01 -7.0306137e-02 
-3.2763353e-01 -3.1129849e-01 5.0398372e-02 
-3.2682055e-01 -3.0782723e-01 2.2205938e-02 
-3.2413647e-01 -3.0791014e-01 3.6758151e-02 
-3.2340944e-01 -3.0338219e-01 4.8902212e-03 
-3.1894088e-01 -3.0181178e-01 1.6135193e-02 
-3.4347856e-01 -3.1800082e-01 -1.0770436e-02 
-3.2298616e-01 -2.9896533e-01 -3.1360757e-02 
-3.2186341e-01 -3.0056807e-01 -1.2041950e-02 
-3.1848976e-01 -2.9473829e-01 -2.9638745e-02 
-3.2070383e-01 -2.9511413e-01 -4.2845126e-02 
-3.1415743e-01 -2.9503208e-01 -6.3321195e-03 
-3.2360950e-01 -2.9692218e-01 -5.5896584e-02 
-3.2223213e-01 -3.0599940e-01 5.0680976e-02 
-3.2660684e-01 -3.0021021e-01 -6.7911416e-02 
-3.3696353e-01 -3.1400132e-01 -3.5309069e-02 
-3.1516898e-01 -3.0215085e-01 4.3697074e-02 
-3.3968961e-01 -3.1544915e-01 -1.2008869e-02 
-3.1197158e-01 -2.9830080e-01 2.7139062e-02 
-3.1429005e-01 -2.9814544e-01 1.4432677e-02 
-3.1711778e-01 -3.0160406e-01 3.0768730e-02 
-3.2365325e-01 -3.0324891e-01 -1.0472298e-02 
-3.2921770e-01 -3.0750644e-01 -3.1127200e-02 
-3.2337078e-01 -3.0046755e-01 -4.2821459e-02 
-3.1714347e-01 -2.9856363e-01 -2.6214772e-03 
-3.1117392e-01 -2.9183060e-01 -1.6193323e-02 
-3.2338503e-01 -3.0119473e-01 -4.9661066e-02 
-3.2665494e-01 -3.0653498e-01 -4.8514169e-02 
-3.0154893e-01 -2.8611898e-01 -5.0436938e-03 
-3.2809079e-01 -3.0724379e-01 -1.5303127e-02 
-3.2734060e-01 -3.0699268e-01 -2.5724230e-02 
-3.0609074e-01 -2.9582870e-01 4.8685029e-02 
-3.0263853e-01 -2.9264465e-01 3.5457026e-02 
-3.0585709e-01 -2.9342863e-01 2.5823610e-02 
-3.1333324e-01 -2.8981045e-01 -6.2887378e-02 
-3.0773008e-01 -2.9680359e-01 5.1302373e-02 
-3.1277409e-01 -2.9748717e-01 4.0729355e-02 
-3.1533310e-01 -2.9355627e-01 -6.7972079e-02 
-3.1134799e-01 -2.9123929e-01 -4.0421117e-02 
-2.9732290e-01 -2.8652582e-01 1.6537145e-02 
-2.9986307e-01 -2.8119329e-01 -3.2882713e-02 
-3.0303922e-01 -2.8249601e-01 -4.6957370e-02 
-3.0534586e-01 -2.8372902e-01 -5.6402396e-02 
-3.0672336e-01 -2.9268759e-01 2.1612987e-02 
-3.1685674e-01 -2.9895756e-01 -1.1024753e-02 
-3.1727612e-01 -2.9998946e-01 -3.6297273e-02 
-2.9245955e-01 -2.7967349e-01 -5.5174385e-03 
-3.0738571e-01 -2.9127249e-01 -2.2941183e-02 
-2.9430914e-01 -2.8731340e-01 4.2233791e-02 
-2.9863662e-01 -2.8740069e-01 1.9931473e-02 
-2.9117405e-01 -2.8364119e-01 2.7008275e-02 
-3.0021748e-01 -2.8291732e-01 -3.7315380e-02 
-2.9355663e-01 -2.8357103e-01 1.5094869e-02 
-3.0768844e-01 -2.9222462e-01 -1.3167599e-02 
-2.9600212e-01 -2.8305578e-01 -3.5693438e-03 
-3.1577870e-01 -2.9839316e-01 -1.4448851e-02 
-2.9909715e-01 -2.8921559e-01 4.8448946e-02 
-3.0265853e-01 -2.8324434e-01 -6.5410100e-02 
-2.9154700e-01 -2.7759540e-01 -1.7443804e-02 
-2.9723606e-01 -2.8418678e-01 -6.1835521e-03 
-2.8928623e-01 -2.7904925e-01 3.9907028e-03 
-3.0361146e-01 -2.8701857e-01 -6.5534398e-02 
-2.9486382e-01 -2.8483072e-01 2.3728859e-02 
-3.0559793e-01 -2.9068485e-01 -1.1091585e-03 
-3.0324396e-01 -2.8909761e-01 -5.7964064e-02 
-2.8945839e-01 -2.7562261e-01 -2.3923883e-02 
-2.8083381e-01 -2.7354762e-01 9.3498379e-03 
-2.8631905e-01 -2.8163895e-01 4.7228608e-02 
-2.8254855e-01 -2.7837476e-01 3.4802735e-02 
-2.8499672e-01 -2.7815071e-01 2.1596247e-02 
-2.8013834e-01 -2.7429873e-01 1.7515423e-02 
-3.0465633e-01 -2.9060361e-01 -1.6894929e-02 
-3.0394110e-01 -2.9039168e-01 -2.7640596e-02 
-2.9501769e-01 -2.7877164e-01 -6.6513442e-02 
-2.8019005e-01 -2.6834443e-01 -2.1071751e-02 
-2.8375477e-01 -2.6892117e-01 -3.8488049e-02 
-2.8988314e-01 -2.7335888e-01 -5.9660215e-02 
-2.8502974e-01 -2.8018826e-01 4.9368065e-02 
-2.8635123e-01 -2.7046034e-01 -4.9721949e-02 
-2.8968120e-01 -2.7631101e-01 -4.0692676e-02 
-2.8955999e-01 -2.8121164e-01 3.9536532e-02 
-2.7763808e-01 -2.7008906e-01 8.9662446e-04 
-2.9228425e-01 -2.8141600e-01 2.1548117e-02 
-2.9620183e-01 -2.8423935e-01 -1.2720174e-02 
-2.7961585e-01 -2.7465641e-01 2.8055573e-02 
-2.9301152e-01 -2.8201884e-01 -2.7436731e-02 
-2.7452508e-01 -2.7294913e-01 4.1059192e-02 
-2.8172472e-01 -2.7433658e-01 1.3298188e-02 
-2.7137086e-01 -2.6922676e-01 2.6537238e-02 
-2.9256588e-01 -2.8238824e-01 -3.9556749e-02 
-2.7314079e-01 -2.6439753e-01 -1.6267251e-02 
-2.6808137e-01 -2.6460910e-01 1.1120372e-02 
-2.7035999e-01 -2.6571324e-01 6.8197972e-03 
-2.9300559e-01 -2.8210330e-01 -1.6751712e-02 
-2.7620792e-01 -2.7279475e-01 4.6571501e-02 
-2.8034082e-01 -2.7287066e-01 6.4086090e-03 
-2.8041440e-01 -2.6741958e-01 -6.2962458e-02 
-2.7694434e-01 -2.6665425e-01 -3.7428480e-02 
-2.7315986e-01 -2.6363626e-01 -2.7856214e-02 
-2.7945203e-01 -2.6988551e-01 -4.0510755e-02 
-2.6338252e-01 -2.6217595e-01 1.7240399e-02 
-2.6689976e-01 -2.6753893e-01 4.5493267e-02 
-2.6927784e-01 -2.6450098e-01 2.1304539e-03 
-2.6258680e-01 -2.5906378e-01 6.4823159e-04 
-2.6515022e-01 -2.5632754e-01 -2.8663261e-02 
-2.6320577e-01 -2.6416519e-01 3.4119979e-02 
-2.8164953e-01 -2.7435562e-01 -4.9659412e-02 
-2.6794502e-01 -2.5744241e-01 -4.2390700e-02 
-2.6914051e-01 -2.6632315e-01 2.4705969e-02 
-2.7006337e-01 -2.5894597e-01 -5.1478002e-02 
-2.8255263e-01 -2.7457386e-01 -1.8267354e-02 
-2.7511302e-01 -2.6851141e-01 -1.8533863e-02 
-2.5784358e-01 -2.5477821e-01 -3.4707771e-03 
-2.8185201e-01 -2.7441654e-01 -2.9258382e-02 
-2.6835483e-01 -2.6297477e-01 -1.1678406e-02 
-2.6829159e-01 -2.5767988e-01 -5.7072438e-02 
-2.6361561e-01 -2.6486748e-01 4.7245041e-02 
-2.6806885e-01 -2.6535562e-01 3.7356041e-02 
-2.7089104e-01 -2.6147699e-01 -6.4824685e-02 
-2.5995064e-01 -2.6030660e-01 2.7565595e-02 
-2.5578201e-01 -2.5922236e-01 3.9973259e-02 
-2.5144589e-01 -2.5238317e-01 1.0786568e-02 
-2.7336362e-01 -2.6855922e-01 -3.9083064e-02 
-2.7253613e-01 -2.6725191e-01 -1.2929115e-02 
-2.5542063e-01 -2.5626805e-01 1.8208798e-02 
-2.5604519e-01 -2.5140810e-01 -2.2076594e-02 
-2.5361535e-01 -2.5068069e-01 -1.2420379e-02 
-2.5765795e-01 -2.5298709e-01 -2.5564963e-02 
-2.7164325e-01 -2.6652786e-01 -1.8840911e-02 
-2.4721099e-01 -2.5077584e-01 2.0535929e-02 
-2.5354263e-01 -2.5294623e-01 9.4766071e-04 
-2.5556025e-01 -2.5777522e-01 4.4086445e-02 
-2.5955194e-01 -2.5172371e-01 -6.0680766e-02 
-2.5599566e-01 -2.5118041e-01 -3.6034167e-02 
-2.5054333e-01 -2.4497837e-01 -3.4378320e-02 
-2.5758895e-01 -2.5295386e-01 -4.0107884e-02 
-2.5325400e-01 -2.4650580e-01 -4.5073431e-02 
-2.5917894e-01 -2.5768137e-01 2.0395447e-02 
-2.6078236e-01 -2.5601304e-01 -6.3862950e-02 
-2.6438761e-01 -2.6163739e-01 -3.4048382e-02 
-2.6237226e-01 -2.5950804e-01 -2.3340918e-03 
-2.4838477e-01 -2.5379500e-01 4.3950766e-02 
-2.4815896e-01 -2.5154155e-01 2.4225520e-02 
-2.6153710e-01 -2.5821292e-01 -5.8195207e-02 
-2.4529423e-01 -2.4268951e-01 -2.0570002e-02 
-2.4387459e-01 -2.4494006e-01 -1.1624653e-03 
-2.4413159e-01 -2.4995360e-01 3.2475181e-02 
-2.4047104e-01 -2.4331515e-01 5.6545096e-03 
-2.5264472e-01 -2.5130135e-01 -1.4995804e-02 
-2.5464797e-01 -2.5105065e-01 -4.8826601e-02 
-2.6191142e-01 -2.5953048e-01 -1.9683575e-02 
-2.6121366e-01 -2.5941849e-01 -3.0841071e-02 
-2.4221957e-01 -2.4252228e-01 -1.1279253e-02 
-2.3970266e-01 -2.4379192e-01 1.0918241e-02 
-2.5066617e-01 -2.5101283e-01 9.4024437e-03 
-2.5263643e-01 -2.5112322e-01 -2.8072257e-02 
-2.4993551e-01 -2.5209323e-01 3.7431419e-02 
-2.5267068e-01 -2.4769491e-01 -6.2398884e-02 
-2.4077705e-01 -2.4499451e-01 1.4787877e-02 
-2.4819462e-01 -2.4284306e-01 -5.4680742e-02 
-2.4330658e-01 -2.4984454e-01 4.5434363e-02 
-2.4642955e-01 -2.4897197e-01 1.7813334e-02 
-2.3437469e-01 -2.4002938e-01 1.2391626e-02 
-2.3783880e-01 -2.4585943e-01 3.8920339e-02 
-2.4107334e-01 -2.4019524e-01 -2.5741514e-02 
-2.5468388e-01 -2.5381720e-01 -1.4918430e-02 
-2.4010733e-01 -2.4478769e-01 1.8245712e-02 
-2.4186864e-01 -2.4295847e-01 -1.4724158e-02 
-2.3253287e-01 -2.4072199e-01 2.6301781e-02 
-2.5126380e-01 -2.5225765e-01 -4.1513059e-02 
-2.3435138e-01 -2.3369658e-01 -2.6742900e-02 
-2.3099908e-01 -2.3480567e-01 -3.4226833e-03 
-2.3641188e-01 -2.3437664e-01 -3.8167827e-02 
-2.3874140e-01 -2.3561399e-01 -4.7271620e-02 
-2.5153726e-01 -2.5186321e-01 -2.0752300e-02 
-2.4481127e-01 -2.4645987e-01 -1.3458667e-02 
-2.3633289e-01 -2.3634399e-01 -3.2783564e-02 
-2.3603249e-01 -2.4312197e-01 4.2311832e-02 
-2.3973326e-01 -2.3722829e-01 -5.8354404e-02 
-2.2653881e-01 -2.3528494e-01 1.8978111e-02 
-2.3113081e-01 -2.4098557e-01 4.2738251e-02 
-2.2776160e-01 -2.3307562e-01 -7.4253493e-04 
-2.2793517e-01 -2.3797579e-01 3.2426257e-02 
-2.3057045e-01 -2.3848598e-01 2.3984447e-02 
-2.3036039e-01 -2.3468374e-01 -5.8097509e-03 
-2.2694330e-01 -2.3439069e-01 1.1400897e-02 
-2.4162805e-01 -2.4449587e-01 -5.0449461e-02 
-2.4241151e-01 -2.4503903e-01 -2.0709148e-02 
-2.2721291e-01 -2.3350549e-01 2.4423758e-03 
-2.4176745e-01 -2.4494758e-01 -3.2074299e-02 
-2.2558831e-01 -2.2894017e-01 -1.9882185e-02 
-2.1961652e-01 -2.2641349e-01 -1.7480911e-03 
-2.2452748e-01 -2.3549734e-01 4.3741401e-02 
-2.2900197e-01 -2.2864439e-01 -5.1699363e-02 
-2.2124639e-01 -2.3334196e-01 3.7832320e-02 
-2.1733455e-01 -2.2712876e-01 1.2024834e-02 
-2.2374322e-01 -2.3338096e-01 2.6641361e-02 
-2.2106257e-01 -2.3093547e-01 1.9185444e-02 
-2.1830018e-01 -2.2994262e-01 2.5254624e-02 
-2.2890750e-01 -2.3631027e-01 3.3933800e-02 
-2.3133071e-01 -2.3213264e-01 -6.0642339e-02 
-2.2730680e-01 -2.2993194e-01 -3.6018647e-02 
-2.2067967e-01 -2.2302663e-01 -3.0291030e-02 
-2.2332028e-01 -2.2429416e-01 -4.1005105e-02 
-2.3432440e-01 -2.3949383e-01 -4.0829111e-02 
-2.3368633e-01 -2.3813516e-01 -1.4317084e-02 
-2.1984802e-01 -2.2986618e-01 2.3490721e-02 
-2.3275137e-01 -2.3775336e-01 -2.2422666e-02 
-2.2583863e-01 -2.3152612e-01 -4.0331993e-02 
-2.1476625e-01 -2.2849846e-01 4.1354459e-02 
-2.1153045e-01 -2.2563905e-01 3.1626582e-02 
-2.1107893e-01 -2.2048493e-01 7.7353138e-04 
-2.0923387e-01 -2.2196287e-01 1.7763870e-02 
-2.1140014e-01 -2.2238398e-01 9.5432559e-03 
-2.1782692e-01 -2.2938287e-01 4.0678971e-02 
-2.2120766e-01 -2.2338504e-01 -5.5592641e-02 
-2.2512974e-01 -2.3163158e-01 -2.9931396e-02 
-2.2656213e-01 -2.3329499e-01 -3.2117162e-02 
-2.2500062e-01 -2.3138997e-01 -3.5099427e-03 
-2.1958104e-01 -2.2526565e-01 -3.4919649e-02 
-2.2223128e-01 -2.2680926e-01 -6.1177943e-02 
-2.2068302e-01 -2.2732951e-01 -2.3924744e-02 
-2.2413000e-01 -2.3046486e-01 -5.6909852e-02 
-2.1814394e-01 -2.2678915e-01 7.3198234e-03 
-2.1230474e-01 -2.1855390e-01 -2.3535391e-02 
-2.2427422e-01 -2.3131736e-01 -2.1724179e-02 
-2.2364210e-01 -2.3127769e-01 -3.3194408e-02 
-2.0903763e-01 -2.1921137e-01 -5.6664832e-04 
-2.1315669e-01 -2.2365932e-01 1.4361500e-02 
-2.0557272e-01 -2.1256416e-01 -2.0787375e-02 
-2.0542006e-01 -2.2135136e-01 3.6751416e-02 
-2.0804527e-01 -2.1320586e-01 -3.4128781e-02 
-2.0282502e-01 -2.1817242e-01 2.5120288e-02 
-2.1517619e-01 -2.1955319e-01 -5.8243990e-02 
-2.1011499e-01 -2.1445474e-01 -4.3198470e-02 
-2.0707650e-01 -2.2086477e-01 2.6134202e-02 
-2.0088609e-01 -2.1417984e-01 1.0047128e-02 
-2.0697753e-01 -2.2212285e-01 4.1977804e-02 
-2.1102163e-01 -2.1529013e-01 -4.9512152e-02 
-2.1134624e-01 -2.2295165e-01 3.2111231e-02 
-2.1366942e-01 -2.2327317e-01 1.7430106e-02 
-2.0968048e-01 -2.1656859e-01 -3.4875859e-02 
-2.1790181e-01 -2.2611216e-01 -1.6235016e-02 
-2.0592016e-01 -2.1741199e-01 4.2801998e-03 
-2.1493985e-01 -2.2480094e-01 -4.2807896e-02 
-2.0906056e-01 -2.1689905e-01 -4.4969376e-02 
-1.9733661e-01 -2.0957552e-01 -1.3312554e-03 
-2.0273831e-01 -2.1719380e-01 2.7794965e-02 
-2.1509345e-01 -2.2442147e-01 -2.3843940e-02 
-1.9950347e-01 -2.1670395e-01 3.9659001e-02 
-2.0267600e-01 -2.1113788e-01 -2.9314360e-02 
-1.9669208e-01 -2.1418776e-01 3.1165872e-02 
-1.9839951e-01 -2.1387592e-01 2.0851223e-02 
-1.9436795e-01 -2.1058096e-01 1.7915910e-02 
-1.9656815e-01 -2.1097302e-01 1.0125381e-02 
-1.9824584e-01 -2.0824067e-01 -1.7878138e-02 
-2.0053734e-01 -2.1600385e-01 3.8626336e-02 
-2.0379996e-01 -2.1022835e-01 -5.3406939e-02 
-1.9723931e-01 -2.1056882e-01 2.2203664e-03 
-2.0375213e-01 -2.1505767e-01 -1.2333706e-02 
-2.0646165e-01 -2.1783946e-01 -5.1001601e-02 
-1.9362454e-01 -2.0283608e-01 -2.6525889e-02 
-1.9601278e-01 -2.0388371e-01 -3.6938064e-02 
-2.0713075e-01 -2.1821031e-01 -2.2401500e-02 
-1.9330439e-01 -2.0659588e-01 -4.2602480e-03 
-2.0651621e-01 -2.1819659e-01 -3.4107722e-02 
-1.9084704e-01 -2.0985274e-01 3.5860717e-02 
-1.8824117e-01 -2.0686321e-01 2.4993738e-02 
-1.9726613e-01 -2.0861802e-01 -2.2669537e-02 
-2.0051593e-01 -2.1156412e-01 -4.5718580e-02 
-1.8613040e-01 -2.0295753e-01 1.0600483e-02 
-1.8612264e-01 -2.0098026e-01 -7.5428477e-05 
-1.9044808e-01 -2.0930851e-01 4.0305063e-02 
-1.9400406e-01 -2.0232362e-01 -4.6681628e-02 
-1.9447418e-01 -2.0988123e-01 3.0694911e-02 
-1.9650589e-01 -2.0535271e-01 -5.6665536e-02 
-1.9869922e-01 -2.1126418e-01 -1.7681578e-02 
-1.9288608e-01 -2.0350927e-01 -3.3834290e-02 
-1.9994685e-01 -2.1331045e-01 -4.2215355e-02 
-1.9946979e-01 -2.1208587e-01 -1.5385482e-02 
-1.9341759e-01 -2.0682631e-01 -1.4767702e-02 
-1.8303806e-01 -1.9857740e-01 -1.4950670e-03 
-1.8372165e-01 -2.0163479e-01 1.4570367e-02 
-1.8497297e-01 -1.9837365e-01 -1.3581071e-02 
-1.8528794e-01 -2.0558250e-01 3.8595427e-02 
-1.8641277e-01 -1.9868983e-01 -2.1558722e-02 
-1.8245192e-01 -2.0286246e-01 3.0584952e-02 
-1.8469431e-01 -2.0329891e-01 2.2900261e-02 
-1.9845223e-01 -2.1152608e-01 -2.5100930e-02 
-1.8364814e-01 -2.0235324e-01 2.4683561e-02 
-1.7778271e-01 -1.9735900e-01 1.6918469e-02 
-1.9305040e-01 -2.0727195e-01 -3.0582298e-02 
-1.8027692e-01 -1.9306478e-01 -1.9809077e-02 
-1.8255562e-01 -1.9369715e-01 -3.0037656e-02 
-1.8489973e-01 -2.0366676e-01 3.7281342e-02 
-1.8450084e-01 -1.9487992e-01 -3.9039612e-02 
-1.8766940e-01 -1.9755642e-01 -5.1000472e-02 
-1.9181356e-01 -2.0592114e-01 -4.6159206e-03 
-1.7714377e-01 -1.9796157e-01 2.3368943e-02 
-1.9074254e-01 -2.0472769e-01 -5.6290183e-02 
-1.8676999e-01 -1.9981232e-01 -3.3846416e-02 
-1.8921255e-01 -2.0123601e-01 -5.7832886e-02 
-1.7697871e-01 -1.9892666e-01 3.4789402e-02 
-1.7334281e-01 -1.9244210e-01 8.8133831e-03 
-1.9102566e-01 -2.0562637e-01 -2.3109237e-02 
-1.9032019e-01 -2.0571078e-01 -3.5049506e-02 
-1.7456260e-01 -1.9352640e-01 9.0286229e-03 
-1.7788732e-01 -1.9751044e-01 2.6341250e-02 
-1.7337722e-01 -1.8956150e-01 -9.4473297e-03 
-1.7944367e-01 -1.9703557e-01 6.2325713e-03 
-1.8260272e-01 -1.9406763e-01 -5.4271117e-02 
-1.7687213e-01 -1.9503534e-01 6.7310645e-03 
-1.7510355e-01 -1.9719569e-01 3.8644087e-02 
-1.7885865e-01 -1.9034024e-01 -4.4464074e-02 
-1.7380512e-01 -1.8914548e-01 -1.6121583e-02 
-1.8530321e-01 -2.0088966e-01 -1.7326567e-02 
-1.7904763e-01 -1.9769242e-01 2.9182239e-02 
-1.7755204e-01 -1.9143139e-01 -3.2919139e-02 
-1.7272373e-01 -1.9061375e-01 -1.6884293e-03 
-1.8036418e-01 -1.9739790e-01 1.5704541e-02 
-1.6986887e-01 -1.8586922e-01 -1.2076809e-02 
-1.7161556e-01 -1.9474739e-01 3.7358284e-02 
-1.8148461e-01 -1.9801685e-01 -1.9020000e-02 
-1.8266894e-01 -1.9973457e-01 -4.3669861e-02 
-1.6777109e-01 -1.9114049e-01 2.8489888e-02 
-1.7900059e-01 -1.9594574e-01 -1.7002948e-02 
-1.6974355e-01 -1.8421632e-01 -2.2937477e-02 
-1.8267830e-01 -1.9929020e-01 -2.6272507e-02 
-1.7806931e-01 -1.9451448e-01 -2.3756417e-02 
-1.7177857e-01 -1.8495370e-01 -3.2941204e-02 
-1.6511256e-01 -1.8771033e-01 1.9870829e-02 
-1.7205152e-01 -1.8620645e-01 -3.1724826e-02 
-1.6719675e-01 -1.8910213e-01 1.9455420e-02 
-1.6357911e-01 -1.8526267e-01 1.2066702e-02 
-1.6835676e-01 -1.9025232e-01 2.3820642e-02 
-1.6988677e-01 -1.9168949e-01 3.5447709e-02 
-1.7249462e-01 -1.8571039e-01 -4.8915096e-02 
-1.6782019e-01 -1.8604541e-01 -1.0620624e-02 
-1.6400455e-01 -1.8847711e-01 3.3985477e-02 
-1.6226809e-01 -1.8314593e-01 5.8262269e-03 
-1.7541485e-01 -1.9365595e-01 -5.0539359e-02 
-1.6839106e-01 -1.8614018e-01 -1.8576449e-02 
-1.7576012e-01 -1.9371168e-01 -2.3827227e-02 
-1.7520328e-01 -1.9376706e-01 -3.5636418e-02 
-1.6948855e-01 -1.8636638e-01 -3.5118230e-02 
-1.6304535e-01 -1.8022694e-01 -1.9393610e-02 
-1.5701082e-01 -1.7784184e-01 1.3644499e-03 
-1.6110873e-01 -1.8212493e-01 3.6007103e-03 
-1.6283937e-01 -1.8442820e-01 1.3938507e-02 
-1.6071242e-01 -1.8544775e-01 3.6740761e-02 
-1.6393076e-01 -1.7865342e-01 -4.1832298e-02 
-1.5902989e-01 -1.8428177e-01 3.5784539e-02 
-1.6432203e-01 -1.8574193e-01 2.8089706e-02 
-1.6611008e-01 -1.8131760e-01 -5.2814823e-02 
-1.5737779e-01 -1.7521340e-01 -1.5287667e-02 
-1.5653574e-01 -1.8203340e-01 2.9460458e-02 
-1.5868282e-01 -1.8243034e-01 2.3267021e-02 
-1.5966347e-01 -1.7571244e-01 -2.6486117e-02 
-1.6269597e-01 -1.7951897e-01 -3.1435870e-02 
-1.5430975e-01 -1.7830667e-01 1.5526121e-02 
-1.6951184e-01 -1.8936464e-01 -4.2942632e-02 
-1.5514398e-01 -1.8026406e-01 2.3626383e-02 
-1.6137350e-01 -1.7658594e-01 -3.5102230e-02 
-1.6905345e-01 -1.8815276e-01 -1.6411396e-02 
-1.6812813e-01 -1.8771297e-01 -2.7269747e-02 
-1.5322128e-01 -1.7727770e-01 1.5784554e-02 
-1.6225933e-01 -1.8244444e-01 -1.2069867e-02 
-1.5232606e-01 -1.7556036e-01 8.8781379e-03 
-1.5398960e-01 -1.7385593e-01 -1.0691274e-02 
-1.5128322e-01 -1.7285287e-01 -1.0590771e-03 
-1.5904413e-01 -1.7766823e-01 -2.8778628e-02 
-1.6400895e-01 -1.8415119e-01 -2.8898763e-02 
-1.5591225e-01 -1.7439957e-01 -2.2278013e-02 
-1.6267687e-01 -1.8252891e-01 -5.6640804e-03 
-1.6086239e-01 -1.8010578e-01 -4.2951904e-02 
-1.5171342e-01 -1.7826545e-01 3.2982633e-02 
-1.5578684e-01 -1.8031865e-01 3.3813246e-02 
-1.5830003e-01 -1.7425837e-01 -4.6419777e-02 
-1.6148275e-01 -1.8133007e-01 -5.5012681e-02 
-1.5616703e-01 -1.7852400e-01 1.1381672e-02 
-1.5964815e-01 -1.7739969e-01 -5.4642584e-02 
-1.5715614e-01 -1.7897327e-01 8.8784378e-03 
-1.6170514e-01 -1.8233228e-01 -2.4258714e-02 
-1.6107225e-01 -1.8248866e-01 -3.6207192e-02 
-1.4588673e-01 -1.7292680e-01 2.6544593e-02 
-1.4810395e-01 -1.6687250e-01 -1.9710211e-02 
-1.4603846e-01 -1.6679542e-01 -9.3569905e-03 
-1.4996456e-01 -1.6764829e-01 -2.9238027e-02 
-1.4434522e-01 -1.7085624e-01 2.0216109e-02 
-1.4963062e-01 -1.7248192e-01 1.9260650e-03 
-1.4718899e-01 -1.7453507e-01 3.5229217e-02 
-1.4299169e-01 -1.6851337e-01 1.3109192e-02 
-1.5388174e-01 -1.7106511e-01 -5.0310031e-02 
-1.5671366e-01 -1.7798872e-01 -1.8095162e-02 
-1.4762665e-01 -1.7432614e-01 3.5655256e-02 
-1.5061793e-01 -1.6745988e-01 -3.9476931e-02 
-1.4619409e-01 -1.7204535e-01 2.1777002e-02 
-1.5438859e-01 -1.7604910e-01 -3.0257551e-02 
-1.5102668e-01 -1.7485611e-01 2.6557863e-02 
-1.4957823e-01 -1.6857095e-01 -3.0212417e-02 
-1.5200073e-01 -1.7443933e-01 1.3952703e-02 
-1.4316475e-01 -1.6524303e-01 -6.2132543e-03 
-1.5458110e-01 -1.7715253e-01 -4.4190336e-02 
-1.4161372e-01 -1.6631781e-01 6.8851341e-03 
-1.5445918e-01 -1.7660692e-01 -2.8167931e-02 
-1.4325351e-01 -1.6642730e-01 -1.7450071e-03 
-1.4314957e-01 -1.6927275e-01 2.1857986e-02 
-1.4042357e-01 -1.6669326e-01 1.5858758e-02 
-1.4765380e-01 -1.6899624e-01 -2.7163647e-02 
-1.4276479e-01 -1.6938269e-01 3.2613110e-02 
-1.4540255e-01 -1.6335624e-01 -4.4227317e-02 
-1.3892996e-01 -1.6755645e-01 3.3046994e-02 
-1.3715617e-01 -1.6583571e-01 2.8815523e-02 
-1.4829186e-01 -1.7160928e-01 -4.9953088e-02 
-1.4780727e-01 -1.7106576e-01 -3.8577702e-02 
-1.4832103e-01 -1.7127123e-01 -2.7759718e-02 
-1.3709405e-01 -1.5874638e-01 -1.2352470e-02 
-1.3546433e-01 -1.6387418e-01 2.3565160e-02 
-1.3906810e-01 -1.5897234e-01 -2.3085199e-02 
-1.4849420e-01 -1.7142116e-01 -2.4793141e-02 
-1.4106114e-01 -1.5986919e-01 -3.1668875e-02 
-1.4370760e-01 -1.6389365e-01 -3.5380654e-02 
-1.4792925e-01 -1.7147490e-01 -3.6617789e-02 
-1.4129485e-01 -1.6364743e-01 -1.3970645e-02 
-1.3385560e-01 -1.6135083e-01 1.6214181e-02 
-1.4353310e-01 -1.6687095e-01 -5.8695991e-03 
-1.3184613e-01 -1.5697758e-01 2.6138627e-03 
-1.3815388e-01 -1.6339701e-01 6.2422990e-03 
-1.4105938e-01 -1.6470329e-01 -7.6168515e-03 
-1.3580534e-01 -1.5768033e-01 -1.7339010e-02 
-1.3453220e-01 -1.6226248e-01 2.1719582e-02 
-1.3429466e-01 -1.6336514e-01 3.4133777e-02 
-1.3511094e-01 -1.6367197e-01 3.4619875e-02 
-1.3795874e-01 -1.5715094e-01 -3.7471931e-02 
-1.4307129e-01 -1.6749816e-01 -4.2943601e-02 
-1.4302616e-01 -1.6635098e-01 -1.7118925e-02 
-1.3801910e-01 -1.6411637e-01 2.5446784e-02 
-1.4006811e-01 -1.5970145e-01 -4.8410468e-02 
-1.3698757e-01 -1.5805644e-01 -2.9086985e-02 
-1.3167383e-01 -1.5956214e-01 1.8176651e-02 
-1.3047847e-01 -1.5795201e-01 1.3825820e-02 
-1.4180851e-01 -1.6606425e-01 -2.8879864e-02 
-1.3830471e-01 -1.6065550e-01 -3.9056081e-02 
-1.2905063e-01 -1.5540409e-01 6.2892470e-03 
-1.3165648e-01 -1.5764217e-01 5.4982523e-03 
-1.2763253e-01 -1.5353586e-01 3.4401170e-03 
-1.3770647e-01 -1.6152680e-01 -2.5551539e-02 
-1.2882286e-01 -1.5883957e-01 3.0453086e-02 
-1.3063712e-01 -1.5871291e-01 2.1860495e-02 
-1.2713291e-01 -1.5704291e-01 2.6148887e-02 
-1.2901060e-01 -1.5098172e-01 -1.6679153e-02 
-1.2573680e-01 -1.5511626e-01 2.0543316e-02 
-1.3703921e-01 -1.6129398e-01 -6.0832198e-03 
-1.3104995e-01 -1.5155983e-01 -2.7914017e-02 
-1.2718876e-01 -1.5144266e-01 -6.2545184e-03 
-1.3310507e-01 -1.5701097e-01 -1.7446239e-02 
-1.2449551e-01 -1.5293092e-01 1.4041707e-02 
-1.3673055e-01 -1.6052099e-01 -5.3328369e-02 
-1.3057290e-01 -1.5884916e-01 3.1428210e-02 
-1.3318965e-01 -1.5318593e-01 -4.1929465e-02 
-1.2515384e-01 -1.4924915e-01 -6.9070687e-03 
-1.3444002e-01 -1.5608354e-01 -5.1300950e-02 
-1.3190538e-01 -1.5393813e-01 -3.2734659e-02 
-1.3625714e-01 -1.6117461e-01 -2.5131393e-02 
-1.3575414e-01 -1.6133644e-01 -3.6909733e-02 
-1.3460574e-01 -1.5934953e-01 -3.2829646e-02 
-1.3046820e-01 -1.5290657e-01 -4.1266873e-02 
-1.2026273e-01 -1.4802176e-01 8.5600894e-03 
-1.2230070e-01 -1.5120715e-01 1.6354034e-02 
-1.2094700e-01 -1.4806797e-01 5.0398591e-03 
-1.2330587e-01 -1.5229806e-01 1.8825915e-02 
-1.3195807e-01 -1.5730903e-01 -1.8572628e-02 
-1.2533173e-01 -1.4831738e-01 -2.0226320e-02 
-1.2316006e-01 -1.4969173e-01 9.1690570e-04 
-1.2941593e-01 -1.5044238e-01 -4.5823563e-02 
-1.2542374e-01 -1.5011486e-01 -1.2928209e-02 
-1.2333131e-01 -1.5351623e-01 3.3032116e-02 
-1.2640919e-01 -1.4727508e-01 -3.5198260e-02 
-1.2661362e-01 -1.5403473e-01 2.4279350e-02 
-1.2320850e-01 -1.5140718e-01 1.5528253e-02 
-1.2933362e-01 -1.5470976e-01 -1.1722435e-02 
-1.2467851e-01 -1.5212189e-01 1.3095487e-02 
-1.2088828e-01 -1.5186733e-01 3.1544916e-02 
-1.2775005e-01 -1.5378343e-01 1.2432642e-02 
-1.3021041e-01 -1.5650468e-01 -4.3884296e-02 
-1.1924335e-01 -1.5036824e-01 2.8088422e-02 
-1.1928717e-01 -1.4732577e-01 8.1565818e-03 
-1.3005680e-01 -1.5604804e-01 -2.9474435e-02 
-1.1774990e-01 -1.4858934e-01 2.3506321e-02 
-1.1917932e-01 -1.4328335e-01 -1.1369359e-02 
-1.2090176e-01 -1.4361343e-01 -1.9960476e-02 
-1.2264411e-01 -1.4422092e-01 -2.8092179e-02 
-1.1646795e-01 -1.4656867e-01 1.7730847e-02 
-1.1553204e-01 -1.4444184e-01 1.1184841e-02 
-1.1780100e-01 -1.4364180e-01 -4.7063432e-03 
-1.2208894e-01 -1.4896823e-01 5.5083488e-03 
-1.1796360e-01 -1.4234266e-01 -1.4848789e-02 
-1.1950525e-01 -1.4903715e-01 3.0064991e-02 
-1.2179928e-01 -1.4349757e-01 -3.9846584e-02 
-1.1695141e-01 -1.4512150e-01 6.3588545e-03 
-1.1965611e-01 -1.4309978e-01 -2.5277831e-02 
-1.2493692e-01 -1.5129194e-01 -2.5354635e-02 
-1.1587426e-01 -1.4595582e-01 2.0969296e-02 
-1.1475788e-01 -1.4386976e-01 1.1601981e-02 
-1.2247112e-01 -1.4755578e-01 -3.6481488e-02 
-1.2446441e-01 -1.5146232e-01 -3.7099689e-02 
-1.1451416e-01 -1.4460334e-01 1.8354716e-02 
-1.2194551e-01 -1.4805032e-01 -3.4006897e-02 
-1.1232357e-01 -1.4095294e-01 7.3793205e-03 
-1.1988150e-01 -1.4394233e-01 -3.2243397e-02 
-1.1882553e-01 -1.4480367e-01 -1.3042013e-02 
-1.2256309e-01 -1.4921735e-01 -2.8553961e-02 
-1.2166272e-01 -1.4806482e-01 -2.7031288e-02 
-1.2168825e-01 -1.4865053e-01 -4.8313599e-02 
-1.1368103e-01 -1.4520772e-01 3.1687111e-02 
-1.0997260e-01 -1.3800982e-01 3.8736535e-03 
-1.1360684e-01 -1.4071046e-01 -1.9118136e-03 
-1.1924975e-01 -1.4576642e-01 -1.3051130e-02 
-1.1192063e-01 -1.4383022e-01 2.9293228e-02 
-1.1588608e-01 -1.4207116e-01 -1.3183558e-02 
-1.1036325e-01 -1.4222023e-01 2.5675749e-02 
-1.1157546e-01 -1.3621396e-01 -1.3832912e-02 
-1.0904381e-01 -1.4037417e-01 2.0893527e-02 
-1.1328945e-01 -1.3658257e-01 -2.2793360e-02 
-1.2018858e-01 -1.4649878e-01 -1.7371919e-02 
-1.1277281e-01 -1.4397043e-01 3.1958856e-02 
-1.1524115e-01 -1.3751674e-01 -3.3156283e-02 
-1.0801698e-01 -1.3845655e-01 1.4795401e-02 
-1.1537194e-01 -1.4422415e-01 2.3058604e-02 
-1.1723913e-01 -1.3982694e-01 -4.4577200e-02 
-1.1930814e-01 -1.4684938e-01 -4.3663166e-02 
-1.1908881e-01 -1.4640144e-01 -2.9837199e-02 
-1.1078817e-01 -1.4129457e-01 2.1624316e-02 
-1.1514147e-01 -1.4209346e-01 -6.4219064e-03 
-1.0957213e-01 -1.3950059e-01 2.1344062e-02 
-1.1499662e-01 -1.4126952e-01 -5.0610632e-02 
-1.0614970e-01 -1.3681214e-01 1.6670160e-02 
-1.0630026e-01 -1.3311160e-01 -6.2716035e-03 
-1.0508519e-01 -1.3530044e-01 1.2573552e-02 
-1.0716262e-01 -1.3288821e-01 -1.3738402e-02 
-1.0912282e-01 -1.3948584e-01 2.8587013e-02 
-1.1103810e-01 -1.3375083e-01 -3.7893489e-02 
-1.1432049e-01 -1.4180325e-01 -2.5334824e-02 
-1.0787847e-01 -1.3632901e-01 3.4088374e-03 
-1.1394481e-01 -1.4212535e-01 -3.7024353e-02 
-1.0923405e-01 -1.3756038e-01 4.7024377e-03 
-1.0553683e-01 -1.3784216e-01 3.0543838e-02 
-1.1276512e-01 -1.3688093e-01 -4.8480652e-02 
-1.1003593e-01 -1.3457943e-01 -3.0298917e-02 
-1.0726400e-01 -1.3247508e-01 -2.0190144e-02 
-1.0359751e-01 -1.3611810e-01 2.7258737e-02 
-1.1237382e-01 -1.4024578e-01 -3.2184895e-02 
-1.0222434e-01 -1.3448903e-01 2.3266455e-02 
-1.0445638e-01 -1.3319527e-01 3.1666611e-03 
-1.0284363e-01 -1.2926118e-01 -7.3420368e-03 
-1.0454942e-01 -1.2932906e-01 -1.6980493e-02 
-1.0097077e-01 -1.3264605e-01 1.8096220e-02 
-1.0612799e-01 -1.2987147e-01 -2.4932837e-02 
-1.0031702e-01 -1.3086402e-01 1.2443952e-02 
-1.0901928e-01 -1.3518661e-01 -2.9857012e-02 
-1.0329153e-01 -1.3424946e-01 1.8748930e-02 
-1.0922363e-01 -1.3372679e-01 -3.8932145e-02 
-1.0687018e-01 -1.3331999e-01 -2.0729620e-02 
-1.0807972e-01 -1.3133520e-01 -4.1886155e-02 
-1.0982676e-01 -1.3746710e-01 -1.7386662e-02 
-1.0763195e-01 -1.3590758e-01 1.2014642e-02 
-1.0278266e-01 -1.3466816e-01 3.0650780e-02 
-1.0498516e-01 -1.2845300e-01 -3.1086849e-02 
-1.0867982e-01 -1.3649586e-01 -3.1486943e-02 
-1.0911901e-01 -1.3771932e-01 -4.3114342e-02 
-1.0559210e-01 -1.3534291e-01 2.2189613e-02 
-9.9203132e-02 -1.2907524e-01 8.0111623e-03 
-1.0202143e-01 -1.3306792e-01 2.1070750e-02 
-1.0748530e-01 -1.3484581e-01 -2.6668411e-02 
-1.0890900e-01 -1.3723151e-01 -2.9907331e-02 
-9.7217411e-02 -1.2819551e-01 1.4089189e-02 
-1.0471076e-01 -1.3084675e-01 -3.9943017e-02 
-9.7025551e-02 -1.3004677e-01 2.8392935e-02 
-9.7950108e-02 -1.3057230e-01 3.0054830e-02 
-9.5606685e-02 -1.2856509e-01 2.5221175e-02 
-1.0202981e-01 -1.2998497e-01 -9.5904479e-03 
-9.4309151e-02 -1.2679382e-01 2.0811003e-02 
-9.6444674e-02 -1.2243324e-01 -1.1239209e-02 
-9.9340118e-02 -1.3054557e-01 2.7594887e-02 
-1.0457738e-01 -1.3299114e-01 -2.5356581e-02 
-9.8440528e-02 -1.2304246e-01 -2.1793736e-02 
-1.0127759e-01 -1.2505141e-01 -3.5953324e-02 
-9.7337060e-02 -1.2717167e-01 7.5241909e-03 
-9.7559221e-02 -1.2475457e-01 -8.8415630e-03 
-1.0405880e-01 -1.3311115e-01 -3.6877457e-02 
-9.3343601e-02 -1.2496850e-01 1.5537700e-02 
-9.9314466e-02 -1.2475704e-01 -2.3019750e-02 
-9.8968856e-02 -1.2733364e-01 -3.8672611e-03 
-1.0229705e-01 -1.3045570e-01 -1.0777974e-03 
-1.0255698e-01 -1.3107301e-01 -2.7904699e-02 
-9.5395818e-02 -1.2707774e-01 2.0545220e-02 
-9.4347395e-02 -1.2604140e-01 1.8248577e-02 
-9.8803185e-02 -1.2774828e-01 4.2902855e-03 
-9.1088437e-02 -1.2064204e-01 5.0326493e-03 
-9.3366578e-02 -1.2109050e-01 -4.5655742e-03 
-1.0072783e-01 -1.2886642e-01 -1.4504790e-02 
-9.1080859e-02 -1.2097487e-01 6.2612253e-03 
-9.4412178e-02 -1.2494212e-01 1.3418926e-02 
-9.3116425e-02 -1.2253309e-01 3.5153192e-03 
-9.9971488e-02 -1.2857766e-01 -4.6694666e-02 
-9.3459226e-02 -1.2590457e-01 2.9543215e-02 
-9.9773511e-02 -1.2889142e-01 -4.2671308e-02 
-9.5699281e-02 -1.1978719e-01 -2.9041642e-02 
-9.6214406e-02 -1.2642419e-01 2.1231852e-02 
-9.7501636e-02 -1.2177575e-01 -4.0795658e-02 
-9.9474743e-02 -1.2858893e-01 -3.0226480e-02 
-9.4431490e-02 -1.2452975e-01 1.2970583e-02 
-9.5197946e-02 -1.2106735e-01 -2.6261989e-02 
-9.3334056e-02 -1.2079031e-01 -1.0810918e-02 
-9.1003105e-02 -1.2407689e-01 2.8946733e-02 
-8.9418389e-02 -1.2267233e-01 2.6551345e-02 
-8.8166267e-02 -1.2118843e-01 2.3053594e-02 
-8.8543586e-02 -1.1601549e-01 -5.2035549e-03 
-8.7065481e-02 -1.1949482e-01 1.8459419e-02 
-9.0200424e-02 -1.1597089e-01 -1.4292868e-02 
-9.1678403e-02 -1.1646242e-01 -2.1990400e-02 
-8.6385921e-02 -1.1792295e-01 1.3791566e-02 
-9.3664832e-02 -1.2080379e-01 -2.5430169e-02 
-8.6396694e-02 -1.1605258e-01 4.9287691e-03 
-9.5393129e-02 -1.2434263e-01 -2.5350502e-02 
-9.0131223e-02 -1.2184852e-01 2.6555963e-02 
-9.5024325e-02 -1.2450580e-01 -3.6657766e-02 
-9.2096522e-02 -1.1633951e-01 -3.3903692e-02 
-8.6166888e-02 -1.1752670e-01 1.3358993e-02 
-9.2931576e-02 -1.2201562e-01 1.0875351e-02 
-9.3365438e-02 -1.1884195e-01 -4.5117412e-02 
-8.7955199e-02 -1.1474759e-01 -1.1425464e-02 
-9.2442863e-02 -1.2098340e-01 -2.1340420e-02 
-8.7470308e-02 -1.1922633e-01 2.0268057e-02 
-8.5684709e-02 -1.1760814e-01 1.8203586e-02 
-9.0415508e-02 -1.1675491e-01 -2.9226417e-02 
-8.4945150e-02 -1.1332209e-01 -1.9673447e-03 
-8.3581463e-02 -1.1403255e-01 8.0750519e-03 
-9.0348572e-02 -1.1918468e-01 -9.1019906e-03 
-8.6889885e-02 -1.1651822e-01 3.7868079e-03 
-9.1565296e-02 -1.1961158e-01 -4.1421525e-02 
-9.1663592e-02 -1.2018174e-01 -1.7115425e-02 
-8.4368899e-02 -1.1355552e-01 3.8547083e-04 
-8.3751813e-02 -1.1703904e-01 2.7177092e-02 
-8.2704656e-02 -1.1089847e-01 -1.5872990e-03 
-8.1191935e-02 -1.1227962e-01 1.1501672e-02 
-9.0830542e-02 -1.2002635e-01 -3.0866342e-02 
-8.7203175e-02 -1.1574943e-01 -7.9844277e-03 
-9.0898328e-02 -1.2047649e-01 -4.2114303e-02 
-8.2367808e-02 -1.1564229e-01 2.4550941e-02 
-8.4896028e-02 -1.1746525e-01 2.8366493e-02 
-8.6935751e-02 -1.1148192e-01 -2.7298123e-02 
-9.0722993e-02 -1.2016515e-01 -3.0268021e-02 
-8.1268542e-02 -1.1412508e-01 2.0750359e-02 
-8.7258831e-02 -1.1770822e-01 2.0463735e-02 
-8.8736571e-02 -1.1317936e-01 -3.8987983e-02 
-8.8815957e-02 -1.1656887e-01 -3.0466307e-02 
-8.5683398e-02 -1.1622029e-01 1.2724864e-02 
-8.2891069e-02 -1.0966571e-01 -8.8812616e-03 
-8.4324367e-02 -1.0983649e-01 -1.6885273e-02 
-8.9563280e-02 -1.1832581e-01 -3.2342631e-02 
-8.0371730e-02 -1.1238671e-01 1.6042193e-02 
-8.9364171e-02 -1.1804035e-01 -1.9478446e-02 
-8.4509678e-02 -1.1023336e-01 -1.9598231e-02 
-8.3570138e-02 -1.1131307e-01 -8.5100420e-03 
-8.7488286e-02 -1.1610149e-01 -6.4391582e-03 
-7.9564780e-02 -1.1069316e-01 1.1797543e-02 
-8.6958006e-02 -1.1461326e-01 -4.7569178e-02 
-8.0837026e-02 -1.1101931e-01 6.4955461e-03 
-8.3991751e-02 -1.1359654e-01 5.6005777e-03 
-8.6876146e-02 -1.1607049e-01 -2.5210615e-02 
-8.0974571e-02 -1.1268818e-01 1.9755099e-02 
-8.6551473e-02 -1.1628908e-01 -3.6323760e-02 
-7.8935876e-02 -1.1088754e-01 1.6867453e-02 
-8.1968240e-02 -1.1358219e-01 2.5329400e-02 
-8.3798714e-02 -1.0803797e-01 -3.2193162e-02 
-7.8858763e-02 -1.0697156e-01 -3.6800250e-03 
-7.9549946e-02 -1.0656996e-01 -1.0478925e-02 
-8.2329705e-02 -1.0826696e-01 -2.6470602e-02 
-7.8224987e-02 -1.1131353e-01 2.7371647e-02 
-7.5547829e-02 -1.0535744e-01 5.8950023e-03 
-7.6924726e-02 -1.1023961e-01 2.5609421e-02 
-7.5801656e-02 -1.0885967e-01 2.2590635e-02 
-7.7071585e-02 -1.0775257e-01 9.3734749e-03 
-7.4860662e-02 -1.0725161e-01 1.8679410e-02 
-7.5911775e-02 -1.0372227e-01 -3.4245630e-03 
-7.7376679e-02 -1.0362143e-01 -1.1883284e-02 
-7.8589581e-02 -1.0388152e-01 -1.9093642e-02 
-8.3298407e-02 -1.1201435e-01 -1.6962223e-02 
-7.4073665e-02 -1.0550509e-01 1.3874292e-02 
-8.1577055e-02 -1.0731197e-01 -3.5051271e-02 
-8.1150189e-02 -1.0980893e-01 -1.3145129e-02 
-8.2709879e-02 -1.1195944e-01 -3.0430263e-02 
-8.2868986e-02 -1.1247210e-01 -4.1439343e-02 
-7.8109547e-02 -1.0788981e-01 3.6526765e-03 
-8.2531907e-02 -1.1211413e-01 -3.0152151e-02 
-7.6966621e-02 -1.0952309e-01 2.7196018e-02 
-7.5710095e-02 -1.0770968e-01 1.8605663e-02 
-7.8789294e-02 -1.0341933e-01 -2.5497494e-02 
-7.9149015e-02 -1.0970355e-01 1.9526206e-02 
-7.9018258e-02 -1.0649851e-01 -1.9505363e-02 
-7.8106351e-02 -1.0406313e-01 -2.2161802e-02 
-7.3424675e-02 -1.0402754e-01 1.0177819e-02 
-8.1293754e-02 -1.1045564e-01 -4.4706136e-02 
-7.7151984e-02 -1.0515109e-01 -1.0941850e-02 
-7.9731271e-02 -1.0418261e-01 -3.6006097e-02 
-8.0522016e-02 -1.0947178e-01 -2.4067279e-02 
-7.9887025e-02 -1.0839779e-01 -2.9024476e-02 
-7.5312838e-02 -1.0380603e-01 -3.8365882e-03 
-7.4357487e-02 -1.0263252e-01 -3.2422806e-03 
-7.8865714e-02 -1.0584795e-01 -3.6017310e-02 
-7.2403073e-02 -1.0082281e-01 -7.9372927e-04 
-7.8996718e-02 -1.0816289e-01 -2.4923066e-02 
-7.3123842e-02 -1.0595924e-01 2.7068198e-02 
-7.4462667e-02 -1.0072523e-01 -1.6085017e-02 
-7.8694671e-02 -1.0845279e-01 -3.5816640e-02 
-7.6900095e-02 -1.0633663e-01 1.0913963e-02 
-7.1760356e-02 -1.0484358e-01 2.5954574e-02 
-7.3186696e-02 -1.0370892e-01 9.2390152e-03 
-7.3202275e-02 -1.0480928e-01 1.9798314e-02 
-7.4315146e-02 -1.0595443e-01 2.4295783e-02 
-7.0665926e-02 -1.0363403e-01 2.4062008e-02 
-7.5879380e-02 -1.0025756e-01 -3.0311890e-02 
-7.5077645e-02 -1.0383803e-01 -6.0632555e-03 
-7.4555725e-02 -1.0476779e-01 1.1614718e-02 
-6.9619298e-02 -1.0218824e-01 2.0755000e-02 
-7.7267915e-02 -1.0258446e-01 -4.1156262e-02 
-6.9774315e-02 -9.8034352e-02 -1.2228207e-04 
-7.0806272e-02 -9.7787529e-02 -6.7849089e-03 
-6.8829045e-02 -1.0063868e-01 1.6473623e-02 
-6.8237364e-02 -9.9017881e-02 1.1573743e-02 
-7.1759373e-02 -9.7438157e-02 -1.4984989e-02 
-7.0683554e-02 -1.0240763e-01 1.8967792e-02 
-6.8846278e-02 -1.0024381e-01 1.5691167e-02 
-7.5136863e-02 -1.0478289e-01 -4.0661998e-02 
-7.2435528e-02 -1.0273268e-01 1.9460546e-02 
-7.2548047e-02 -9.8662734e-02 -2.3909844e-02 
-7.4937716e-02 -1.0441099e-01 -2.9881267e-02 
-7.4809358e-02 -1.0354675e-01 -1.8126564e-02 
-6.9618396e-02 -1.0183857e-01 2.6254278e-02 
-7.0058629e-02 -9.7875014e-02 -7.3900861e-03 
-7.1189404e-02 -9.5786378e-02 -2.3673784e-02 
-7.3973753e-02 -1.0276373e-01 -2.7598290e-02 
-7.3084205e-02 -9.7513683e-02 -3.5205528e-02 
-7.3478222e-02 -1.0218088e-01 -1.6163984e-02 
-7.0695430e-02 -9.6378468e-02 -2.0972015e-02 
-6.7270301e-02 -9.5110200e-02 -2.7002406e-03 
-6.6135086e-02 -9.6688919e-02 1.0632345e-02 
-7.2419830e-02 -1.0102815e-01 -1.6208580e-02 
-6.7638859e-02 -9.4506927e-02 -9.3133170e-03 
-6.7024030e-02 -9.9616453e-02 2.6098255e-02 
-6.5869018e-02 -9.8496817e-02 2.4723500e-02 
-7.2090715e-02 -1.0057768e-01 -6.6237603e-03 
-7.1529120e-02 -9.7386457e-02 -3.3118200e-02 
-6.4837165e-02 -9.7296342e-02 2.2272035e-02 
-7.1848631e-02 -1.0086013e-01 -2.5828065e-02 
-7.0848532e-02 -9.8809958e-02 -2.4331702e-02 
-7.2295904e-02 -9.9644773e-02 -4.4938691e-02 
-6.3894168e-02 -9.5914878e-02 1.8737759e-02 
-6.4608686e-02 -9.2249647e-02 -1.7493943e-03 
-7.1635902e-02 -1.0063925e-01 -2.4615321e-02 
-6.5930329e-02 -9.2064552e-02 -9.6666347e-03 
-6.3183531e-02 -9.4274230e-02 1.4255380e-02 
-7.1352676e-02 -1.0099878e-01 -3.5328310e-02 
-6.6797547e-02 -9.1953680e-02 -1.6610693e-02 
-6.5099902e-02 -9.3890212e-02 1.3775507e-03 
-6.6138141e-02 -9.7330108e-02 1.9245582e-02 
-6.7269832e-02 -9.8252006e-02 2.3238651e-02 
-6.8625107e-02 -9.2748210e-02 -2.8383670e-02 
-6.9438778e-02 -9.6160933e-02 -2.6017688e-02 
-6.2572353e-02 -9.1852881e-02 6.4984723e-03 
-6.4914383e-02 -9.6231788e-02 1.8374322e-02 
-6.6889897e-02 -9.6334398e-02 4.9438430e-03 
-6.7941479e-02 -9.7217642e-02 5.5694189e-03 
-6.6522263e-02 -9.2512578e-02 -1.5049634e-02 
-6.8269141e-02 -9.6870683e-02 -6.5993080e-03 
-6.3198842e-02 -9.4119728e-02 1.4239293e-02 
-6.7871690e-02 -9.3139872e-02 -2.6588930e-02 
-6.7453094e-02 -9.4930306e-02 -1.4695698e-02 
-6.8529837e-02 -9.6909925e-02 -1.6711222e-02 
-6.7928903e-02 -9.7167335e-02 -2.9573983e-02 
-6.1461490e-02 -8.9392051e-02 1.4448783e-04 
-6.7535102e-02 -9.6610889e-02 -3.9123259e-02 
-6.2780730e-02 -9.4395943e-02 2.5159175e-02 
-6.1407372e-02 -9.3539685e-02 2.4984721e-02 
-6.4385578e-02 -8.8505276e-02 -2.2002777e-02 
-6.4700171e-02 -9.4534360e-02 1.7591523e-02 
-6.1575145e-02 -9.0834878e-02 6.1890865e-03 
-6.0282066e-02 -9.2448205e-02 2.3279373e-02 
-6.1928190e-02 -9.1632754e-02 9.1874311e-03 
-6.3882314e-02 -8.9090317e-02 -1.9826625e-02 
-5.9297405e-02 -9.1093317e-02 2.0414669e-02 
-6.6278554e-02 -9.4635010e-02 -2.1406908e-02 
-6.5436736e-02 -8.9215390e-02 -3.2276470e-02 
-5.8531243e-02 -8.9667179e-02 1.6697524e-02 
-6.0228482e-02 -8.6679272e-02 -4.9073189e-03 
-6.1412100e-02 -8.6656056e-02 -1.2134616e-02 
-6.3081294e-02 -8.9824446e-02 -1.3974591e-02 
-6.0980741e-02 -8.8642955e-02 -2.4229090e-03 
-6.2056057e-02 -8.9124069e-02 -8.4007652e-03 
-5.8022980e-02 -8.8153809e-02 1.2242967e-02 
-6.5522484e-02 -9.3847573e-02 -3.3160698e-02 
-5.8703303e-02 -8.6351514e-02 1.2410503e-03 
-6.0631394e-02 -9.1439232e-02 1.8899521e-02 
-5.8837220e-02 -8.8898346e-02 1.1984522e-02 
-5.9429225e-02 -9.0287633e-02 1.7465290e-02 
-6.5091513e-02 -9.3278587e-02 -4.2552020e-02 
-6.4936802e-02 -9.3545221e-02 -2.4214556e-02 
-6.4618565e-02 -9.1152258e-02 -3.4836054e-02 
-5.8636703e-02 -8.9211121e-02 1.5541352e-02 
-6.4749330e-02 -9.3779303e-02 -3.4743130e-02 
-5.7435662e-02 -8.6724341e-02 9.0585435e-03 
-6.0593955e-02 -9.1073081e-02 2.2297081e-02 
-6.2090736e-02 -8.5603617e-02 -2.6583878e-02 
-6.0713179e-02 -8.9969292e-02 1.0783062e-02 
-6.2704384e-02 -8.7370574e-02 -3.1364188e-02 
-6.2278841e-02 -9.0630904e-02 8.4473304e-03 
-6.3315019e-02 -8.7745689e-02 -3.7697304e-02 
-6.2892362e-02 -9.0507597e-02 -2.9717179e-02 
-6.1096881e-02 -8.8495679e-02 -1.3023751e-02 
-6.1140697e-02 -8.5896194e-02 -2.3639878e-02 
-5.7218269e-02 -8.4153548e-02 -1.7705034e-03 
-6.1779521e-02 -8.9569040e-02 -1.5011613e-02 
-5.9294783e-02 -8.7565452e-02 1.5883506e-04 
-6.0558502e-02 -8.6557321e-02 -1.9804489e-02 
-5.8884267e-02 -8.4229574e-02 -1.3488723e-02 
-5.7175327e-02 -8.8633806e-02 2.4763197e-02 
-6.0188591e-02 -8.8696256e-02 8.0430480e-03 
-5.6079932e-02 -8.7652743e-02 2.3705507e-02 
-5.9692625e-02 -8.7768741e-02 -2.8038167e-03 
-5.5108324e-02 -8.6528271e-02 2.1661159e-02 
-6.1792746e-02 -9.0367846e-02 -3.8952135e-02 
-6.0475785e-02 -8.6309060e-02 -2.6343331e-02 
-6.1408937e-02 -8.9655571e-02 -2.7483989e-02 
-6.1512545e-02 -9.0136491e-02 -2.9130884e-02 
-6.1336387e-02 -8.9307986e-02 -1.7674120e-02 
-5.4214999e-02 -8.5202731e-02 1.8571444e-02 
-5.9047576e-02 -8.8227615e-02 1.7586140e-02 
-5.4808043e-02 -8.1515960e-02 -2.5306013e-04 
-5.5509530e-02 -8.2886852e-02 6.8860082e-04 
-5.6016266e-02 -8.1287757e-02 -7.7074156e-03 
-5.7099510e-02 -8.1403583e-02 -1.4210837e-02 
-5.5556491e-02 -8.3960250e-02 4.8945663e-03 
-5.3344470e-02 -8.3388150e-02 1.4301607e-02 
-5.6569904e-02 -8.7352417e-02 2.4132418e-02 
-5.8068886e-02 -8.1698902e-02 -2.0362454e-02 
-5.9768088e-02 -8.3043560e-02 -3.1365395e-02 
-5.6846164e-02 -8.6291775e-02 1.4524282e-02 
-5.5265322e-02 -8.5478082e-02 1.7762903e-02 
-5.8986828e-02 -8.5968599e-02 -1.9497661e-02 
-5.5933252e-02 -8.5009314e-02 1.0896780e-02 
-5.3665768e-02 -8.3535880e-02 1.4253481e-02 
-5.9054464e-02 -8.6447842e-02 -6.5904758e-03 
-5.3016085e-02 -8.2231835e-02 1.1118296e-02 
-5.2901100e-02 -8.1124641e-02 6.4930413e-03 
-5.1899895e-02 -8.0022454e-02 6.9383797e-03 
-5.4472428e-02 -8.0102317e-02 -7.1780370e-03 
-5.8574215e-02 -8.6178966e-02 -1.9199926e-02 
-5.9446480e-02 -8.5589997e-02 -4.2113952e-02 
-5.8675278e-02 -8.6615674e-02 -2.3706762e-02 
-5.8551218e-02 -8.6990811e-02 -3.4034047e-02 
-5.3631891e-02 -8.3664499e-02 2.0415263e-02 
-5.7516716e-02 -8.5068971e-02 -3.1067457e-02 
-5.4548509e-02 -8.4036358e-02 2.1124652e-02 
-5.5963401e-02 -7.8858256e-02 -2.4993347e-02 
-5.2224338e-02 -8.3020024e-02 2.3772746e-02 
-5.1170357e-02 -8.1944205e-02 2.2454334e-02 
-5.0268054e-02 -8.0744028e-02 1.9945921e-02 
-5.1196408e-02 -7.6813966e-02 -2.9667213e-03 
-5.2939780e-02 -7.8697063e-02 -7.3099597e-03 
-5.5427711e-02 -7.9620801e-02 -2.4897274e-02 
-4.9541194e-02 -7.9439096e-02 1.6724916e-02 
-5.3151410e-02 -7.7271037e-02 -1.3977989e-02 
-5.6298833e-02 -8.4108524e-02 -2.8964290e-02 
-4.9034610e-02 -7.8006461e-02 1.2686281e-02 
-5.5987660e-02 -8.3174616e-02 -1.6032431e-02 
-5.1852167e-02 -7.6059245e-02 -1.0430585e-02 
-5.4996502e-02 -8.1944421e-02 -8.6967573e-03 
-5.2567776e-02 -7.9106487e-02 -4.4714981e-03 
-5.5506386e-02 -8.3399743e-02 -2.8515400e-02 
-4.8944250e-02 -7.6429501e-02 6.4193662e-03 
-5.3513050e-02 -8.0341250e-02 -5.5189463e-03 
-5.5220604e-02 -8.2993738e-02 -3.7338965e-02 
-5.1966347e-02 -8.0124602e-02 1.1379697e-02 
-4.9402285e-02 -7.5879984e-02 1.1393030e-03 
-5.0882969e-02 -8.0582872e-02 2.3131920e-02 
-5.2180964e-02 -7.5053990e-02 -1.8800605e-02 
-5.0454341e-02 -7.8460343e-02 8.3705662e-03 
-5.2663676e-02 -8.0658145e-02 1.5842574e-02 
-5.4004639e-02 -8.0937162e-02 -1.9578533e-02 
-4.8811220e-02 -7.8002356e-02 1.6267229e-02 
-5.2224576e-02 -7.7758521e-02 -1.6025653e-02 
-5.3400394e-02 -7.5739436e-02 -2.8774196e-02 
-5.2191135e-02 -7.5699136e-02 -2.0270292e-02 
-4.7469743e-02 -7.5319417e-02 9.0589710e-03 
-4.7601525e-02 -7.5944930e-02 1.1569308e-02 
-5.3317808e-02 -8.0242909e-02 -2.9229557e-02 
-5.2976444e-02 -8.0098882e-02 -2.3202071e-02 
-5.3406052e-02 -8.0139615e-02 -4.0124934e-02 
-4.8830736e-02 -7.3620349e-02 -6.5589729e-03 
-5.2815277e-02 -8.0434084e-02 -3.3277862e-02 
-4.5925267e-02 -7.4043460e-02 1.1405807e-02 
-4.7539093e-02 -7.7515326e-02 2.2745769e-02 
-5.2810200e-02 -7.8971066e-02 -3.2986149e-02 
-4.6609923e-02 -7.6474592e-02 2.0941317e-02 
-4.8008345e-02 -7.7685572e-02 2.3319596e-02 
-4.5845043e-02 -7.5297661e-02 1.8276501e-02 
-4.7469269e-02 -7.4595973e-02 6.0044508e-03 
-4.5237377e-02 -7.3959284e-02 1.4810749e-02 
-4.7997024e-02 -7.6504268e-02 1.6345756e-02 
-4.6079289e-02 -7.1631216e-02 9.6561614e-04 
-4.9094364e-02 -7.7466175e-02 2.0229030e-02 
-4.7120810e-02 -7.1362875e-02 -5.8234474e-03 
-4.8280660e-02 -7.1464881e-02 -1.2166070e-02 
-5.0367795e-02 -7.2427869e-02 -2.3307642e-02 
-5.0309077e-02 -7.7166311e-02 7.5862855e-03 
-5.1540326e-02 -7.4263096e-02 -3.4419589e-02 
-4.8883248e-02 -7.2347388e-02 -1.5354746e-02 
-4.9419273e-02 -7.6296456e-02 4.9917535e-03 
-4.6781749e-02 -7.2585993e-02 -6.1486338e-05 
-4.6558656e-02 -7.5185031e-02 1.7378218e-02 
-5.0728112e-02 -7.7673227e-02 -2.7771231e-02 
-4.5329060e-02 -7.3656939e-02 1.4241446e-02 
-4.7254410e-02 -7.3966704e-02 5.4292460e-03 
-4.9400311e-02 -7.2800562e-02 -2.3328863e-02 
-4.7748230e-02 -7.2293267e-02 -1.1525824e-02 
-5.0347075e-02 -7.7297509e-02 -3.6956865e-02 
-4.9769074e-02 -7.5876132e-02 -2.0260463e-02 
-4.9742259e-02 -7.3877044e-02 -2.8519621e-02 
-4.9970206e-02 -7.7033758e-02 -2.7923137e-02 
-4.5275994e-02 -7.0491657e-02 -4.8869959e-04 
-4.9932331e-02 -7.6225594e-02 -1.6741196e-02 
-4.4263773e-02 -7.1192048e-02 8.2423426e-03 
-4.3253876e-02 -6.9733068e-02 7.2577419e-03 
-4.8241794e-02 -7.4470989e-02 6.7943335e-04 
-4.9073111e-02 -7.5011715e-02 -1.3203620e-02 
-4.5602933e-02 -7.4188270e-02 2.2102289e-02 
-4.6739042e-02 -6.8785571e-02 -1.7211489e-02 
-4.7293656e-02 -7.4218847e-02 1.5108271e-02 
-4.8447177e-02 -7.0070453e-02 -2.8168794e-02 
-4.5930952e-02 -7.3261932e-02 1.3564092e-02 
-4.4091843e-02 -7.3079422e-02 2.2524232e-02 
-4.3161165e-02 -7.2190657e-02 2.1551019e-02 
-4.6443406e-02 -7.1846984e-02 -4.6722563e-03 
-4.5374002e-02 -6.8535313e-02 -1.1040734e-02 
-4.8126083e-02 -7.3699094e-02 -6.2559606e-03 
-4.7375064e-02 -7.2363570e-02 -1.7561883e-02 
-4.7930863e-02 -7.4030861e-02 -2.1433337e-02 
-4.2369805e-02 -7.1113408e-02 1.9435730e-02 
-4.1738871e-02 -6.9939822e-02 1.6547795e-02 
-4.8562858e-02 -7.2775498e-02 -3.9155636e-02 
-4.7585405e-02 -7.3820971e-02 -2.2665018e-02 
-4.7500137e-02 -7.4162118e-02 -3.2401923e-02 
-4.2678457e-02 -6.6737428e-02 -1.7910742e-03 
-4.1218717e-02 -6.8599761e-02 1.2975518e-02 
-4.3727480e-02 -6.6623770e-02 -8.0189351e-03 
-4.6797208e-02 -7.2368041e-02 -9.4542606e-03 
-4.6351153e-02 -7.1740419e-02 -9.6316952e-03 
-4.5960270e-02 -6.8387188e-02 -1.9695476e-02 
-4.1280217e-02 -6.7212038e-02 6.9915107e-03 
-4.2356383e-02 -6.8610832e-02 7.1162172e-03 
-4.3200556e-02 -6.7738324e-02 -3.5922183e-03 
-4.3835912e-02 -6.8990901e-02 -1.7832399e-03 
-4.1873865e-02 -6.6925876e-02 2.2210393e-03 
-4.1293830e-02 -6.8476178e-02 1.3017950e-02 
-4.3963097e-02 -7.1154147e-02 1.9206062e-02 
-4.5074843e-02 -6.6154368e-02 -2.1683944e-02 
-4.4052389e-02 -7.0158288e-02 9.1800597e-03 
-4.1744724e-02 -6.5644220e-02 -2.6309050e-03 
-4.1904945e-02 -6.9324881e-02 1.6617678e-02 
-4.5684330e-02 -7.1122773e-02 -2.6786298e-02 
-4.5604482e-02 -7.1474068e-02 -2.6415566e-02 
-4.1045193e-02 -6.8482190e-02 1.5822066e-02 
-4.5102425e-02 -6.9814526e-02 -2.2303749e-02 
-4.5339417e-02 -7.0653230e-02 -1.5258344e-02 
-3.9848685e-02 -6.5986253e-02 9.3801878e-03 
-4.4895217e-02 -7.0909582e-02 -2.7256196e-02 
-4.1020650e-02 -6.8815969e-02 2.1943228e-02 
-4.4821523e-02 -7.0582457e-02 -3.5198566e-02 
-4.0019959e-02 -6.8046987e-02 2.1531725e-02 
-3.8351305e-02 -6.4674154e-02 1.1546040e-02 
-4.3351553e-02 -6.6665925e-02 -1.7191108e-02 
-4.1618690e-02 -6.4025842e-02 -1.0544372e-02 
-4.4695340e-02 -6.8375453e-02 -3.3307657e-02 
-3.9111827e-02 -6.7071572e-02 2.0145984e-02 
-4.0643714e-02 -6.6585854e-02 8.7140920e-03 
-4.2334188e-02 -6.5469518e-02 -1.1963938e-02 
-4.3915380e-02 -6.9026485e-02 -1.9225242e-02 
-3.8436025e-02 -6.5995507e-02 1.7886991e-02 
-4.0842857e-02 -6.8003774e-02 2.1179374e-02 
-4.1834541e-02 -6.2834263e-02 -1.5895069e-02 
-4.2316049e-02 -6.8080686e-02 1.4363040e-02 
-3.7908450e-02 -6.4780205e-02 1.4778011e-02 
-3.8512517e-02 -6.2415466e-02 2.0521118e-03 
-3.9412223e-02 -6.2090833e-02 -4.1396716e-03 
-4.0379122e-02 -6.2022537e-02 -9.9775689e-03 
-4.3003105e-02 -6.3254803e-02 -2.5474343e-02 
-4.1867252e-02 -6.3336797e-02 -1.7911684e-02 
-4.2531073e-02 -6.7379154e-02 6.7929467e-03 
-3.9740197e-02 -6.6285975e-02 1.6241815e-02 
-4.2866360e-02 -6.7458890e-02 -9.8761339e-03 
-4.2310260e-02 -6.3922092e-02 -2.1878274e-02 
-4.2704061e-02 -6.7849465e-02 -2.2040058e-02 
-4.3368720e-02 -6.7829609e-02 -3.7582174e-02 
-4.2684063e-02 -6.8193518e-02 -3.1407997e-02 
-3.9484847e-02 -6.4927630e-02 9.6391495e-03 
-4.1665215e-02 -6.6017814e-02 -4.1583087e-03 
-3.8563706e-02 -6.1071157e-02 -4.7650607e-03 
-4.0672991e-02 -6.4376824e-02 -1.0349241e-02 
-3.7353776e-02 -6.3600644e-02 1.4885782e-02 
-3.6016926e-02 -6.0557105e-02 7.3731644e-03 
-3.6784139e-02 -6.2724710e-02 1.3036404e-02 
-3.6457676e-02 -6.1905392e-02 1.0546768e-02 
-3.9335258e-02 -6.5217160e-02 1.8474391e-02 
-4.0311273e-02 -6.0335115e-02 -2.0105358e-02 
-3.7459660e-02 -6.3534886e-02 1.5311154e-02 
-3.9942682e-02 -6.4129174e-02 -2.7543315e-04 
-4.1835174e-02 -6.2211145e-02 -3.0945247e-02 
-3.9358217e-02 -6.4191431e-02 8.9432318e-03 
-4.0946379e-02 -6.5675281e-02 -2.5088916e-02 
-3.7364092e-02 -6.4177759e-02 2.1285320e-02 
-3.6139872e-02 -6.0303688e-02 5.5516311e-03 
-3.6222324e-02 -6.3118361e-02 2.0420820e-02 
-4.0723752e-02 -6.5322682e-02 -3.4707643e-02 
-3.5447866e-02 -6.2163971e-02 1.8734446e-02 
-4.0234972e-02 -6.5122262e-02 -2.6464263e-02 
-3.4774642e-02 -6.0347930e-02 1.2940354e-02 
-3.6406912e-02 -6.0698006e-02 5.5778893e-03 
-4.0209934e-02 -6.4305723e-02 -1.5897021e-02 
-3.9894830e-02 -6.2622212e-02 -2.1586509e-02 
-3.4812674e-02 -6.1063845e-02 1.6276455e-02 
-3.5546701e-02 -5.7838283e-02 -5.2489719e-04 
-3.7370794e-02 -5.8266267e-02 -1.0154733e-02 
-3.6494229e-02 -5.7638507e-02 -6.2879738e-03 
-3.9453305e-02 -6.3208699e-02 -1.1828421e-02 
-3.5976458e-02 -6.0849093e-02 1.0132100e-02 
-3.9502636e-02 -6.3517235e-02 -2.6259057e-02 
-3.6664274e-02 -5.8822129e-02 -4.4993241e-03 
-3.9188489e-02 -6.0406748e-02 -2.5837636e-02 
-3.6320295e-02 -6.2205032e-02 2.0230783e-02 
-3.7394118e-02 -5.7158887e-02 -1.4481973e-02 
-3.8403541e-02 -6.1693534e-02 -1.2391967e-02 
-3.8125765e-02 -5.8455460e-02 -1.8086310e-02 
-3.7842989e-02 -6.2149752e-02 1.3645421e-02 
-3.8993258e-02 -5.8208812e-02 -2.4863282e-02 
-3.5774514e-02 -6.1090104e-02 1.5610211e-02 
-3.8501296e-02 -6.1928451e-02 -6.1382251e-03 
-3.8672075e-02 -6.2380362e-02 -1.9285558e-02 
-3.5840534e-02 -5.9097014e-02 1.4366725e-03 
-3.4857389e-02 -5.6769960e-02 -1.8506517e-03 
-3.8258962e-02 -6.2176470e-02 -2.1358524e-02 
-3.9321721e-02 -6.1136570e-02 -3.6025021e-02 
-3.8222738e-02 -6.2511578e-02 -3.0357551e-02 
-3.7773237e-02 -6.0997918e-02 -1.7126443e-02 
-3.8184408e-02 -6.0969807e-02 -2.6800841e-02 
-3.5832278e-02 -5.9390355e-02 3.4363624e-03 
-3.5247169e-02 -5.9617803e-02 1.2789859e-02 
-3.3153821e-02 -5.6244511e-02 5.2486551e-03 
-3.2938708e-02 -5.7279181e-02 1.1083150e-02 
-3.3473160e-02 -5.9231441e-02 2.0378893e-02 
-3.6200296e-02 -5.7325438e-02 -1.4781231e-02 
-3.4028288e-02 -5.9536107e-02 2.0494545e-02 
-3.2682993e-02 -5.8422823e-02 1.9304745e-02 
-3.5069168e-02 -5.9410397e-02 1.7484687e-02 
-3.1998452e-02 -5.7428829e-02 1.7328190e-02 
-3.6080711e-02 -5.4749478e-02 -1.8702187e-02 
-3.4174573e-02 -5.7881508e-02 8.3834901e-03 
-3.6653649e-02 -6.0118373e-02 -2.3853887e-02 
-3.1473026e-02 -5.6300219e-02 1.4666839e-02 
-3.4943357e-02 -5.4804876e-02 -1.2462876e-02 
-3.3297494e-02 -5.5229604e-02 -8.2636026e-05 
-3.6352657e-02 -5.9263170e-02 -1.4294221e-02 
-3.1912930e-02 -5.3903494e-02 2.9044973e-03 
-3.1142049e-02 -5.5087075e-02 1.1371315e-02 
-3.2775503e-02 -5.3509265e-02 -2.7993526e-03 
-3.3659920e-02 -5.3409949e-02 -8.1178229e-03 
-3.6003083e-02 -5.9602208e-02 -2.5646539e-02 
-3.5414394e-02 -5.7044335e-02 -1.7590286e-02 
-3.2257162e-02 -5.6724239e-02 1.4974593e-02 
-3.6062717e-02 -5.9186999e-02 -3.2853615e-02 
-3.4513187e-02 -5.7381555e-02 4.6319696e-03 
-3.4317929e-02 -5.5830240e-02 -7.4179037e-03 
-3.1667158e-02 -5.5954106e-02 1.3725130e-02 
-3.0973006e-02 -5.4288659e-02 9.4249193e-03 
-3.2456268e-02 -5.6566440e-02 1.5254683e-02 
-3.5133243e-02 -5.7721999e-02 -1.6906219e-02 
-3.1493854e-02 -5.2693307e-02 6.0616909e-05 
-3.4357157e-02 -5.6574792e-02 -2.7226014e-03 
-2.9967254e-02 -5.2505661e-02 7.5167995e-03 
-3.3224072e-02 -5.1692083e-02 -1.3279271e-02 
-3.2334182e-02 -5.6563515e-02 1.9302143e-02 
-3.3686221e-02 -5.5643201e-02 -5.7910229e-03 
-3.3742808e-02 -5.6613624e-02 1.3062271e-02 
-3.4557413e-02 -5.6891594e-02 -2.6167026e-02 
-3.5337739e-02 -5.4581665e-02 -3.2121513e-02 
-3.3764057e-02 -5.5954397e-02 6.1686384e-03 
-3.4288220e-02 -5.2031603e-02 -2.2345532e-02 
-3.1208295e-02 -5.4089569e-02 8.2862247e-03 
-3.4123357e-02 -5.6733906e-02 -2.0625906e-02 
-3.3352200e-02 -5.2155532e-02 -1.5890539e-02 
-3.4902506e-02 -5.6645405e-02 -3.4864489e-02 
-3.1012673e-02 -5.5456664e-02 1.9889753e-02 
-3.4198493e-02 -5.7057068e-02 -2.9325690e-02 
-3.1416770e-02 -5.1149178e-02 -6.0361880e-03 
-3.0157872e-02 -5.4680966e-02 1.9418657e-02 
-2.9456025e-02 -5.3826623e-02 1.7988566e-02 
-3.1756166e-02 -5.1754642e-02 -7.9510240e-03 
-2.8755264e-02 -5.2065771e-02 1.2755656e-02 
-2.8864251e-02 -5.2824721e-02 1.5908746e-02 
-3.3413850e-02 -5.3996790e-02 -2.4177814e-02 
-2.8958017e-02 -5.0395247e-02 4.9803625e-03 
-2.9340303e-02 -4.9607646e-02 5.0760852e-04 
-3.3083308e-02 -5.1470291e-02 -2.1683091e-02 
-3.0182403e-02 -4.9370080e-02 -4.7939573e-03 
-3.1018661e-02 -4.9319036e-02 -9.8238122e-03 
-3.2750126e-02 -5.4728754e-02 -2.2495765e-02 
-2.9238814e-02 -5.0512202e-02 3.9713345e-03 
-3.2032322e-02 -4.9357455e-02 -1.7246434e-02 
-3.1073449e-02 -5.3923771e-02 1.6638519e-02 
-3.0661555e-02 -5.2891001e-02 9.0226419e-03 
-3.0798607e-02 -4.9380377e-02 -9.8539973e-03 
-3.3425935e-02 -5.0985672e-02 -2.7716711e-02 
-3.1052325e-02 -5.3057697e-02 8.3221868e-03 
-2.8609212e-02 -5.1525854e-02 1.2697869e-02 
-3.2556720e-02 -5.4381695e-02 -3.2123841e-02 
-3.2123372e-02 -5.4269712e-02 -2.4737280e-02 
-3.0255537e-02 -5.1444486e-02 9.0298278e-04 
-3.1938285e-02 -5.3528175e-02 -1.4865834e-02 
-3.2181282e-02 -5.1117811e-02 -2.3299297e-02 
-2.9624734e-02 -5.0162267e-02 -9.0271159e-04 
-3.0529538e-02 -5.0632391e-02 -6.8612057e-03 
-2.8620275e-02 -5.1490285e-02 1.4526085e-02 
-3.0687232e-02 -4.9458876e-02 -1.4726167e-02 
-2.8033694e-02 -4.7885939e-02 7.5786910e-04 
-3.1146927e-02 -5.2300427e-02 -1.6163826e-02 
-2.7860804e-02 -5.1084794e-02 1.9198008e-02 
-2.6954139e-02 -4.6856239e-02 2.9389295e-03 
-2.9400360e-02 -4.6549067e-02 -1.2097775e-02 
-2.7096152e-02 -5.0317090e-02 1.8285817e-02 
-2.8649472e-02 -5.1254150e-02 1.8376185e-02 
-3.0673953e-02 -5.1386893e-02 -5.6187389e-03 
-3.0875606e-02 -4.7401402e-02 -2.1696383e-02 
-2.9800043e-02 -5.1159576e-02 1.2259953e-02 
-2.6460811e-02 -4.9419966e-02 1.6709384e-02 
-3.0402280e-02 -5.1611118e-02 -1.9831927e-02 
-2.5938254e-02 -4.8391081e-02 1.4428146e-02 
-3.1543538e-02 -5.0686751e-02 -3.3181801e-02 
-3.0448589e-02 -5.1874001e-02 -2.8233029e-02 
-2.9879065e-02 -5.0120641e-02 -1.4848210e-02 
-2.5640147e-02 -4.7322080e-02 1.1403101e-02 
-2.7004480e-02 -4.5576353e-02 -1.5887255e-03 
-2.8663332e-02 -4.9087238e-02 2.9286960e-04 
-3.0362425e-02 -5.0716847e-02 -2.7971180e-02 
-2.9086150e-02 -4.6400510e-02 -1.3636306e-02 
-2.7763002e-02 -4.5164715e-02 -7.5007612e-03 
-2.9274933e-02 -4.8288461e-02 -1.6323684e-02 
-2.9154178e-02 -4.9369715e-02 -3.4640909e-03 
-2.5823137e-02 -4.7276005e-02 1.1618238e-02 
-2.8549137e-02 -4.8868682e-02 3.2740042e-03 
-2.7465845e-02 -4.8855394e-02 1.3617525e-02 
-2.5003858e-02 -4.5278475e-02 7.4524046e-03 
-2.5446355e-02 -4.6407495e-02 9.3749380e-03 
-2.9133741e-02 -4.9725294e-02 -2.1273458e-02 
-2.6585691e-02 -4.7320113e-02 7.6315533e-03 
-2.8440146e-02 -4.4414297e-02 -1.5951930e-02 
-2.6209667e-02 -4.7725420e-02 1.3946430e-02 
-2.7582863e-02 -4.8746906e-02 1.5838472e-02 
-2.8995847e-02 -4.9350031e-02 -2.3925062e-02 
-2.6377365e-02 -4.4479184e-02 -3.1337731e-03 
-2.8748102e-02 -4.9002051e-02 -1.3304113e-02 
-2.7114138e-02 -4.4271857e-02 -9.1840429e-03 
-2.5918223e-02 -4.5047168e-02 1.0891909e-03 
-2.8542437e-02 -4.9322959e-02 -2.3825135e-02 
-2.8683826e-02 -4.9032681e-02 -3.0327756e-02 
-2.6969837e-02 -4.7224533e-02 8.5403137e-03 
-2.4561990e-02 -4.4311311e-02 6.2577724e-03 
-2.5231941e-02 -4.5069564e-02 5.4505784e-03 
-2.4908036e-02 -4.6830039e-02 1.8335532e-02 
-2.6760770e-02 -4.4634454e-02 -7.6456256e-03 
-2.5428098e-02 -4.7086477e-02 1.8464796e-02 
-2.8308840e-02 -4.4888813e-02 -2.0855427e-02 
-2.4244560e-02 -4.6092343e-02 1.7197613e-02 
-2.7698904e-02 -4.7445651e-02 -1.3649305e-02 
-2.7187442e-02 -4.6361670e-02 -7.0557748e-03 
-2.3703668e-02 -4.5174822e-02 1.5361144e-02 
-2.8073393e-02 -4.6528716e-02 -2.5902564e-02 
-2.3319971e-02 -4.4175975e-02 1.2777321e-02 
-2.4008496e-02 -4.2021442e-02 1.3256569e-03 
-2.4796560e-02 -4.1756269e-02 -3.5139250e-03 
-2.3014376e-02 -4.3104637e-02 1.0214521e-02 
-2.5940116e-02 -4.1715845e-02 -1.0923709e-02 
-2.5309358e-02 -4.6168998e-02 1.7478304e-02 
-2.6424605e-02 -4.6085689e-02 1.1568533e-02 
-2.6936641e-02 -4.6771981e-02 -1.9033708e-02 
-2.8222341e-02 -4.4570893e-02 -2.8832315e-02 
-2.3963977e-02 -4.4615854e-02 1.3541666e-02 
-2.7759638e-02 -4.6622451e-02 -3.1918902e-02 
-2.5119849e-02 -4.4820815e-02 8.0373688e-03 
-2.7060499e-02 -4.7032304e-02 -2.7120454e-02 
-2.3264183e-02 -4.2101622e-02 5.4616588e-03 
-2.5095027e-02 -4.3483846e-02 -8.8843744e-04 
-2.7091535e-02 -4.1965667e-02 -1.9395174e-02 
-2.6801899e-02 -4.6003077e-02 -2.0094762e-02 
-2.4589911e-02 -4.5000471e-02 1.4208069e-02 
-2.6261674e-02 -4.5326114e-02 5.3936667e-03 
-2.2883480e-02 -4.2345736e-02 8.5517121e-03 
-2.3590272e-02 -4.0991474e-02 -5.8496674e-04 
-2.3455309e-02 -4.2678092e-02 7.2466852e-03 
-2.4202177e-02 -4.1088615e-02 -5.2012666e-03 
-2.2626849e-02 -4.2498451e-02 1.1371627e-02 
-2.5061823e-02 -4.2519350e-02 -9.1141649e-03 
-2.4317356e-02 -4.3910321e-02 1.2912488e-02 
-2.6057497e-02 -4.2803459e-02 -1.9733192e-02 
-2.3525069e-02 -4.3855004e-02 1.7633101e-02 
-2.2860020e-02 -4.3360598e-02 1.7937722e-02 
-2.5053332e-02 -3.9582305e-02 -1.4725442e-02 
-2.5288913e-02 -4.3731973e-02 -1.1654492e-02 
-2.4289904e-02 -4.3690916e-02 1.4986946e-02 
-2.2225898e-02 -4.2742651e-02 1.7276799e-02 
-2.6380064e-02 -4.1035987e-02 -2.4410851e-02 
-2.5264394e-02 -4.4588119e-02 -2.2859510e-02 
-2.5740717e-02 -4.4697072e-02 -2.9594732e-02 
-2.1655288e-02 -4.2016514e-02 1.5967079e-02 
-2.5078751e-02 -4.3820810e-02 -1.3641607e-02 
-2.1169562e-02 -4.1103903e-02 1.3860135e-02 
-2.4750860e-02 -3.9803512e-02 -1.4942584e-02 
-2.4756752e-02 -4.2804275e-02 -5.7249656e-03 
-2.0878529e-02 -4.0127508e-02 1.1218484e-02 
-2.1603743e-02 -3.9023940e-02 3.1473474e-03 
-2.4690375e-02 -4.2892128e-02 -9.1526471e-03 
-2.1889195e-02 -4.1305669e-02 1.2418437e-02 
-2.1918615e-02 -3.8285028e-02 -6.5971276e-04 
-2.2623388e-02 -3.8107418e-02 -5.1910863e-03 
-2.0768592e-02 -3.8951438e-02 7.2887046e-03 
-2.2394858e-02 -4.1716326e-02 1.3636862e-02 
-2.4510885e-02 -4.1984770e-02 -1.6243797e-02 
-2.1844808e-02 -3.9255831e-02 2.7174344e-03 
-2.4357585e-02 -4.2888373e-02 -2.0791698e-02 
-2.4116548e-02 -4.2273935e-02 -1.5108968e-02 
-2.4089288e-02 -4.1785501e-02 -4.9953265e-03 
-2.2773249e-02 -3.7064761e-02 -9.9364510e-03 
-2.2207612e-02 -4.1324165e-02 1.6548270e-02 
-2.3779280e-02 -4.2128868e-02 -1.8209841e-02 
-2.4283046e-02 -3.7811212e-02 -1.8743489e-02 
-2.3209305e-02 -4.1192975e-02 1.1007857e-02 
-2.2657266e-02 -4.0619869e-02 6.1993073e-03 
-2.5170458e-02 -4.1078951e-02 -2.9942306e-02 
-2.3896793e-02 -4.2425163e-02 -2.5967501e-02 
-2.3051623e-02 -3.9780121e-02 -9.6016815e-03 
-2.4019809e-02 -4.1368235e-02 -2.5742432e-02 
-2.2620540e-02 -3.9646111e-02 -2.2091386e-03 
-2.1718636e-02 -3.6764245e-02 -6.1015650e-03 
-2.0054271e-02 -3.7921071e-02 8.1514716e-03 
-2.1011446e-02 -4.0047273e-02 1.7200023e-02 
-2.0578010e-02 -3.6469948e-02 -3.0599616e-04 
-2.0375017e-02 -3.9562408e-02 1.7086197e-02 
-1.9744501e-02 -3.8917143e-02 1.6232831e-02 
-2.3084782e-02 -3.7736107e-02 -1.7463433e-02 
-1.9227082e-02 -3.8120940e-02 1.4662730e-02 
-2.2774795e-02 -4.0123649e-02 -2.2101834e-02 
-2.0297507e-02 -3.7780885e-02 7.4319830e-03 
-1.8874416e-02 -3.7259355e-02 1.2424664e-02 
-2.1675361e-02 -3.5870742e-02 -1.0139899e-02 
-2.2398734e-02 -3.9634023e-02 -1.2063664e-02 
-2.1730954e-02 -3.8733579e-02 3.4232624e-03 
-1.8664604e-02 -3.6280185e-02 9.6645569e-03 
-2.1991432e-02 -3.5054699e-02 -1.3457285e-02 
-2.2273075e-02 -4.0073685e-02 -2.1883743e-02 
-1.9353382e-02 -3.5114165e-02 1.9354516e-03 
-2.1305811e-02 -3.9003387e-02 1.4250977e-02 
-2.0003427e-02 -3.4749430e-02 -2.4294364e-03 
-2.0665554e-02 -3.4594368e-02 -6.6960729e-03 
-2.0793628e-02 -3.8367320e-02 1.1230919e-02 
-2.0026015e-02 -3.8064059e-02 1.3205230e-02 
-2.1366540e-02 -3.5974793e-02 -9.7676050e-03 
-2.1664947e-02 -3.8145673e-02 -7.4501662e-03 
-1.9509282e-02 -3.7538741e-02 1.2819769e-02 
-2.2535011e-02 -3.9844587e-02 -2.7738240e-02 
-1.9065062e-02 -3.6929004e-02 1.1798631e-02 
-2.1713352e-02 -3.8371343e-02 -1.0699185e-02 
-1.8756008e-02 -3.6237676e-02 1.0197394e-02 
-2.0667858e-02 -3.6313936e-02 -4.4274414e-03 
-2.1577356e-02 -3.8081665e-02 -1.4346117e-02 
-2.1495592e-02 -3.8397640e-02 -1.9426906e-02 
-1.8262949e-02 -3.4659639e-02 6.5634442e-03 
-2.1615544e-02 -3.6781378e-02 -2.1848073e-02 
-2.0891111e-02 -3.7666190e-02 -1.7288223e-02 
-1.9132568e-02 -3.5796273e-02 7.9399133e-03 
-1.9929087e-02 -3.2726206e-02 -8.9393938e-03 
-2.2570239e-02 -3.5640243e-02 -2.6012354e-02 
-2.1110181e-02 -3.8023055e-02 -2.4703076e-02 
-2.1922020e-02 -3.7648920e-02 -2.8851133e-02 
-1.9478960e-02 -3.6830902e-02 1.5732523e-02 
-1.9454380e-02 -3.3046633e-02 -6.1016669e-03 
-2.0263458e-02 -3.6666919e-02 1.0498313e-02 
-1.9265018e-02 -3.4947939e-02 8.2684908e-04 
-1.8660653e-02 -3.6435522e-02 1.6588777e-02 
-1.8019114e-02 -3.5861343e-02 1.6173251e-02 
-1.7240595e-02 -3.3230893e-02 7.0705577e-03 
-2.1061838e-02 -3.2857247e-02 -1.6585015e-02 
-2.0162512e-02 -3.3002287e-02 -1.1956556e-02 
-1.7464319e-02 -3.5183012e-02 1.5053016e-02 
-1.7021112e-02 -3.4380842e-02 1.3305976e-02 
-2.0528695e-02 -3.4747276e-02 -1.7705882e-02 
-1.6749030e-02 -3.3476464e-02 1.0947597e-02 
-1.8984245e-02 -3.4700889e-02 4.4812197e-03 
-1.7647330e-02 -3.1659409e-02 7.3031064e-05 
-1.9795841e-02 -3.5318907e-02 5.8880770e-03 
-1.8265791e-02 -3.1068133e-02 -5.1810592e-03 
-2.0335134e-02 -3.2494564e-02 -1.6950672e-02 
-1.7305683e-02 -3.3952780e-02 1.2058608e-02 
-1.8284226e-02 -3.1946663e-02 -4.2078979e-03 
-1.9534757e-02 -3.5762377e-02 -2.0752823e-02 
-2.0115020e-02 -3.5919134e-02 -2.6859056e-02 
-1.9276923e-02 -3.0802896e-02 -1.2285930e-02 
-1.7339144e-02 -3.2348339e-02 3.5914644e-03 
-1.8734381e-02 -3.3201497e-02 -4.5074909e-03 
-1.6551506e-02 -3.1817678e-02 6.2510399e-03 
-1.8629024e-02 -3.4632012e-02 1.3467457e-02 
-1.9281151e-02 -3.4963053e-02 -1.2233486e-02 
-2.0650625e-02 -3.2003932e-02 -2.1366661e-02 
-1.7419651e-02 -3.3759378e-02 1.2620185e-02 
-1.8947845e-02 -3.4078680e-02 -4.3188520e-03 
-1.8474139e-02 -3.0931696e-02 -8.3768656e-03 
-1.8896909e-02 -3.4122348e-02 -7.7966047e-03 
-1.9009270e-02 -3.2232169e-02 -1.2511390e-02 
-1.7692313e-02 -3.3615235e-02 1.1549829e-02 
-1.8491058e-02 -3.2993857e-02 -5.8799456e-03 
-1.6971242e-02 -3.2341819e-02 6.5936320e-03 
-1.6235860e-02 -3.2118503e-02 9.9798255e-03 
-1.6067754e-02 -3.0182932e-02 3.4624152e-03 
-1.9344462e-02 -3.4241624e-02 -2.2805884e-02 
-1.8808657e-02 -3.4190286e-02 -1.8109754e-02 
-1.8099640e-02 -3.0863261e-02 -8.3092693e-03 
-1.7045984e-02 -3.3371404e-02 1.5825680e-02 
-1.8535236e-02 -3.3581860e-02 -1.2944260e-02 
-1.6430076e-02 -3.2935396e-02 1.5849996e-02 
-1.8607663e-02 -3.3288464e-02 -1.5599584e-02 
-1.8314714e-02 -3.3094000e-02 -4.3758969e-03 
-1.5873909e-02 -3.2330845e-02 1.5150144e-02 
-1.8171899e-02 -3.3497330e-02 -1.6346471e-02 
-1.5406654e-02 -3.1661585e-02 1.3826148e-02 
-1.7948505e-02 -3.2816060e-02 1.0538787e-02 
-1.7066348e-02 -2.9365662e-02 -5.1617324e-03 
-1.7825620e-02 -3.2408364e-02 4.9703042e-03 
-1.8491337e-02 -3.3843037e-02 -2.3401616e-02 
-1.9742103e-02 -3.2537770e-02 -2.6790088e-02 
-1.5022925e-02 -3.0874513e-02 1.1885751e-02 
-1.7384939e-02 -3.1649299e-02 -7.2867970e-04 
-1.7325971e-02 -2.8612910e-02 -8.0025550e-03 
-1.6958699e-02 -3.2528587e-02 1.4865382e-02 
-1.8730206e-02 -2.9154962e-02 -1.6083201e-02 
-1.7267847e-02 -3.2074619e-02 8.7240962e-03 
-1.4813413e-02 -3.0002275e-02 9.4744451e-03 
-1.5669607e-02 -3.1110397e-02 1.0975743e-02 
-1.8551676e-02 -3.0431859e-02 -1.7603198e-02 
-1.5303682e-02 -2.8741758e-02 2.7340720e-03 
-1.6128406e-02 -3.0626666e-02 7.0928298e-03 
-1.4794370e-02 -2.9391104e-02 8.1535764e-03 
-1.7354602e-02 -2.8341355e-02 -1.1568141e-02 
-1.5905425e-02 -2.7422566e-02 -4.1565397e-03 
-1.4200086e-02 -2.8185250e-02 6.7143408e-03 
-1.7038958e-02 -3.0427931e-02 -1.0793692e-02 
-1.7010242e-02 -3.1235807e-02 -1.0710133e-02 
-1.6969496e-02 -2.9539388e-02 -1.0130712e-02 
-1.7026365e-02 -3.1689856e-02 -1.9572807e-02 
-1.6752277e-02 -2.6778221e-02 -1.1262434e-02 
-1.7404521e-02 -3.1544525e-02 -2.4868442e-02 
-1.6155057e-02 -3.0447258e-02 1.2729244e-02 
-1.5546129e-02 -2.7913816e-02 -2.6023129e-03 
-1.4754069e-02 -2.9604919e-02 1.2508833e-02 
-1.5102294e-02 -2.6954956e-02 -2.0956197e-03 
-1.7179871e-02 -3.0277167e-02 -1.8481700e-02 
-1.6432201e-02 -3.0055143e-02 -8.7242778e-03 
-1.4449451e-02 -2.9625596e-02 1.4976620e-02 
-1.4192753e-02 -2.6529077e-02 1.8305788e-03 
-1.4858563e-02 -2.9790062e-02 1.5244687e-02 
-1.7292637e-02 -3.0500855e-02 -2.3798170e-02 
-1.3912383e-02 -2.9023185e-02 1.4087743e-02 
-1.5157374e-02 -2.9546950e-02 1.2211786e-02 
-1.6161704e-02 -2.9270530e-02 -5.7469462e-03 
-1.3384703e-02 -2.7778218e-02 1.0376607e-02 
-1.6414657e-02 -3.0163238e-02 -1.6709941e-02 
-1.3469527e-02 -2.8248014e-02 1.2538058e-02 
-1.6061738e-02 -2.9327748e-02 -7.7484327e-04 
-1.4477074e-02 -2.8027128e-02 6.7241914e-03 
-1.6504377e-02 -2.9869739e-02 -2.0430928e-02 
-1.4224029e-02 -2.7125647e-02 3.4535932e-03 
-1.5852895e-02 -2.9512299e-02 -1.5304749e-02 
-1.6088936e-02 -2.9869439e-02 -2.2071581e-02 
-1.7014980e-02 -2.9506491e-02 -2.5883246e-02 
-1.7569626e-02 -2.7538620e-02 -2.2853605e-02 
-1.5158724e-02 -2.7974997e-02 1.0515134e-03 
-1.3791876e-02 -2.7856695e-02 1.1269062e-02 
-1.4929691e-02 -2.4768423e-02 -7.1946280e-03 
-1.3424765e-02 -2.7271604e-02 1.0240253e-02 
-1.4913035e-02 -2.8111171e-02 7.6796385e-03 
-1.4688603e-02 -2.8527163e-02 1.4030205e-02 
-1.5305256e-02 -2.8275948e-02 9.3592033e-03 
-1.4025364e-02 -2.7332099e-02 7.8998227e-03 
-1.6009305e-02 -2.4802076e-02 -1.4081184e-02 
-1.5298414e-02 -2.4996907e-02 -1.0286007e-02 
-1.2940227e-02 -2.5636708e-02 5.6343595e-03 
-1.5811440e-02 -2.5568135e-02 -1.3710249e-02 
-1.3888436e-02 -2.7592126e-02 1.1851260e-02 
-1.3495775e-02 -2.4344491e-02 -1.1036478e-03 
-1.4115350e-02 -2.6419092e-02 2.2757032e-03 
-1.4106702e-02 -2.4568038e-02 -4.2839493e-03 
-1.4469183e-02 -2.5805693e-02 -4.9797539e-03 
-1.5567575e-02 -2.8397379e-02 -2.3661168e-02 
-1.4525146e-02 -2.6366197e-02 -4.2409538e-03 
-1.3639008e-02 -2.7269073e-02 1.4482698e-02 
-1.4711489e-02 -2.7469182e-02 -9.9930186e-03 
-1.3081023e-02 -2.6942087e-02 1.4624602e-02 
-1.4736007e-02 -2.7879642e-02 -1.8352862e-02 
-1.4590897e-02 -2.7009916e-02 -5.0434358e-03 
-1.2538167e-02 -2.6432822e-02 1.4061483e-02 
-1.4836176e-02 -2.4964960e-02 -1.1805755e-02 
-1.2089459e-02 -2.5799850e-02 1.2889973e-02 
-1.4061853e-02 -2.6337586e-02 5.9993179e-03 
-1.4478617e-02 -2.3010025e-02 -1.0264093e-02 
-1.3479023e-02 -2.6326623e-02 1.0647545e-02 
-1.1777762e-02 -2.5119672e-02 1.1294206e-02 
-1.3965968e-02 -2.6516143e-02 1.2012247e-02 
-1.5879497e-02 -2.4135360e-02 -1.8431751e-02 
-1.2164376e-02 -2.3304792e-02 2.2183349e-03 
-1.4404431e-02 -2.6228454e-02 4.0706899e-03 
-1.3056757e-02 -2.2658788e-02 -3.6268078e-03 
-1.1679571e-02 -2.3822973e-02 6.4370190e-03 
-1.3846884e-02 -2.3249039e-02 -7.0313220e-03 
-1.1518212e-02 -2.4310147e-02 9.1104247e-03 
-1.4936361e-02 -2.5079742e-02 -1.5948500e-02 
-1.2563691e-02 -2.3151951e-02 -2.6907460e-04 
-1.4868729e-02 -2.6607271e-02 -1.9819831e-02 
-1.4175946e-02 -2.6453597e-02 -1.5376485e-02 
-1.3971213e-02 -2.5933275e-02 -1.0547220e-02 
-1.2378970e-02 -2.5251413e-02 1.1165557e-02 
-1.4059960e-02 -2.5624074e-02 -1.2855689e-02 
-1.2035930e-02 -2.4818031e-02 1.0461503e-02 
-1.3412782e-02 -2.3131594e-02 -6.1586993e-03 
-1.1527320e-02 -2.3660075e-02 7.7277278e-03 
-1.3562980e-02 -2.5844326e-02 -1.4286944e-02 
-1.3951119e-02 -2.6218880e-02 -2.0687120e-02 
-1.2396016e-02 -2.2445263e-02 -1.7335407e-03 
-1.2760840e-02 -2.1149503e-02 -6.4914320e-03 
-1.3265386e-02 -2.4513908e-02 4.3132952e-03 
-1.4136599e-02 -2.1578953e-02 -1.3579549e-02 
-1.2583068e-02 -2.4740348e-02 1.3166128e-02 
-1.3163107e-02 -2.4521464e-02 8.8731404e-03 
-1.1568340e-02 -2.1204794e-02 -5.2389200e-04 
-1.3137096e-02 -2.4435809e-02 -5.1761107e-03 
-1.1914607e-02 -2.3535438e-02 6.5048728e-03 
-1.3058523e-02 -2.4184780e-02 -1.6066984e-03 
-1.2590774e-02 -2.4195647e-02 8.9322561e-03 
-1.2030097e-02 -2.1350976e-02 -2.5670677e-03 
-1.1822750e-02 -2.4265483e-02 1.3994859e-02 
-1.1338135e-02 -2.3911858e-02 1.3766180e-02 
-1.2183278e-02 -2.3460371e-02 5.5671893e-03 
-1.0850215e-02 -2.3424475e-02 1.3055497e-02 
-1.2488249e-02 -2.3318777e-02 7.2428829e-04 
-1.3226191e-02 -2.4253363e-02 -1.7214160e-02 
-1.0477736e-02 -2.2828283e-02 1.1756803e-02 
-1.3274681e-02 -2.3445658e-02 -1.4564725e-02 
-1.2546498e-02 -2.3811955e-02 -9.1530448e-03 
-1.1783781e-02 -2.2020509e-02 2.2935297e-04 
-1.0145168e-02 -2.2074202e-02 9.9108666e-03 
-1.2726066e-02 -2.2510154e-02 -9.0909870e-03 
-1.2642816e-02 -2.4305660e-02 -1.7083528e-02 
-1.0378639e-02 -2.1441704e-02 6.4731543e-03 
-1.3350862e-02 -2.4499314e-02 -2.2254193e-02 
-1.2411808e-02 -2.2929423e-02 -6.4841155e-03 
-1.0959184e-02 -2.1564011e-02 3.9339378e-03 
-1.3175763e-02 -2.1107713e-02 -1.2458908e-02 
-1.0440277e-02 -2.0252081e-02 2.3548482e-03 
-1.3668658e-02 -2.1580547e-02 -1.6163157e-02 
-1.1957092e-02 -2.2145746e-02 -1.3136144e-03 
-1.2648978e-02 -2.0746695e-02 -9.5561873e-03 
-1.3473857e-02 -2.3017865e-02 -1.8953264e-02 
-1.1253385e-02 -1.9549558e-02 -3.3223482e-03 
-1.2452815e-02 -1.9534236e-02 -9.3515525e-03 
-1.0744418e-02 -2.2316489e-02 1.0468652e-02 
-1.1952781e-02 -2.2866137e-02 1.1229102e-02 
-1.1819501e-02 -1.9703563e-02 -6.4628315e-03 
-1.0157178e-02 -2.1343863e-02 8.2502970e-03 
-1.2138042e-02 -2.2915158e-02 -1.3982774e-02 
-1.1887124e-02 -2.2456536e-02 -9.4599845e-03 
-1.0895340e-02 -2.2083985e-02 1.0707027e-02 
-1.1163257e-02 -2.2077870e-02 9.9696843e-03 
-1.1626743e-02 -2.1913711e-02 5.6045549e-03 
-9.4630206e-03 -1.9804336e-02 6.0404860e-03 
-1.1645231e-02 -2.0317676e-02 -6.6365693e-03 
-1.2543927e-02 -2.2579687e-02 -1.9234581e-02 
-1.1576848e-02 -2.2339728e-02 -1.3179034e-02 
-1.1599377e-02 -2.1612627e-02 -2.3259972e-03 
-1.3065662e-02 -2.1065911e-02 -1.8651584e-02 
-1.0694869e-02 -2.1701809e-02 1.3092300e-02 
-9.9732401e-03 -1.8954545e-02 8.6787093e-04 
-9.9619851e-03 -1.8367231e-02 -3.0968789e-04 
-1.0203090e-02 -2.1484643e-02 1.3266578e-02 
-1.1419210e-02 -2.1157784e-02 2.9155880e-03 
-9.6973106e-03 -2.1020699e-02 1.2903822e-02 
-1.3137756e-02 -2.1250762e-02 -2.1931233e-02 
-1.1738935e-02 -2.2244865e-02 -1.9304948e-02 
-1.1396087e-02 -2.1055985e-02 6.1284122e-03 
-1.0892126e-02 -1.7828681e-02 -5.8423067e-03 
-1.3344233e-02 -2.0056918e-02 -1.9560365e-02 
-1.0548501e-02 -1.8260045e-02 -3.8006699e-03 
-9.9838143e-03 -1.9883130e-02 4.9910266e-03 
-1.1267649e-02 -2.1070391e-02 8.7699750e-03 
-9.2696240e-03 -2.0490749e-02 1.1992584e-02 
-1.0717257e-02 -2.1189393e-02 1.2295609e-02 
-1.2517989e-02 -1.8376928e-02 -1.4498996e-02 
-8.9589497e-03 -1.9901268e-02 1.0430989e-02 
-1.0428063e-02 -1.9733468e-02 1.1482931e-03 
-1.2821218e-02 -1.8798547e-02 -1.7091768e-02 
-1.2437453e-02 -2.1446371e-02 -2.2015568e-02 
-8.6343316e-03 -1.8968360e-02 8.3533768e-03 
-1.0480492e-02 -1.8203447e-02 -4.4412706e-03 
-9.7693708e-03 -1.9700926e-02 7.4146972e-03 
-1.0618265e-02 -2.0468501e-02 -8.3618611e-03 
-1.1570983e-02 -1.9634584e-02 -1.3786842e-02 
-1.0198012e-02 -1.9717485e-02 4.9700565e-03 
-1.0769486e-02 -2.0938577e-02 -1.5721567e-02 
-9.1882311e-03 -1.9507613e-02 9.7018396e-03 
-8.7883063e-03 -1.7396199e-02 2.4710807e-03 
-8.8562248e-03 -1.7972523e-02 4.1032005e-03 
-9.5418235e-03 -1.6641147e-02 -2.8153225e-03 
-1.0422600e-02 -1.9556886e-02 2.4985818e-03 
-9.4442200e-03 -1.7137257e-02 -1.3216013e-03 
-9.5809242e-03 -1.7754087e-02 -6.2778842e-04 
-1.0384158e-02 -1.9576445e-02 -4.1440907e-03 
-8.6838184e-03 -1.8349748e-02 6.9348370e-03 
-1.0843130e-02 -1.7343868e-02 -9.5316675e-03 
-9.8594120e-03 -1.9123701e-02 8.7155048e-03 
-1.0807456e-02 -1.6191149e-02 -9.9568665e-03 
-1.1928063e-02 -1.8098224e-02 -1.6864661e-02 
-9.0819672e-03 -1.7593572e-02 2.0143832e-03 
-1.0259979e-02 -1.9274510e-02 -1.3252593e-02 
-1.1005658e-02 -1.9252634e-02 -1.7405210e-02 
-9.8620579e-03 -1.6088463e-02 -6.3953004e-03 
-9.0352232e-03 -1.8816881e-02 1.2520988e-02 
-8.2027391e-03 -1.8354777e-02 1.1890374e-02 
-8.5838372e-03 -1.8565353e-02 1.2478263e-02 
-9.2184320e-03 -1.8350039e-02 8.8703446e-03 
-8.4446622e-03 -1.6161744e-02 9.1240049e-04 
-8.3646309e-03 -1.5598566e-02 -2.8487410e-05 
-9.6402895e-03 -1.8369997e-02 9.9170348e-03 
-7.6253619e-03 -1.6344123e-02 5.5580796e-03 
-1.0597172e-02 -1.9226242e-02 -1.9839214e-02 
-1.0917448e-02 -1.6406832e-02 -1.3756407e-02 
-7.6174601e-03 -1.7409099e-02 1.0763504e-02 
-7.4237576e-03 -1.6819937e-02 8.9228041e-03 
-9.0831900e-03 -1.4763894e-02 -5.2071456e-03 
-1.0488375e-02 -1.6763935e-02 -1.2902129e-02 
-9.2158681e-03 -1.8139776e-02 -1.0796342e-02 
-9.0432810e-03 -1.7917089e-02 1.1420975e-02 
-8.4137954e-03 -1.7525403e-02 9.9794408e-03 
-1.0553543e-02 -1.5053034e-02 -1.2528939e-02 
-9.2224376e-03 -1.7011710e-02 -3.8384721e-03 
-1.1002299e-02 -1.5489810e-02 -1.4902759e-02 
-9.6496884e-03 -1.8479588e-02 -1.7361438e-02 
-1.1280237e-02 -1.6049227e-02 -1.6925005e-02 
-9.1815097e-03 -1.7169608e-02 1.1295213e-03 
-9.2817983e-03 -1.7215438e-02 4.3316362e-03 
-9.2418762e-03 -1.7248435e-02 7.0223128e-03 
-1.0967281e-02 -1.7821111e-02 -2.0216202e-02 
-1.1233751e-02 -1.7308699e-02 -1.9599047e-02 
-8.7015778e-03 -1.5849840e-02 -1.9306913e-03 
-1.0568039e-02 -1.8130295e-02 -2.0179501e-02 
-8.9724082e-03 -1.7166868e-02 -2.4607645e-03 
-8.8343238e-03 -1.7217195e-02 -6.1096353e-03 
-8.2728332e-03 -1.4481372e-02 -2.5158646e-03 
-7.3410925e-03 -1.4718006e-02 2.4924118e-03 
-8.8843396e-03 -1.6926693e-02 5.8456911e-03 
-9.5432587e-03 -1.6860833e-02 -1.1765227e-02 
-9.0419455e-03 -1.7833896e-02 -1.4270167e-02 
-1.0631218e-02 -1.6580980e-02 -1.6563358e-02 
-1.1099886e-02 -1.6182493e-02 -1.8132608e-02 
-8.5555194e-03 -1.6438073e-02 2.1211701e-03 
-8.8376692e-03 -1.6588677e-02 1.5979944e-03 
-8.7909512e-03 -1.6944366e-02 -8.4848600e-03 
-9.4606057e-03 -1.4406688e-02 -8.8879308e-03 
-9.3330797e-03 -1.7155472e-02 -1.5437690e-02 
-8.1715044e-03 -1.6723331e-02 1.1723601e-02 
-7.7635851e-03 -1.6642360e-02 1.1940107e-02 
-7.8553539e-03 -1.4324968e-02 -1.4343376e-03 
-7.4378522e-03 -1.6235074e-02 1.0319992e-02 
-9.6510593e-03 -1.4232646e-02 -1.1570602e-02 
-8.5163312e-03 -1.5932973e-02 -7.0626200e-03 
-6.8750684e-03 -1.5066732e-02 6.9703120e-03 
-1.0121317e-02 -1.4985749e-02 -1.4951305e-02 
-7.2569032e-03 -1.3514779e-02 -1.6832390e-04 
-7.5537483e-03 -1.5566508e-02 7.0334938e-03 
-8.3711669e-03 -1.6134726e-02 -1.0929153e-02 
-7.6446561e-03 -1.5766488e-02 9.6903061e-03 
-8.0977362e-03 -1.3115816e-02 -5.3170132e-03 
-8.0386885e-03 -1.5388231e-02 -2.5588074e-03 
-8.9040566e-03 -1.4089668e-02 -9.6506076e-03 
-6.7858649e-03 -1.3669119e-02 2.5690175e-03 
-9.3192440e-03 -1.5818629e-02 -1.6132180e-02 
-8.4267436e-03 -1.4554861e-02 -8.4197493e-03 
-7.5444919e-03 -1.4031422e-02 -1.2435562e-03 
-7.7340761e-03 -1.4628747e-02 -1.4986106e-03 
-5.9890980e-03 -1.3288524e-02 5.0584134e-03 
-5.8733039e-03 -1.3837903e-02 7.5603849e-03 
-6.3036028e-03 -1.2636888e-02 1.9914873e-03 
-6.0357512e-03 -1.4418318e-02 9.4929151e-03 
-6.7989328e-03 -1.2166303e-02 -1.3707347e-03 
-6.3709440e-03 -1.4826172e-02 1.0777022e-02 
-7.4935597e-03 -1.1996728e-02 -4.7143395e-03 
-6.8278406e-03 -1.5090126e-02 1.1398718e-02 
-8.1295883e-03 -1.1927187e-02 -7.5638890e-03 
-7.2157672e-03 -1.5073830e-02 1.1366006e-02 
-8.7572150e-03 -1.2132923e-02 -1.0285446e-02 
-7.5293612e-03 -1.4979866e-02 1.0671495e-02 
-7.1749017e-03 -1.4143343e-02 3.1644248e-03 
-9.2719067e-03 -1.2488931e-02 -1.2700732e-02 
-7.7093411e-03 -1.4796855e-02 9.5098279e-03 
-9.6487924e-03 -1.3019070e-02 -1.4812533e-02 
-7.7897748e-03 -1.4541564e-02 7.7482206e-03 
-9.8250899e-03 -1.3580828e-02 -1.6485766e-02 
-7.7713667e-03 -1.4340761e-02 5.5460753e-03 
-9.7994497e-03 -1.4167145e-02 -1.7679863e-02 
-7.6777162e-03 -1.4198488e-02 2.7458689e-03 
-9.5807286e-03 -1.4706857e-02 -1.8427668e-02 
-7.4564726e-03 -1.4142927e-02 -4.0247067e-04 
-9.2048710e-03 -1.5060451e-02 -1.8501500e-02 
-7.2629838e-03 -1.4251302e-02 -3.7903292e-03 
-8.7275691e-03 -1.5265986e-02 -1.8103786e-02 
-6.5844245e-03 -1.3392732e-02 3.6111420e-03 
-7.1730409e-03 -1.4470327e-02 -6.9858194e-03 
-8.2559548e-03 -1.5298056e-02 -1.6873153e-02 
-7.2305459e-03 -1.4736419e-02 -1.0107839e-02 
-7.8177294e-03 -1.5185166e-02 -1.5095796e-02 
-7.4952622e-03 -1.5038931e-02 -1.2720541e-02 
-6.9621252e-03 -1.3992933e-02 6.7736870e-03 
-7.3440447e-03 -1.3482777e-02 -4.7707027e-03 
-6.7953058e-03 -1.1697382e-02 -2.6725177e-03 
-5.9826686e-03 -1.3307616e-02 7.2553395e-03 
-8.5477354e-03 -1.2129784e-02 -1.1582973e-02 
-7.1657007e-03 -1.2085424e-02 -4.4902908e-03 
-7.1078101e-03 -1.3445866e-02 4.6870983e-03 
-8.8340538e-03 -1.2922569e-02 -1.4299870e-02 
-6.9978521e-03 -1.3465601e-02 6.2060906e-03 
-7.0697879e-03 -1.3282301e-02 2.5709253e-03 
-6.9777099e-03 -1.3220168e-02 2.0557801e-04 
-6.8523097e-03 -1.3400326e-02 -4.8629083e-03 
-7.5737922e-03 -1.3962551e-02 -1.3289254e-02 
-6.8559898e-03 -1.3509062e-02 -7.5205672e-03 
-6.2710471e-03 -1.3320256e-02 9.1437371e-03 
-7.6271966e-03 -1.1020488e-02 -8.5824449e-03 
-6.9561512e-03 -1.3270433e-02 -1.0616669e-02 
-6.5269489e-03 -1.2315937e-02 -1.1761808e-03 
-8.2295332e-03 -1.2833717e-02 -1.4806501e-02 
-7.9824459e-03 -1.3124595e-02 -1.4907669e-02 
-6.4902566e-03 -1.2306491e-02 1.4214370e-03 
-7.6470799e-03 -1.3263917e-02 -1.4501709e-02 
-6.4642671e-03 -1.2388068e-02 -4.5159571e-03 
-7.4986308e-03 -1.1852835e-02 -1.0805991e-02 
-5.8051865e-03 -1.2016691e-02 5.4874909e-03 
-7.0745931e-03 -9.5736720e-03 -8.1405574e-03 
-4.8258365e-03 -1.1851114e-02 9.2330035e-03 
-7.6524070e-03 -9.8880073e-03 -1.0560947e-02 
-5.2270843e-03 -1.2197470e-02 1.0167298e-02 
-5.5745631e-03 -1.0602021e-02 1.9795564e-04 
-7.0528039e-03 -1.2005312e-02 -1.0979726e-02 
-8.0639971e-03 -1.0322687e-02 -1.2603556e-02 
-8.3427615e-03 -1.0844575e-02 -1.4375890e-02 
-8.4161628e-03 -1.1434454e-02 -1.5664108e-02 
-5.9493408e-03 -9.2392405e-03 -4.2085531e-03 
-4.4405502e-03 -1.0371790e-02 4.5973402e-03 
-6.3610021e-03 -1.1747655e-02 6.0569574e-03 
-8.2968809e-03 -1.2015494e-02 -1.6465981e-02 
-7.9401517e-03 -1.2473048e-02 -1.6822450e-02 
-6.1970884e-03 -1.1485219e-02 3.7675870e-03 
-6.0216398e-03 -1.1999373e-02 9.6038515e-03 
-7.5269341e-03 -1.2773337e-02 -1.6623436e-02 
-5.5820802e-03 -1.2014458e-02 1.0218041e-02 
-6.9610225e-03 -1.2882550e-02 -1.5834920e-02 
-6.1963983e-03 -1.1706420e-02 8.1643509e-03 
-5.7258620e-03 -1.1739625e-02 -4.8683984e-03 
-6.4975503e-03 -1.2749361e-02 -1.4383585e-02 
-4.3102810e-03 -1.0904475e-02 7.1220240e-03 
-5.9596994e-03 -1.1337557e-02 1.0485636e-03 
-5.8028349e-03 -1.1427175e-02 -1.9494068e-03 
-5.5779838e-03 -1.1802138e-02 -8.3724121e-03 
-5.5790362e-03 -1.0994069e-02 3.5002856e-03 
-5.8025387e-03 -1.2120579e-02 -1.1249550e-02 
-4.7680004e-03 -1.0743844e-02 6.8022008e-03 
-7.3970906e-03 -1.0843429e-02 -1.3205066e-02 
-5.3225849e-03 -1.0409753e-02 1.2441414e-03 
-4.5509865e-03 -8.7353252e-03 3.0698630e-04 
-5.6965332e-03 -1.0775715e-02 3.3670815e-03 
-5.7629617e-03 -1.0812714e-02 -7.3907981e-03 
-4.3941480e-03 -9.4654784e-03 3.0404029e-03 
-5.3993403e-03 -1.0373537e-02 1.4117084e-03 
-5.3346283e-03 -1.0371899e-02 -1.0111721e-03 
-5.9297648e-03 -9.0654325e-03 -5.9064152e-03 
-5.5404906e-03 -9.5376903e-03 -4.1976981e-03 
-4.9813627e-03 -1.0364562e-02 7.0513412e-03 
-5.4002763e-03 -8.1236716e-03 -4.7859563e-03 
-5.5618854e-03 -9.7451713e-03 -5.9943437e-03 
-6.1662714e-03 -8.2834810e-03 -7.7633117e-03 
-5.0075394e-03 -1.0200200e-02 -4.3645562e-03 
-5.7580629e-03 -1.0800824e-02 -1.1773882e-02 
-6.7385631e-03 -9.2085646e-03 -1.1078479e-02 
-5.0903545e-03 -9.9230427e-03 5.6360289e-03 
-6.1981617e-03 -1.0521430e-02 -1.2737140e-02 
-6.4170961e-03 -7.7101220e-03 -1.0055635e-02 
-4.6170172e-03 -8.1381993e-03 -1.9518465e-03 
-6.9236155e-03 -9.5038153e-03 -1.4527813e-02 
-5.0256266e-03 -9.2042247e-03 4.6434002e-03 
-3.7244020e-03 -9.3856445e-03 8.6468477e-03 
-4.4067604e-03 -9.1937939e-03 -3.3448020e-03 
-4.9348497e-03 -9.0913484e-03 6.2590684e-03 
-4.2939023e-03 -9.4146971e-03 -6.1859861e-03 
-6.6345809e-03 -7.8855604e-03 -1.1862610e-02 
-6.7687365e-03 -8.4717562e-03 -1.3268834e-02 
-5.6137647e-03 -1.0349902e-02 -1.4103255e-02 
-6.4404430e-03 -9.5334435e-03 -1.4637564e-02 
-5.3041377e-03 -6.5698810e-03 -7.0856954e-03 
-4.0302561e-03 -8.4652025e-03 3.5230150e-03 
-4.0112548e-03 -9.1032134e-03 8.9116152e-03 
-4.4776797e-03 -8.4328279e-03 2.1949764e-03 
-4.3267044e-03 -6.3099391e-03 -3.5737830e-03 
-4.3315105e-03 -8.4928945e-03 2.3235751e-03 
-2.8727578e-03 -7.4385880e-03 3.9791577e-03 
-4.4680219e-03 -8.8687697e-03 8.2031731e-03 
-4.2184810e-03 -8.4123537e-03 -4.3547215e-04 
-3.5583607e-03 -7.9421019e-03 3.3596985e-03 
-4.2464291e-03 -8.9221187e-03 -6.7489692e-03 
-4.6155541e-03 -9.6478639e-03 -1.2268184e-02 
-4.1076373e-03 -8.2163690e-03 -3.5597666e-03 
-3.9842860e-03 -9.1262590e-03 -9.4211213e-03 
-2.7133003e-03 -7.7740527e-03 6.7441221e-03 
-3.9208462e-03 -7.6969047e-03 5.2537594e-04 
-4.6964735e-03 -8.3007365e-03 -8.3396072e-03 
-4.9859895e-03 -7.3648207e-03 -7.6636658e-03 
-3.1306427e-03 -6.6992431e-03 1.2686348e-03 
-5.4421709e-03 -8.9789685e-03 -1.3763430e-02 
-5.5189137e-03 -7.8577790e-03 -1.1170293e-02 
-4.0701181e-03 -7.6597128e-03 3.0588179e-03 
-3.5926476e-03 -6.9235167e-03 1.7774268e-04 
-4.8242980e-03 -6.0424409e-03 -7.0680147e-03 
-3.1633228e-03 -7.4463524e-03 5.5885008e-03 
-4.1488977e-03 -7.1627893e-03 -4.2958236e-03 
-3.4667775e-03 -7.4421461e-03 -3.9583929e-03 
-5.2776430e-03 -6.5596579e-03 -9.8202415e-03 
-3.5196000e-03 -7.0173480e-03 -5.4573716e-04 
-2.6086674e-03 -5.2031763e-03 2.9696030e-06 
-3.9306469e-03 -6.1962064e-03 -4.2072698e-03 
-3.3948603e-03 -5.4671494e-03 -2.2370145e-03 
-3.5916367e-03 -6.9930339e-03 5.0750808e-03 
-3.1910725e-03 -6.7389682e-03 5.1073800e-03 
-3.4053887e-03 -7.2975829e-03 -8.0795158e-03 
-2.8502448e-03 -5.3455872e-03 -5.7696411e-04 
-4.4589732e-03 -4.4645872e-03 -7.4810493e-03 
-3.4096490e-03 -5.9417430e-03 4.4517200e-03 
-5.0774170e-03 -5.4384200e-03 -1.0247838e-02 
-4.0802876e-03 -6.5973271e-03 -9.5991045e-03 
-3.3738588e-03 -4.2047203e-03 -4.3595470e-03 
-4.8773163e-03 -6.5260320e-03 -1.1740484e-02 
-2.4167483e-03 -6.4535746e-03 6.9736880e-03 
-3.6478597e-03 -7.3295482e-03 -1.1281449e-02 
-2.4478454e-03 -5.9760627e-03 -3.7095309e-03 
-2.7629936e-03 -5.2727270e-03 7.9249986e-04 
-2.5988768e-03 -5.7958271e-03 -4.7198501e-03 
-2.6178258e-03 -3.3881536e-03 -2.7649128e-03 
-3.0440269e-03 -5.7870043e-03 6.3713505e-03 
-1.8965867e-03 -4.8535201e-03 2.6366415e-03 
-1.3588401e-03 -4.6108118e-03 3.2172853e-03 
-2.3465948e-03 -5.1772976e-03 2.5817652e-03 
-2.8247542e-03 -5.4563684e-03 -4.7613308e-03 
-2.6736576e-03 -5.2393335e-03 -1.5753903e-04 
-2.6436725e-03 -5.1523391e-03 1.6266943e-03 
-2.5376312e-03 -5.2307025e-03 -1.3044057e-03 
-3.1985336e-03 -5.1518776e-03 -6.0122632e-03 
-2.0938679e-03 -6.1832266e-03 -7.3432964e-03 
-3.6328195e-03 -4.9028550e-03 -7.4917665e-03 
-2.9106280e-03 -4.4135321e-03 -4.0876241e-03 
-2.5402163e-03 -4.6845516e-03 -2.8152380e-03 
-1.2564542e-03 -4.7513759e-03 4.8552626e-03 
-2.3633519e-03 -4.2101345e-03 -1.7246986e-03 
-2.8563442e-03 -5.4569975e-03 -7.4614519e-03 
-3.2261782e-03 -3.7110073e-03 -5.3705294e-03 
-2.2987304e-03 -4.6350528e-03 -2.6119226e-03 
-1.7364377e-03 -3.5635480e-03 1.4585660e-04 
-1.7782961e-03 -4.8449859e-03 4.6323990e-03 
-2.1744107e-03 -4.3641762e-03 3.0840295e-03 
-1.0335855e-03 -2.5598286e-03 6.9873128e-04 
-2.9828509e-03 -5.4067727e-03 -9.6294768e-03 
-2.7818212e-03 -2.1850793e-03 -4.6876702e-03 
-1.8779639e-03 -4.4726920e-03 -5.7292306e-03 
-2.0246343e-03 -2.7338394e-03 -2.3634555e-03 
-1.8598561e-03 -4.9481266e-03 -7.9467651e-03 
-3.4986499e-03 -2.7294024e-03 -6.9236779e-03 
-1.5415772e-03 -3.0862361e-03 2.6735066e-07 
-1.3480664e-03 -2.8448999e-03 3.5835829e-04 
-2.6031318e-03 -2.1593433e-03 -4.6352372e-03 
-1.4130005e-03 -3.1720218e-03 -4.4778769e-04 
-1.6018800e-03 -2.6274079e-03 -1.4995582e-03 
-1.7625882e-03 -2.9247245e-03 -3.6251936e-03 
-1.2541132e-03 -3.4391475e-03 5.0615920e-03 
-1.2853078e-03 -2.6929998e-03 -3.7918429e-04 
-2.3148607e-03 -3.2535375e-03 -5.9180888e-03 
-1.6128761e-03 -2.3326518e-03 2.4486741e-03 
-1.6556713e-03 -3.2208541e-03 -5.3080427e-03 
-1.9499169e-04 -2.0552177e-03 2.2186714e-03 
-1.8969662e-03 -2.0381813e-03 -3.5242715e-03 
-1.3216031e-03 -1.0445708e-03 -1.8503405e-03 
-1.5602499e-03 -2.8863307e-03 4.3131621e-03 
-8.8891143e-04 -2.3265374e-03 1.6080776e-03 
-4.3488355e-04 -2.3027689e-03 -1.8786405e-03 
-4.6100965e-04 -2.8320113e-03 4.1419086e-03 
-5.9731834e-04 -3.2761581e-03 -5.0016255e-03 
-9.3371130e-04 -2.4039589e-03 -2.0123560e-03 
-5.7614973e-04 -9.6532697e-04 -3.2227708e-04 
-2.3025398e-03 -9.8508515e-04 -4.2523844e-03 
-2.7146796e-03 -2.3222512e-03 -6.3766292e-03 
-2.1379781e-03 -3.1902925e-03 -6.7372881e-03 
-1.2339201e-03 -3.5409587e-03 -6.3094511e-03 
-8.6481910e-04 -1.6033603e-03 7.5075205e-04 
-3.3862470e-04 -1.4389376e-03 1.2668819e-03 
-8.5594069e-04 -1.9736290e-03 -2.5981315e-03 
-1.1355432e-03 -7.5815490e-04 -1.9445739e-03 
-8.0408825e-04 -1.5731248e-03 -1.0651536e-03 
-9.4897905e-04 -1.6579794e-03 1.8710224e-03 
-7.1097683e-04 -1.0383348e-03 -5.9118262e-04 
-8.0256700e-04 -1.9393738e-03 2.6534179e-03 
-8.2195264e-05 -7.8827626e-04 5.0409045e-04 
-1.3730798e-03 -1.4855881e-03 -2.9102862e-03 
-5.9695315e-04 -1.3308759e-03 4.9919408e-04 
-5.9175486e-04 -1.1587808e-03 -3.1508062e-05 
-6.3426694e-04 -1.4898280e-03 -1.5444042e-04 
-1.5719753e-03 -9.7174704e-04 -3.0228689e-03 
-3.6975936e-04 -1.3645454e-03 -8.1199926e-04 
-1.4900262e-03 -2.2724867e-03 -4.7383993e-03 
-3.4449491e-04 -1.5792530e-03 2.1691856e-03 
-2.2475937e-04 -1.8959738e-03 -2.8769814e-03 
-8.1229483e-04 -8.9935336e-04 -1.4674689e-03 
-1.6187434e-03 -1.5469190e-03 -3.9888211e-03 
-9.1823889e-04 -2.0850592e-03 -3.9570043e-03 
-8.3044515e-04 -1.3293675e-03 -2.7433597e-03 
-2.0657149e-03 -8.2196423e-04 -3.9867475e-03 
-3.7244312e-04 -1.5999170e-03 -2.8423744e-03 
3.0401780e-04 -6.4487685e-04 1.2613389e-03 
-9.2593761e-04 -8.7634014e-04 1.9945710e-03 
2.6274248e-04 -1.1537615e-03 2.1653806e-03 
-5.6250440e-04 1.8007350e-04 -1.0912247e-03 
-8.7164540e-04 -1.2645226e-03 2.5542222e-03 
-2.3782700e-04 -4.9948337e-04 8.5358522e-05 
-1.1889404e-03 1.1464991e-04 -2.2023963e-03 
-3.8113218e-04 -1.4600919e-03 2.5453607e-03 
3.5966648e-04 -1.0972972e-03 -1.8386662e-03 
2.5352897e-04 -1.7529507e-03 -3.0082110e-03 
-5.2695879e-04 -4.9260625e-04 1.0204228e-03 
-4.6165730e-04 -6.2913686e-04 -1.2382857e-03 
-1.1658264e-05 -1.2614089e-03 2.2460825e-03 
-7.9001198e-05 -2.0259703e-03 -3.5890450e-03 
-3.5899211e-04 -1.2185635e-04 -6.2681898e-04 
-2.1371563e-04 -7.1847159e-04 7.2708650e-04 
1.6242312e-04 -5.7138421e-04 -8.0141908e-04 
-1.8283502e-03 -1.0637389e-03 -3.6441190e-03 
-1.4797753e-03 -1.2369710e-04 -2.5799125e-03 
-1.4296239e-03 -1.8277161e-03 -3.9607976e-03 
-1.2262931e-04 -7.7704841e-04 -8.3158258e-04 
-1.0492149e-03 -2.0211090e-03 -3.9078300e-03 
-6.2186219e-04 1.2670024e-04 -1.1834373e-03 
-1.5758725e-03 -1.3218620e-03 -3.5324413e-03 
-2.2932322e-04 -4.0409897e-04 1.9702526e-04 
-1.1875444e-04 -1.7817869e-04 -2.3614190e-04 
-4.8933044e-04 -1.9410782e-03 -3.5070048e-03 
-6.7477406e-04 -7.8470737e-04 -1.8318755e-03 
-1.6714558e-04 -4.2624530e-04 2.2539200e-04 
-4.1926486e-04 -3.8935727e-04 9.5351646e-04 
-1.1187426e-03 -3.9738152e-04 -2.1216504e-03 
-1.9647190e-04 9.5648638e-06 -4.4527743e-04 
-7.4239256e-04 -1.1738256e-03 -2.4828222e-03 
1.9945914e-04 -2.1554796e-04 6.2919641e-04 
-2.3983432e-04 -1.2679562e-06 -5.1503483e-04 
-2.4199013e-04 -5.0555699e-04 1.0019102e-03 
1.8846327e-04 2.2953613e-04 9.2660186e-05 
4.8859201e-06 -5.7290733e-04 1.0514361e-03 
1.6711284e-04 -7.8794110e-04 -1.4142903e-03 
1.0328042e-04 -3.0138911e-04 -4.1526899e-04 
-1.8847999e-04 -2.5137511e-04 -4.8162663e-04 
-6.0426533e-05 -4.0478556e-04 -9.5233461e-04 
-2.2364568e-04 -1.9089862e-04 -5.5578904e-04 
-7.6314644e-04 -6.4494280e-04 -1.8014120e-03 
3.6202365e-04 -4.8384801e-04 9.8044018e-04 
-2.4423693e-04 -9.2203275e-04 -1.7570949e-03 
-3.9896651e-05 -2.4672537e-04 -1.8275510e-04 
-3.9546689e-04 1.3884116e-04 -7.5848703e-04 
3.8732740e-04 -1.3757616e-04 4.9850246e-04 
-2.7960943e-04 -6.4198452e-04 1.1964901e-03 
-5.0411571e-04 -2.8882315e-04 9.4928476e-04 
-2.0047360e-04 3.7010934e-04 -4.7732081e-04 
-4.1514789e-04 -4.5947987e-04 1.0844705e-03 
1.1985081e-04 -6.0924719e-04 9.1803720e-04 
-8.2694489e-05 -6.8456383e-04 1.1006662e-03 
-3.7851231e-04 -5.7188416e-05 5.7911704e-04 
-1.5412245e-04 6.3922802e-05 2.0274911e-04 
5.1220664e-04 -5.3651450e-04 -1.0416348e-03 
1.2532783e-04 3.7834230e-05 -1.2907383e-04 
-5.9503544e-04 3.7031146e-04 -9.1725122e-04 
4.0551273e-05 -5.4974644e-04 -1.0561070e-03 
-8.1032206e-04 2.3823594e-04 -1.1464254e-03 
3.3722256e-04 -1.3740790e-04 -4.5057683e-04 
-9.7223447e-04 -1.5603297e-05 -1.3447279e-03 
4.0094525e-04 -8.5938215e-04 -1.3684478e-03 
-1.0517001e-03 -3.1075027e-04 -1.6312732e-03 
-2.9935018e-04 -4.0154133e-05 -7.0958975e-04 
-9.1778568e-04 -5.8910018e-04 -1.5288416e-03 
-8.2581193e-04 -8.6861337e-04 -1.7590891e-03 
-6.0207385e-04 -9.9508720e-04 -1.7404447e-03 
3.6086076e-05 -6.5536697e-05 1.0141995e-04 
-3.6794011e-04 -1.1101937e-03 -1.7247719e-03 
-8.6072330e-05 -1.0372492e-03 -1.4851702e-03 
1.5026944e-04 -9.9799247e-04 -1.5110470e-03 
-1.6504587e-04 2.2001132e-04 -3.3321042e-04 
-3.5991499e-05 -1.2423855e-04 -3.3722358e-04 
-1.2660038e-04 7.9904027e-07 1.5102874e-04 
-3.4967574e-04 8.6366512e-05 -5.3401280e-04 
7.7436547e-05 -1.8492535e-04 -4.3004722e-04 
0.0000000e+00 0.0000000e+00 0.0000000e+00 
0.0000000e+00 0.0000000e+00 0.0000000e+00 
0.0000000e+00 0.0000000e+00 0.0000000e+00 
0.0000000e+00 0.0000000e+00 0.0000000e+00 
0.0000000e+00 0.0000000e+00 0.0000000e+00 
0.0000000e+00 0.0000000e+00 0.0000000e+00 
0.0000000e+00 0.0000000e+00 0.0000000e+00 
0.0000000e+00 0.0000000e+00 0.0000000e+00 
0.0000000e+00 0.0000000e+00 0.0000000e+00 
0.0000000e+00 0.0000000e+00 0.0000000e+00 
0.0000000e+00 0.0000000e+00 0.0000000e+00 
0.0000000e+00 0.0000000e+00 0.0000000e+00 
0.0000000e+00 0.0000000e+00 0.0000000e+00 
0.0000000e+00 0.0000000e+00 0.0000000e+00 
0.0000000e+00 0.0000000e+00 0.0000000e+00 
0.0000000e+00 0.0000000e+00 0.0000000e+00 
0.0000000e+00 0.0000000e+00 0.0000000e+00 
0.0000000e+00 0.0000000e+00 0.0000000e+00 
0.0000000e+00 0.0000000e+00 0.0000000e+00 
0.0000000e+00 0.0000000e+00 0.0000000e+00 
0.0000000e+00 0.0000000e+00 0.0000000e+00 
0.0000000e+00 0.0000000e+00 0.0000000e+00 
0.0000000e+00 0.0000000e+00 0.0000000e+00 
0.0000000e+00 0.0000000e+00 0.0000000e+00 
0.0000000e+00 0.0000000e+00 0.0000000e+00 
0.0000000e+00 0.0000000e+00 0.0000000e+00 
0.0000000e+00 0.0000000e+00 0.0000000e+00 
0.0000000e+00 0.0000000e+00 0.0000000e+00 
0.0000000e+00 0.0000000e+00 0.0000000e+00 
0.0000000e+00 0.0000000e+00 0.0000000e+00 
0.0000000e+00 0.0000000e+00 0.0000000e+00 
0.0000000e+00 0.0000000e+00 0.0000000e+00 
0.0000000e+00 0.0000000e+00 0.0000000e+00 
0.0000000e+00 0.0000000e+00 0.0000000e+00 
0.0000000e+00 0.0000000e+00 0.0000000e+00 
0.0000000e+00 0.0000000e+00 0.0000000e+00 
0.0000000e+00 0.0000000e+00 0.0000000e+00 
0.0000000e+00 0.0000000e+00 0.0000000e+00 
0.0000000e+00 0.0000000e+00 0.0000000e+00 
0.0000000e+00 0.0000000e+00 0.0000000e+00 
0.0000000e+00 0.0000000e+00 0.0000000e+00 
0.0000000e+00 0.0000000e+00 0.0000000e+00 
0.0000000e+00 0.0000000e+00 0.0000000e+00 
0.0000000e+00 0.0000000e+00 0.0000000e+00 
0.0000000e+00 0.0000000e+00 0.0000000e+00 
0.0000000e+00 0.0000000e+00 0.0000000e+00 
0.0000000e+00 0.0000000e+00 0.0000000e+00 
0.0000000e+00 0.0000000e+00 0.0000000e+00 
0.0000000e+00 0.0000000e+00 0.0000000e+00 
0.0000000e+00 0.0000000e+00 0.0000000e+00 
0.0000000e+00 0.0000000e+00 0.0000000e+00 
0.0000000e+00 0.0000000e+00 0.0000000e+00 
0.0000000e+00 0.0000000e+00 0.0000000e+00 
0.0000000e+00 0.0000000e+00 0.0000000e+00 
VON_MISES_STRESS 1 6166  float
1.5230461e+03
2.2232747e+03
1.7498916e+03
1.2741053e+03
3.1187129e+03
3.4825564e+03
5.2011372e+03
1.4217858e+03
1.4922113e+03
2.2377295e+03
2.5967590e+03
5.9641895e+03
7.7480273e+03
4.4992607e+03
8.5937285e+03
1.7600634e+03
6.1319116e+03
2.5348303e+03
3.4197405e+03
4.3893579e+03
1.0132093e+04
1.3161281e+04
8.0802217e+03
1.1123930e+04
1.2154179e+04
6.4211177e+03
2.8160051e+03
8.2938564e+03
3.2422048e+03
1.7827848e+04
1.5385235e+04
1.3542951e+04
6.2729365e+03
1.0608475e+04
1.7459955e+04
8.2476904e+03
4.1179116e+03
1.4408885e+04
1.7762404e+04
6.0193374e+03
7.9196660e+03
1.1672138e+04
4.2478252e+03
4.6174980e+03
2.8957127e+04
2.7187549e+04
2.1297045e+04
1.6579590e+04
2.5018928e+04
2.0151676e+04
2.5949717e+04
1.5319354e+04
1.9521959e+04
1.1207942e+04
5.2290669e+03
6.3279697e+03
1.5148947e+04
2.8962143e+04
3.3839676e+04
2.3524650e+04
1.9037908e+04
3.0158162e+04
5.1346621e+03
5.1604761e+03
3.0297799e+04
2.4980014e+04
3.5232633e+04
2.6508594e+04
2.2253580e+04
3.8574418e+04
3.4015992e+04
3.2531490e+04
3.3567328e+04
4.0846578e+04
3.0546496e+04
3.9662875e+04
4.4753461e+04
4.1290145e+04
3.1497248e+04
5.3202393e+03
8.7703877e+03
4.5673086e+04
4.4169625e+04
4.1730219e+04
3.7498574e+04
4.9063867e+04
4.8170652e+04
4.8754418e+04
4.6267305e+04
1.7624059e+04
5.1562641e+04
4.9785234e+04
4.0610664e+04
3.7295281e+04
6.3555129e+04
4.9121648e+04
4.8989586e+04
4.8307160e+04
4.8772219e+04
2.6908613e+04
5.6374172e+04
6.3232305e+04
5.6328285e+04
4.7350121e+04
6.1916129e+04
7.2070969e+04
5.2729234e+04
7.6812523e+04
6.2606793e+04
6.0508449e+04
6.6218719e+04
5.2834492e+04
7.1634438e+04
7.1370188e+04
6.6717742e+04
7.3570695e+04
8.8617352e+04
8.0834625e+04
7.4863211e+04
8.6206727e+04
7.5507914e+04
8.1896523e+04
6.7771898e+04
7.5117406e+04
9.2412664e+04
9.2529750e+04
9.3451375e+04
1.0415489e+05
9.6040188e+04
9.7879195e+04
9.3543234e+04
1.0721094e+05
1.0401905e+05
1.0929963e+05
7.5222867e+04
8.0646016e+04
1.2251566e+05
1.1115202e+05
1.0624734e+05
9.8008359e+04
9.8193148e+04
1.0646053e+05
1.1350811e+05
8.6503797e+04
1.0867263e+05
1.1453499e+05
1.1447085e+05
1.1058546e+05
1.3276858e+05
1.1188857e+05
1.1869712e+05
1.3262488e+05
1.3293822e+05
1.0572666e+05
1.2955103e+05
1.0500185e+05
1.2582055e+05
1.3492838e+05
1.5624625e+05
1.2395530e+05
1.3523767e+05
1.3330464e+05
1.3825503e+05
1.4908617e+05
1.1721333e+05
1.5115100e+05
9.8550086e+04
1.3882667e+05
1.4896672e+05
1.4030528e+05
1.3991870e+05
1.5432983e+05
1.6571919e+05
1.5908477e+05
1.1928940e+05
1.6002777e+05
1.7753841e+05
1.8304845e+05
1.5199169e+05
2.1217675e+05
1.7970156e+05
1.7249620e+05
1.7780228e+05
1.9915114e+05
2.0352853e+05
1.7085831e+05
2.1161689e+05
2.1389534e+05
2.1527827e+05
1.9414667e+05
2.2365438e+05
1.8822645e+05
2.4150908e+05
2.3734022e+05
2.4337114e+05
2.3968714e+05
1.7890781e+05
2.7765306e+05
2.6270834e+05
2.5144277e+05
2.4831098e+05
2.2580300e+05
2.5386412e+05
2.8125103e+05
2.3044166e+05
2.3145736e+05
2.6734931e+05
2.0847064e+05
2.2866141e+05
2.7996100e+05
2.5597292e+05
2.6261162e+05
2.5487400e+05
2.2391020e+05
2.8790812e+05
1.5993780e+05
2.7341928e+05
2.5957175e+05
2.2712294e+05
2.4519417e+05
2.4886077e+05
2.4732286e+05
2.5827980e+05
2.9552759e+05
2.8896984e+05
2.4492730e+05
2.3952817e+05
3.2190025e+05
2.8237084e+05
3.8090131e+05
3.0984084e+05
2.5529181e+05
2.6868572e+05
2.8199722e+05
3.2973156e+05
2.7863381e+05
2.6262475e+05
3.0554034e+05
2.4427278e+05
3.5440509e+05
3.0711409e+05
3.2560191e+05
2.9578822e+05
2.7259862e+05
2.3165122e+05
2.6801472e+05
3.6324838e+05
3.4820875e+05
3.3262519e+05
3.1621128e+05
3.4842578e+05
3.1180400e+05
2.5746595e+05
3.6878250e+05
2.5452420e+05
3.2882519e+05
3.2802953e+05
4.0673341e+05
3.6979303e+05
3.7663591e+05
3.1777516e+05
3.8125900e+05
3.2338409e+05
3.4877997e+05
3.6125262e+05
3.2950938e+05
4.1711400e+05
3.7154403e+05
3.3000575e+05
3.8470409e+05
4.4645788e+05
4.0921653e+05
3.1191919e+05
2.4027072e+05
3.8457638e+05
3.0744569e+05
3.3781884e+05
3.1961822e+05
3.7477366e+05
2.7636984e+05
3.9723062e+05
4.1279338e+05
3.6560922e+05
3.5444188e+05
6.8727912e+05
4.8321003e+05
2.7928209e+05
4.5401538e+05
3.2585138e+05
4.7318569e+05
4.4499472e+05
3.4474425e+05
4.5583575e+05
4.5569503e+05
3.4622159e+05
4.6399050e+05
4.7543022e+05
4.2897719e+05
4.4823138e+05
4.5339012e+05
4.6348756e+05
4.8010531e+05
4.7083031e+05
3.3651634e+05
4.6167597e+05
5.0427244e+05
4.8900541e+05
4.6397819e+05
5.0879931e+05
4.7377669e+05
4.8951869e+05
4.1360116e+05
5.0146616e+05
3.1881475e+05
4.9955909e+05
4.9579853e+05
3.9638291e+05
4.7157156e+05
3.5544541e+05
3.5768741e+05
3.4277681e+05
4.3503419e+05
4.8782962e+05
2.6307109e+05
4.5591494e+05
4.5635803e+05
4.0100578e+05
4.2239059e+05
4.8344488e+05
4.4120431e+05
3.5781412e+05
4.1350097e+05
4.3646519e+05
3.6973650e+05
4.9821281e+05
4.6291112e+05
4.5610934e+05
4.6689212e+05
4.3734147e+05
5.1595919e+05
4.7004641e+05
5.3581494e+05
3.7579597e+05
4.5729338e+05
5.1343328e+05
5.6419019e+05
5.1054206e+05
5.6912225e+05
4.9074716e+05
5.3640694e+05
5.5680206e+05
5.3415331e+05
4.3389381e+05
6.1856225e+05
4.7105972e+05
5.8515238e+05
5.4485038e+05
5.9291362e+05
5.1135384e+05
5.1715184e+05
3.9566788e+05
6.1336412e+05
7.0543700e+05
5.7974162e+05
3.4425166e+05
6.0564819e+05
5.8826719e+05
4.6270684e+05
5.9253244e+05
5.7640981e+05
6.4323000e+05
5.6441400e+05
5.7775181e+05
4.3505431e+05
7.2734681e+05
6.6787556e+05
7.1966181e+05
6.6618088e+05
5.7545625e+05
6.0969862e+05
6.7577194e+05
7.1909594e+05
6.7669962e+05
5.9941862e+05
8.9084256e+05
5.5913056e+05
6.8805325e+05
7.1093412e+05
7.9824400e+05
7.2793688e+05
7.0965406e+05
6.2755644e+05
8.9702269e+05
6.5952744e+05
6.2731050e+05
8.7994544e+05
7.7337556e+05
1.1024845e+06
6.8227862e+05
6.0386606e+05
6.8603938e+05
5.8435012e+05
6.7987850e+05
9.0289294e+05
6.4835569e+05
7.8107131e+05
7.0142794e+05
6.7685131e+05
6.2446475e+05
6.3904475e+05
6.5255000e+05
5.9826588e+05
5.5100244e+05
1.0010199e+06
7.4688206e+05
6.6790031e+05
6.1819019e+05
5.9730481e+05
5.1207375e+05
6.0727856e+05
6.5868838e+05
7.9921150e+05
8.6015362e+05
6.9848019e+05
6.9762119e+05
4.8115697e+05
6.8910000e+05
8.3010262e+05
1.1932881e+06
1.0656404e+06
6.6134688e+05
5.5118775e+05
6.7451675e+05
6.6205350e+05
6.3208488e+05
5.8476100e+05
8.0012800e+05
5.5777688e+05
5.5550012e+05
9.7412406e+05
4.7586134e+05
7.7911538e+05
9.4234994e+05
7.1978681e+05
7.0091762e+05
7.0802138e+05
6.2793494e+05
6.5058644e+05
8.6883044e+05
8.4453194e+05
6.8477931e+05
5.8084869e+05
5.4850294e+05
8.7269931e+05
7.3344375e+05
7.8610819e+05
6.8527312e+05
6.5162588e+05
5.6130725e+05
8.0447206e+05
7.3537288e+05
5.9277200e+05
6.2119512e+05
7.4171988e+05
4.6074372e+05
8.2174681e+05
6.3655556e+05
8.3374319e+05
7.3221244e+05
6.3485788e+05
7.8796188e+05
5.4052375e+05
5.4648706e+05
7.5875806e+05
7.1834956e+05
7.5884794e+05
7.3076594e+05
8.2071625e+05
5.4839038e+05
7.6406850e+05
7.8689688e+05
8.8631012e+05
8.6088112e+05
1.3386864e+06
8.6891825e+05
7.2803756e+05
7.4160244e+05
7.2851081e+05
7.2444919e+05
8.7703000e+05
6.3017931e+05
8.5994881e+05
6.9996500e+05
8.3855794e+05
7.3906075e+05
7.5520238e+05
7.0412925e+05
6.7091031e+05
6.4127406e+05
8.6769006e+05
8.3957344e+05
9.8028469e+05
4.9142412e+05
6.5894481e+05
7.2294300e+05
8.5789488e+05
6.5980406e+05
7.4802638e+05
7.9908162e+05
5.8571906e+05
8.2839131e+05
6.2966575e+05
7.9708656e+05
8.0722644e+05
9.5288250e+05
4.8172138e+05
7.4450094e+05
1.0073043e+06
8.4014300e+05
9.4469438e+05
7.6720444e+05
6.5925262e+05
1.1750222e+06
7.7044456e+05
9.9510362e+05
9.7930138e+05
8.0842119e+05
6.7734800e+05
1.2766088e+06
9.1281194e+05
6.6226144e+05
9.5248688e+05
1.0705701e+06
7.8590044e+05
1.1515819e+06
8.9570450e+05
8.8847488e+05
9.3822619e+05
8.9460712e+05
8.7163288e+05
6.4010219e+05
9.4299912e+05
6.2207781e+05
8.1906306e+05
8.5093719e+05
8.6584025e+05
5.9568475e+05
5.3875144e+05
5.9068625e+05
6.6194625e+05
8.8950075e+05
6.0468362e+05
7.7479388e+05
8.9137594e+05
8.7057494e+05
4.4801088e+05
9.4764806e+05
7.3218444e+05
7.7345800e+05
5.6263000e+05
8.2034462e+05
7.8543119e+05
5.6908562e+05
7.6914675e+05
7.3705812e+05
6.5509356e+05
7.4336500e+05
9.2527012e+05
5.4132394e+05
8.1343069e+05
9.6771781e+05
1.0080425e+06
1.0604649e+06
8.5270469e+05
1.0647946e+06
7.2778594e+05
9.1427969e+05
7.8374119e+05
8.9614662e+05
1.0895895e+06
1.0404946e+06
9.5174288e+05
7.8005950e+05
8.2183912e+05
8.9243906e+05
1.0619768e+06
1.0644738e+06
9.8631625e+05
9.0794694e+05
7.6152588e+05
9.3104912e+05
9.4018294e+05
1.1147770e+06
9.3660575e+05
9.4365894e+05
9.6972194e+05
6.6739494e+05
9.4989862e+05
8.6986256e+05
8.0536650e+05
9.5563612e+05
1.3957284e+06
7.4328031e+05
7.2054481e+05
9.7684762e+05
1.0724079e+06
9.1599900e+05
1.1076580e+06
1.1437652e+06
5.4603212e+05
8.1132919e+05
8.0926931e+05
1.1294001e+06
1.0485654e+06
9.3565925e+05
1.1658171e+06
8.8467825e+05
6.9739512e+05
8.8693812e+05
1.0799339e+06
6.5481369e+05
1.1112262e+06
1.1917574e+06
7.4431756e+05
1.0557376e+06
1.0459206e+06
1.0947030e+06
1.0313544e+06
1.2346301e+06
9.0298638e+05
7.2177869e+05
8.9561844e+05
1.3740651e+06
1.0570645e+06
1.0188574e+06
1.4044956e+06
9.6716675e+05
8.0251188e+05
8.9012894e+05
8.6233006e+05
1.3063370e+06
1.1135502e+06
9.3669362e+05
1.4365531e+06
8.6298069e+05
8.4398656e+05
1.2852906e+06
1.2313748e+06
1.6334742e+06
6.7856619e+05
8.1868800e+05
1.0616489e+06
8.6626700e+05
9.9343325e+05
1.0825799e+06
1.4963309e+06
1.5307698e+06
1.2365505e+06
8.8009300e+05
1.1930560e+06
9.5962219e+05
1.3774896e+06
1.0873615e+06
1.2206936e+06
1.1503844e+06
1.2974912e+06
1.2147712e+06
1.1732811e+06
7.0912206e+05
9.9749681e+05
1.0445902e+06
1.2448232e+06
1.2701678e+06
9.4063669e+05
8.2269081e+05
1.0988928e+06
1.0817142e+06
9.4922075e+05
9.9345838e+05
1.1495322e+06
9.5954125e+05
6.3860319e+05
8.9457619e+05
9.0476150e+05
1.0399519e+06
2.7259481e+05
6.1779850e+05
5.1414000e+05
8.8744094e+05
8.6719200e+05
9.4365225e+05
9.4943950e+05
1.0337606e+06
1.0267231e+06
1.1638511e+06
1.2402590e+06
9.1999450e+05
1.0303194e+06
1.0081336e+06
1.2440356e+06
1.0321264e+06
1.0225918e+06
5.1563384e+05
1.0224324e+06
9.9097269e+05
7.8290100e+05
7.9143338e+05
9.2988269e+05
1.0172963e+06
1.1170898e+06
1.0778310e+06
1.1775808e+06
1.2204834e+06
1.1125532e+06
8.3756762e+05
1.1059341e+06
1.0883346e+06
1.6842074e+06
1.0845741e+06
1.2566235e+06
1.1821906e+06
1.0354363e+06
1.5465388e+06
1.0242029e+06
9.6642600e+05
9.3912094e+05
1.1928364e+06
8.7019456e+05
1.2114690e+06
1.0596218e+06
1.2794378e+06
1.1876564e+06
8.3974200e+05
1.0324268e+06
1.0947565e+06
1.0166718e+06
9.6588812e+05
1.1900575e+06
8.9422544e+05
9.0027688e+05
1.1496596e+06
1.6038861e+06
1.6063848e+06
1.2697236e+06
1.2904462e+06
6.1126012e+05
9.9912406e+05
1.0857109e+06
1.0358729e+06
1.3704408e+06
1.1430236e+06
1.3856504e+06
9.5496538e+05
1.3381870e+06
9.8926206e+05
1.1551681e+06
9.5760075e+05
1.0373389e+06
1.1087620e+06
7.9872450e+05
1.0766228e+06
1.4057441e+06
1.1475899e+06
1.2935805e+06
1.5955371e+06
1.0613209e+06
1.3844349e+06
9.8384756e+05
1.2414838e+06
1.0901790e+06
1.2362450e+06
1.1413892e+06
1.4924999e+06
1.2913916e+06
1.3144520e+06
1.1708380e+06
1.5235129e+06
8.0257125e+05
1.4921726e+06
1.3274884e+06
1.4789015e+06
1.6180159e+06
1.2184548e+06
1.2669914e+06
1.1767065e+06
1.1800550e+06
1.1462795e+06
1.7856539e+06
1.3155626e+06
1.6303448e+06
1.2882039e+06
1.4870836e+06
8.6142138e+05
1.3930246e+06
1.5828501e+06
2.1109248e+06
1.1269716e+06
9.3792594e+05
1.3298738e+06
1.7152156e+06
1.2430182e+06
1.2448246e+06
1.4134464e+06
9.6365662e+05
9.5282444e+05
1.5047302e+06
1.4118465e+06
1.4691042e+06
1.5513876e+06
1.2097282e+06
9.5387344e+05
1.2771110e+06
1.8602675e+06
1.6562872e+06
1.1870491e+06
1.3147105e+06
1.4836239e+06
1.3033470e+06
1.1375091e+06
9.1090181e+05
1.2259899e+06
1.2849880e+06
1.6423724e+06
1.0817291e+06
1.1879332e+06
1.5940690e+06
9.3486425e+05
1.2152224e+06
1.1787425e+06
1.7293301e+06
1.1046531e+06
1.7085326e+06
1.2729451e+06
1.2544596e+06
1.7633435e+06
1.1787036e+06
1.5098679e+06
1.0945709e+06
8.6158031e+05
1.3564951e+06
1.8396312e+06
1.3792286e+06
9.7199481e+05
9.6032394e+05
1.6917496e+06
1.0262731e+06
1.2165574e+06
1.2007631e+06
1.1414380e+06
1.6977138e+06
1.8334572e+06
1.7232105e+06
1.3771910e+06
1.1487165e+06
1.3750605e+06
9.7876894e+05
1.0166823e+06
1.4322258e+06
1.6204084e+06
1.3643101e+06
1.0068211e+06
1.1947378e+06
1.3313541e+06
1.2274725e+06
1.6440745e+06
1.4828684e+06
1.2525939e+06
1.6278450e+06
1.9639814e+06
1.1005980e+06
1.3999188e+06
1.8168141e+06
1.9195748e+06
1.5179716e+06
1.0354905e+06
1.1092840e+06
1.0091770e+06
1.7253975e+06
1.4431410e+06
9.7504144e+05
1.7564644e+06
1.4701075e+06
2.2905455e+06
9.9716519e+05
1.4253935e+06
1.2700902e+06
1.5862550e+06
1.8411676e+06
1.1652761e+06
1.2085962e+06
1.2328135e+06
1.4984569e+06
1.5170315e+06
1.3258592e+06
1.3845435e+06
1.0219847e+06
8.4154900e+05
9.2291012e+05
1.7043970e+06
1.2422734e+06
1.2992031e+06
1.6830756e+06
9.3126969e+05
1.6393378e+06
1.3072978e+06
1.3099105e+06
1.3459911e+06
1.9172110e+06
1.5912149e+06
1.8731079e+06
1.1812359e+06
1.8878175e+06
1.6057331e+06
1.5265855e+06
2.1173535e+06
1.3805186e+06
1.0238422e+06
1.0625102e+06
1.4207150e+06
1.6539044e+06
1.0697164e+06
1.2669588e+06
1.3887286e+06
1.8862602e+06
1.3456970e+06
1.0830531e+06
1.3734968e+06
1.2934855e+06
1.7536228e+06
1.6519892e+06
1.3131658e+06
1.3851779e+06
1.4836589e+06
1.5376394e+06
2.3699598e+06
1.1495055e+06
9.3826938e+05
1.9149701e+06
9.7624100e+05
1.4945654e+06
1.7255555e+06
1.4439842e+06
2.5962770e+06
2.7123972e+06
2.5080580e+06
1.0980662e+06
1.7472778e+06
1.4554626e+06
2.0857884e+06
1.3403079e+06
1.5039260e+06
1.4577825e+06
1.9743432e+06
1.7245068e+06
1.1887755e+06
1.1059008e+06
2.0495980e+06
1.3402655e+06
1.1420139e+06
1.2031116e+06
1.7895468e+06
1.7680826e+06
1.2868792e+06
2.0714395e+06
1.2361339e+06
2.2958410e+06
1.7346630e+06
1.5786338e+06
1.4881865e+06
1.5502384e+06
2.3080988e+06
1.7373056e+06
1.2702008e+06
1.4246365e+06
1.4919435e+06
1.4598776e+06
1.7002061e+06
1.9501020e+06
1.9377629e+06
1.5858920e+06
1.1385214e+06
1.7536598e+06
1.8484855e+06
1.5695656e+06
1.7402738e+06
2.1117122e+06
1.7603018e+06
1.8406299e+06
1.6685614e+06
1.8486391e+06
1.6727391e+06
1.5082938e+06
1.5743371e+06
1.5916705e+06
1.4937632e+06
2.0097004e+06
2.1021415e+06
1.8186418e+06
1.5436355e+06
1.9296850e+06
1.6856691e+06
1.5472189e+06
1.2296155e+06
1.4481724e+06
1.9324166e+06
1.7956825e+06
2.2009922e+06
2.3961398e+06
1.7855932e+06
1.4360249e+06
1.4480951e+06
2.1052012e+06
1.4364315e+06
1.3869836e+06
1.9550116e+06
2.0129132e+06
1.6460386e+06
1.6154525e+06
1.8763846e+06
1.5416472e+06
2.4656495e+06
1.8043078e+06
1.9475781e+06
1.6309961e+06
2.0090190e+06
1.3231964e+06
1.8393086e+06
1.6940314e+06
2.0653715e+06
1.6291828e+06
1.3851014e+06
1.9960442e+06
1.9054288e+06
2.0430048e+06
1.9596270e+06
1.6182190e+06
2.5423310e+06
1.6359881e+06
1.8759084e+06
2.2893450e+06
2.4320670e+06
1.7485884e+06
1.7955614e+06
1.9443426e+06
1.8091305e+06
2.3399512e+06
1.9392066e+06
1.5264261e+06
2.0676318e+06
2.7089152e+06
1.8154866e+06
1.7834260e+06
1.5348659e+06
1.8802189e+06
1.5807869e+06
1.7817098e+06
1.3607090e+06
2.0385342e+06
1.6350116e+06
1.6234099e+06
1.7176529e+06
1.5991368e+06
1.9995788e+06
2.0921638e+06
1.5351870e+06
1.4668872e+06
1.0597400e+06
1.7829364e+06
1.6711771e+06
2.2920728e+06
1.3791908e+06
1.1884851e+06
1.3904419e+06
1.7806871e+06
2.7235708e+06
1.7702638e+06
1.3376224e+06
1.6844590e+06
1.6633990e+06
1.8404221e+06
1.9289660e+06
2.5997308e+06
1.9493681e+06
2.1998745e+06
2.2909438e+06
1.8781280e+06
1.2335178e+06
1.1182231e+06
8.1600288e+05
2.0350472e+06
1.0149558e+06
1.9026111e+06
1.8392211e+06
1.6893948e+06
1.8580040e+06
1.8001179e+06
7.7606050e+05
1.1952152e+06
1.5363774e+06
1.6259310e+06
1.9592270e+06
1.7894175e+06
1.6573141e+06
1.5952599e+06
1.6355405e+06
8.8725512e+05
9.8145294e+05
1.6936366e+06
1.4349956e+06
1.7421048e+06
1.6414504e+06
9.1336906e+05
1.6407294e+06
1.4614669e+06
1.6578866e+06
1.2169085e+06
1.8764554e+06
2.1441722e+06
2.0892034e+06
2.1805972e+06
1.5115229e+06
9.9845756e+05
1.0908652e+06
1.8873611e+06
2.1695865e+06
1.8687758e+06
1.7070031e+06
1.7779150e+06
1.4479041e+06
1.3372252e+06
2.1079848e+06
2.2145962e+06
2.0578189e+06
2.0112504e+06
1.4078406e+06
1.3963014e+06
2.2738392e+06
1.9188454e+06
2.2336432e+06
2.4887040e+06
2.3165045e+06
1.3297922e+06
1.4373378e+06
1.8899185e+06
1.6717929e+06
1.7727648e+06
2.4054452e+06
1.1237472e+06
1.9815800e+06
1.5475106e+06
1.7623864e+06
2.2054892e+06
1.6859841e+06
1.8124785e+06
1.8275104e+06
1.9575660e+06
1.6110144e+06
1.6532094e+06
1.6038274e+06
1.3135768e+06
1.8466310e+06
2.0639092e+06
1.4548925e+06
2.1365665e+06
2.0242055e+06
1.4458326e+06
2.7929868e+06
1.2796114e+06
1.8807125e+06
2.3162645e+06
1.3798342e+06
1.7216746e+06
1.8619016e+06
2.0970541e+06
1.9577262e+06
2.2420150e+06
1.8676299e+06
2.5945410e+06
1.3369036e+06
1.4331129e+06
1.9937816e+06
2.0999675e+06
2.5946265e+06
1.4957891e+06
2.3641172e+06
1.9220766e+06
1.8338464e+06
1.9922111e+06
2.5123150e+06
1.6940562e+06
1.7971865e+06
1.4384054e+06
1.9648624e+06
2.3204370e+06
2.1499505e+06
1.5710105e+06
1.4038066e+06
1.8078915e+06
2.2600080e+06
1.8398064e+06
1.8448820e+06
2.1279682e+06
2.1736065e+06
2.6604930e+06
2.3809508e+06
1.6634314e+06
1.6829694e+06
2.1824508e+06
1.9396302e+06
1.9496300e+06
2.2634165e+06
1.6617319e+06
2.5855500e+06
3.0196012e+06
2.5767075e+06
2.1280830e+06
1.7232922e+06
1.8083522e+06
1.2930776e+06
2.3947105e+06
2.1252495e+06
2.2869070e+06
3.2704088e+06
1.9209872e+06
1.7782905e+06
2.2993925e+06
3.4759170e+06
2.4406500e+06
2.0478861e+06
1.6895426e+06
2.1444025e+06
2.3886650e+06
2.2656650e+06
1.9409996e+06
2.5813915e+06
1.6130796e+06
2.0047324e+06
2.3920622e+06
1.3671762e+06
2.2517990e+06
1.8280726e+06
1.6797345e+06
2.1030965e+06
2.4860440e+06
1.4376852e+06
1.7270739e+06
2.1418948e+06
2.4328855e+06
1.9558651e+06
2.4549350e+06
2.1445282e+06
1.7430538e+06
1.7000915e+06
1.6902969e+06
2.3935045e+06
2.7312110e+06
1.6699184e+06
1.5014951e+06
1.2650120e+06
1.5150739e+06
1.6648991e+06
2.4106910e+06
2.3597270e+06
2.1887225e+06
2.3318952e+06
1.9644651e+06
1.9616556e+06
2.5191490e+06
2.7638115e+06
1.8622222e+06
3.2026572e+06
2.3495075e+06
1.6911346e+06
1.4482338e+06
2.1138585e+06
1.5714802e+06
2.3464442e+06
1.6661671e+06
1.6756751e+06
2.4031512e+06
1.5946301e+06
2.4422968e+06
1.2458294e+06
1.9758801e+06
2.3106675e+06
2.4192572e+06
3.2631925e+06
2.2976340e+06
2.4058880e+06
2.1080618e+06
2.5662482e+06
2.1882265e+06
1.6487665e+06
1.6206882e+06
2.0650792e+06
2.3778670e+06
1.8863564e+06
2.7207855e+06
1.9894204e+06
1.6728899e+06
2.3309108e+06
1.9330345e+06
2.9580655e+06
1.8005800e+06
1.6960324e+06
2.0278062e+06
2.0266779e+06
2.5751838e+06
2.9442600e+06
2.6165708e+06
2.7069098e+06
3.2682340e+06
2.3924015e+06
1.4238312e+06
1.5008996e+06
2.0163292e+06
2.4880168e+06
3.4567375e+06
2.0076854e+06
2.3156775e+06
2.8958392e+06
1.2812395e+06
1.3778266e+06
1.8047170e+06
2.9575178e+06
2.4778975e+06
2.5967465e+06
1.4934075e+06
2.7596028e+06
2.1618732e+06
2.7271288e+06
3.0108612e+06
1.5460072e+06
1.5953221e+06
1.6386936e+06
1.8569122e+06
2.5026995e+06
1.9648335e+06
2.1933918e+06
1.8089839e+06
1.6523955e+06
2.0473936e+06
2.2192928e+06
2.4757338e+06
2.0969251e+06
1.9487304e+06
2.6498825e+06
1.9003541e+06
1.7250099e+06
2.9062745e+06
1.9815905e+06
1.9410334e+06
1.9982578e+06
1.7589748e+06
1.9852438e+06
1.6737325e+06
2.4796910e+06
2.2461808e+06
3.1020348e+06
1.7523690e+06
2.1835040e+06
2.5243800e+06
2.7541672e+06
2.8375065e+06
1.6816489e+06
2.2366418e+06
2.2577060e+06
1.8798082e+06
2.8830878e+06
2.2375230e+06
2.5209785e+06
2.5310325e+06
1.7020090e+06
1.7004730e+06
2.6683640e+06
1.7784708e+06
1.8690851e+06
2.6071172e+06
2.8747122e+06
2.4008148e+06
2.7220288e+06
2.7980952e+06
2.0295051e+06
1.9829516e+06
2.2309195e+06
2.3589290e+06
1.9720106e+06
2.1490630e+06
2.0817892e+06
2.0857296e+06
1.7474181e+06
2.3254512e+06
2.5622760e+06
1.8247570e+06
2.1273310e+06
1.7678121e+06
1.7884068e+06
2.5455032e+06
2.4563028e+06
2.5432388e+06
2.4013318e+06
1.8141754e+06
2.4092682e+06
1.6603445e+06
2.2912688e+06
3.9772902e+06
2.1615942e+06
2.0617905e+06
2.0903510e+06
2.0518912e+06
2.5376918e+06
3.7329478e+06
2.8100785e+06
2.3761425e+06
3.9452435e+06
1.2881505e+06
2.5640492e+06
1.7239340e+06
1.9042550e+06
2.1802578e+06
2.7889012e+06
2.2285182e+06
2.2412092e+06
1.8703366e+06
1.8222385e+06
3.3792982e+06
2.8959030e+06
1.6945188e+06
1.8212286e+06
2.2875475e+06
2.1138090e+06
2.3020788e+06
2.7478090e+06
3.2104100e+06
1.3214395e+06
2.5608495e+06
2.0864065e+06
1.8789670e+06
1.9746938e+06
1.9236646e+06
2.6022385e+06
2.4363972e+06
2.2743022e+06
1.9278384e+06
1.8416349e+06
1.7657441e+06
1.8791339e+06
2.6508662e+06
1.6880168e+06
2.2636345e+06
2.4572800e+06
1.5290375e+06
3.7497662e+06
2.0887029e+06
1.7612802e+06
2.5816262e+06
3.2950252e+06
2.3200158e+06
2.6928935e+06
2.2775872e+06
2.8237222e+06
1.8844102e+06
2.6179610e+06
2.7428382e+06
1.7598616e+06
2.5373858e+06
2.9263995e+06
2.1891725e+06
1.9176202e+06
1.6270354e+06
2.4498470e+06
1.6933984e+06
2.5386782e+06
2.2605458e+06
2.7520505e+06
1.5113441e+06
2.3183778e+06
2.1709700e+06
2.9088292e+06
2.7091205e+06
2.6188028e+06
3.1680180e+06
3.4870080e+06
3.5392128e+06
3.3968285e+06
3.4013535e+06
2.7925805e+06
2.8290325e+06
2.6861168e+06
2.7206028e+06
2.0274905e+06
2.1594952e+06
2.1872560e+06
1.9199002e+06
2.0490404e+06
2.3454170e+06
2.5405072e+06
1.9902644e+06
2.8113905e+06
2.1573260e+06
1.9294778e+06
2.4422195e+06
2.2224655e+06
2.6479635e+06
1.9800924e+06
2.1484245e+06
2.7093895e+06
2.4446662e+06
2.4629520e+06
2.3904158e+06
2.2711412e+06
2.7213960e+06
2.3361298e+06
1.8219591e+06
1.9772464e+06
1.5292218e+06
1.5498035e+06
2.0136710e+06
2.0766849e+06
1.9699229e+06
3.3880495e+06
1.7512376e+06
2.2304465e+06
3.2230720e+06
1.4565839e+06
1.8370855e+06
3.0511410e+06
2.8902785e+06
1.9091096e+06
2.3893130e+06
2.3587920e+06
1.9080818e+06
2.9059340e+06
1.4091758e+06
2.7456610e+06
2.6831465e+06
2.7787395e+06
1.6768860e+06
1.8515859e+06
2.3810692e+06
1.8837240e+06
2.3091185e+06
2.3548490e+06
2.7019730e+06
2.1862462e+06
2.3861915e+06
1.5566594e+06
1.7139044e+06
1.7826880e+06
1.9247441e+06
1.1841210e+06
1.9408816e+06
1.7414725e+06
1.7123494e+06
2.4348612e+06
2.4559600e+06
1.5522569e+06
2.1344640e+06
1.4849914e+06
1.6884848e+06
1.9261979e+06
2.2872708e+06
1.2847464e+06
2.6843710e+06
2.6102708e+06
1.8210964e+06
2.0517064e+06
2.6931695e+06
2.2888492e+06
2.2200045e+06
1.6337151e+06
1.8772885e+06
3.4758775e+06
2.4838902e+06
2.4187305e+06
1.4980680e+06
2.0913798e+06
1.5831524e+06
1.1294864e+06
1.9902274e+06
2.1697540e+06
1.5154236e+06
1.9107415e+06
1.2907812e+06
1.5722745e+06
2.4157510e+06
1.5365490e+06
1.2232159e+06
3.4983380e+06
2.1039795e+06
1.4174939e+06
1.7171048e+06
1.4083616e+06
1.8450380e+06
2.4648158e+06
2.6817035e+06
2.5670715e+06
1.2244105e+06
1.4229079e+06
1.4525942e+06
2.0551019e+06
1.1760199e+06
1.6870141e+06
2.0486222e+06
1.2078919e+06
2.1248645e+06
1.2057751e+06
1.4061835e+06
2.3162700e+06
2.5876468e+06
1.5536888e+06
2.4889300e+06
1.3092061e+06
2.8146048e+06
1.5341862e+06
1.0261009e+06
1.8366249e+06
2.4120672e+06
3.2084980e+06
2.0690956e+06
3.3842002e+06
2.1354335e+06
1.1982051e+06
1.8084649e+06
1.1719592e+06
9.9870894e+05
2.3229685e+06
2.0493666e+06
2.2960662e+06
1.2282469e+06
1.4598592e+06
1.1553778e+06
1.0833956e+06
2.6399355e+06
2.4189125e+06
1.4609729e+06
1.5082835e+06
1.3486875e+06
1.9732612e+06
1.5172232e+06
2.2345608e+06
2.4050902e+06
1.1909386e+06
1.7381580e+06
1.1882230e+06
1.1964471e+06
2.1676080e+06
1.9509316e+06
1.8234409e+06
1.2608088e+06
1.2933875e+06
1.8256108e+06
1.6469371e+06
1.1522132e+06
1.4912088e+06
1.6934211e+06
2.7076698e+06
2.2031568e+06
1.5826839e+06
1.4596882e+06
2.4694525e+06
2.4733822e+06
1.5237982e+06
1.7777826e+06
1.6185360e+06
1.3922316e+06
1.4772469e+06
2.3670190e+06
2.2435738e+06
3.1174828e+06
2.0909438e+06
2.1948685e+06
1.2301918e+06
1.2191042e+06
2.1717918e+06
2.4546990e+06
1.6311041e+06
2.0462946e+06
2.0132641e+06
1.4731794e+06
1.5895990e+06
1.3413349e+06
1.9642168e+06
1.7370115e+06
1.5257711e+06
1.4575441e+06
1.2383716e+06
1.3108806e+06
2.2586105e+06
1.4226208e+06
1.8216956e+06
2.7119148e+06
1.9949868e+06
1.3131890e+06
1.2665819e+06
1.5699290e+06
1.2104389e+06
1.6699660e+06
2.0719451e+06
1.6502485e+06
1.3968179e+06
1.7509198e+06
1.5203786e+06
1.5306638e+06
2.1289380e+06
1.8595361e+06
1.6406395e+06
1.5020786e+06
2.1272025e+06
2.3116365e+06
1.2953181e+06
1.4421240e+06
1.4554614e+06
2.2647358e+06
1.9547190e+06
2.0027895e+06
3.1522442e+06
2.5542390e+06
3.4743755e+06
2.5215860e+06
1.2817518e+06
1.9915139e+06
1.2041840e+06
1.8264088e+06
1.3874572e+06
1.4288568e+06
1.8774030e+06
1.2379309e+06
2.0833702e+06
1.3131195e+06
1.1396129e+06
1.3743166e+06
1.8578109e+06
1.7214352e+06
2.6594042e+06
3.0389582e+06
2.5796248e+06
1.4993031e+06
2.0840366e+06
7.3634394e+05
2.3160415e+06
2.4806520e+06
1.2040039e+06
1.2611155e+06
1.5792770e+06
1.6262571e+06
2.2330095e+06
2.2674820e+06
1.7560385e+06
1.3024901e+06
1.8955685e+06
2.0858934e+06
1.2097306e+06
1.6090204e+06
1.0604862e+06
1.1666740e+06
1.5110929e+06
1.8538321e+06
2.8976265e+06
2.4350728e+06
1.4349518e+06
1.5136208e+06
2.1473895e+06
2.1414682e+06
1.0053149e+06
1.4832138e+06
1.9493992e+06
2.4592315e+06
1.9917344e+06
2.0994555e+06
1.2956711e+06
1.5525642e+06
1.2295792e+06
1.2889975e+06
1.5351149e+06
1.0657480e+06
1.2076902e+06
2.2273580e+06
1.6325405e+06
1.3732944e+06
2.3268635e+06
1.2216104e+06
1.4245421e+06
2.0824468e+06
2.2266962e+06
2.2461622e+06
1.4619694e+06
1.3049126e+06
1.7758646e+06
1.9184364e+06
1.8293941e+06
2.4247505e+06
2.2050740e+06
1.1741304e+06
1.1670109e+06
1.5776971e+06
1.3532616e+06
1.9483606e+06
1.1345464e+06
2.0198401e+06
2.0015660e+06
1.3551086e+06
1.0781146e+06
1.3425972e+06
1.7791548e+06
2.5444130e+06
2.3439438e+06
1.5278640e+06
1.3410559e+06
1.1943005e+06
1.9182985e+06
2.1682990e+06
2.3197158e+06
1.6364699e+06
1.3399858e+06
1.9322952e+06
2.5704615e+06
2.7235618e+06
2.2365668e+06
1.9741392e+06
1.1180818e+06
1.0264098e+06
1.2225724e+06
1.0325027e+06
2.8225455e+06
1.3763066e+06
1.1709209e+06
1.8102869e+06
1.9580504e+06
1.0775674e+06
1.7922259e+06
1.9557035e+06
9.7486512e+05
1.4489305e+06
1.8859029e+06
2.2415260e+06
1.2450039e+06
1.5052791e+06
1.1192754e+06
1.3490566e+06
2.0502090e+06
2.1928975e+06
9.8156538e+05
9.7438931e+05
1.5119271e+06
9.5996744e+05
1.7514794e+06
2.0957370e+06
1.9345382e+06
1.2151152e+06
1.3954656e+06
1.0562545e+06
1.0012070e+06
1.2074544e+06
1.4523871e+06
2.6438305e+06
2.3636452e+06
1.5890151e+06
1.1725924e+06
1.9295990e+06
1.5401528e+06
1.8783998e+06
1.5013126e+06
8.7458669e+05
1.1451214e+06
1.5336430e+06
1.6428990e+06
2.3941575e+06
2.5386292e+06
2.3057150e+06
2.1447250e+06
2.6958765e+06
9.3335119e+05
1.7982818e+06
1.6220208e+06
9.4191350e+05
1.1427272e+06
1.3257572e+06
1.6739766e+06
1.5978218e+06
9.9278412e+05
1.7726018e+06
9.5872931e+05
2.6087068e+06
1.9937982e+06
1.3610839e+06
1.4349846e+06
1.1763411e+06
9.2333900e+05
1.7918382e+06
1.0150051e+06
1.1570609e+06
2.3965088e+06
2.0430594e+06
1.7943214e+06
1.0168614e+06
1.4233035e+06
1.0472809e+06
1.7890016e+06
2.0679305e+06
1.1133854e+06
1.0546576e+06
1.3315159e+06
1.4559502e+06
1.3770799e+06
2.7358548e+06
1.8583562e+06
3.0315888e+06
1.7225762e+06
1.1548645e+06
1.2104375e+06
1.9202304e+06
2.0093096e+06
8.6171169e+05
1.9844752e+06
1.8436626e+06
1.0002408e+06
2.8336245e+06
2.3936980e+06
2.7461648e+06
2.3391395e+06
1.3914971e+06
1.0756519e+06
1.0100337e+06
1.5190771e+06
1.4178612e+06
1.4311646e+06
2.0631638e+06
1.1905870e+06
1.0381269e+06
1.8392119e+06
1.7720376e+06
2.0827289e+06
1.2168456e+06
1.6142585e+06
1.0020463e+06
2.1416230e+06
9.3163469e+05
1.1655400e+06
2.2543040e+06
1.3930125e+06
2.3554938e+06
1.9724155e+06
9.4457138e+05
1.5513656e+06
8.9676194e+05
1.2359670e+06
1.6520519e+06
1.1070080e+06
1.5743994e+06
1.8372559e+06
1.1443398e+06
1.2081136e+06
1.0897215e+06
1.2672936e+06
8.8476125e+05
8.6958369e+05
1.7863180e+06
1.5864228e+06
2.9770768e+06
1.3682490e+06
2.1016775e+06
1.6557468e+06
1.0642364e+06
2.0981400e+06
2.0707932e+06
1.8382181e+06
1.7460491e+06
1.2478712e+06
1.4395888e+06
2.6105445e+06
2.3065722e+06
2.3186828e+06
2.3256695e+06
1.7448951e+06
9.5625369e+05
1.4385834e+06
8.0063712e+05
1.1783629e+06
9.3449438e+05
1.3817505e+06
8.7634850e+05
1.4353531e+06
7.0184638e+05
9.7765519e+05
1.6486855e+06
2.9225438e+06
2.4333040e+06
1.5690339e+06
1.6273305e+06
1.1915059e+06
2.2410472e+06
1.4282879e+06
1.8053078e+06
1.0663482e+06
1.1352164e+06
8.8321175e+05
3.0494032e+06
2.5318788e+06
1.0750128e+06
9.7630594e+05
1.7756009e+06
1.8182264e+06
1.8463309e+06
1.6549100e+06
1.7388608e+06
1.0175902e+06
2.5319482e+06
1.1927022e+06
1.2173478e+06
2.5587778e+06
2.1024808e+06
2.9162175e+06
1.1133270e+06
1.7259008e+06
1.2471185e+06
1.5473672e+06
1.4235126e+06
1.9435900e+06
1.9203120e+06
1.4802612e+06
1.4375241e+06
1.2572698e+06
1.0480954e+06
3.2118120e+06
1.7769655e+06
2.4468785e+06
1.9677835e+06
1.0625379e+06
1.7172044e+06
1.0483436e+06
2.2218910e+06
1.7581602e+06
1.8026325e+06
1.2860435e+06
2.2030800e+06
1.7519690e+06
1.0216857e+06
1.2275075e+06
9.0524025e+05
1.1661616e+06
1.5405718e+06
2.4062098e+06
2.0274081e+06
1.4801192e+06
1.1661540e+06
1.2589660e+06
1.8464999e+06
1.3424715e+06
1.5135250e+06
1.8441880e+06
1.3621172e+06
2.3926460e+06
2.1449222e+06
1.6724138e+06
7.2431712e+05
8.8881625e+05
8.5481969e+05
2.4798810e+06
1.1295289e+06
1.8794029e+06
2.6925868e+06
1.5328492e+06
1.0777370e+06
9.8132119e+05
1.5106498e+06
1.2532188e+06
8.9319694e+05
2.2486290e+06
1.3709599e+06
2.7407128e+06
2.0625229e+06
1.6965359e+06
1.9342068e+06
1.0281985e+06
1.8690718e+06
1.8133230e+06
1.3290779e+06
1.7748686e+06
2.4189058e+06
1.4096965e+06
2.3474455e+06
2.9660800e+06
2.6057622e+06
8.2874906e+05
1.5354645e+06
7.2510662e+05
2.9883848e+06
9.8162656e+05
1.0119736e+06
1.3088646e+06
1.3914958e+06
1.0470724e+06
1.1330390e+06
1.6574874e+06
2.8093205e+06
1.7530256e+06
3.3422385e+06
2.5332362e+06
1.5351568e+06
1.8166909e+06
7.4691025e+05
1.0184082e+06
9.7231950e+05
2.0490246e+06
1.4743170e+06
2.8306605e+06
1.8456339e+06
1.5847770e+06
3.2206290e+06
2.9041565e+06
2.9243345e+06
1.7872964e+06
1.4180172e+06
9.4073319e+05
8.7780050e+05
2.3502778e+06
1.0717868e+06
1.1398838e+06
1.7408654e+06
1.0441885e+06
2.0496804e+06
1.6294715e+06
8.7837231e+05
1.9336361e+06
1.9080010e+06
1.2207982e+06
2.4972698e+06
2.2736168e+06
1.0360377e+06
1.6163654e+06
1.5304309e+06
1.2719508e+06
1.5824814e+06
9.2729612e+05
1.2416476e+06
1.2968289e+06
1.4396301e+06
2.4962978e+06
2.1316938e+06
1.4179799e+06
1.2328779e+06
1.6399249e+06
1.4756828e+06
1.2573330e+06
1.8396428e+06
9.7648381e+05
1.3952076e+06
2.5735398e+06
1.5219388e+06
1.2012571e+06
1.8784399e+06
2.1983958e+06
1.3099760e+06
1.3357895e+06
1.2324690e+06
1.0197799e+06
2.2751972e+06
2.3189592e+06
1.2274902e+06
1.6503411e+06
1.1400434e+06
1.2345329e+06
1.4573694e+06
1.8649395e+06
1.0219649e+06
1.4976832e+06
1.3661905e+06
2.2266522e+06
2.6294452e+06
2.3962845e+06
1.6173484e+06
1.3515235e+06
1.0928620e+06
9.9363819e+05
2.1633590e+06
2.2312640e+06
1.5056202e+06
1.3921510e+06
8.6464050e+05
1.4123288e+06
1.0727850e+06
1.9769225e+06
3.2712110e+06
2.4793520e+06
1.6946892e+06
9.5316356e+05
1.3070928e+06
1.0958461e+06
1.8840720e+06
1.5768178e+06
2.9929615e+06
1.7367692e+06
1.2188186e+06
9.8241969e+05
1.6823914e+06
2.6379612e+06
1.4357280e+06
2.9378775e+06
2.6158532e+06
1.5506729e+06
9.6887825e+05
8.9446931e+05
2.1522722e+06
2.1885915e+06
1.2305901e+06
1.8908538e+06
1.1153352e+06
1.4581909e+06
9.9033869e+05
1.1553661e+06
1.6863106e+06
1.8776109e+06
1.5092480e+06
9.5095656e+05
8.7449600e+05
1.3727696e+06
1.9937484e+06
1.9356105e+06
2.0404206e+06
1.5193545e+06
7.1782025e+05
1.0792202e+06
1.3955588e+06
1.2935158e+06
8.7548331e+05
2.3824140e+06
1.3571055e+06
2.3908688e+06
8.3644694e+05
1.3818299e+06
7.8416669e+05
1.6834316e+06
9.5635869e+05
1.4434401e+06
2.3579985e+06
8.3696631e+05
2.4463372e+06
8.4672931e+05
1.5616214e+06
2.4228220e+06
1.4810298e+06
1.4453916e+06
1.6602915e+06
9.4279006e+05
3.0621565e+06
2.2284140e+06
1.4803174e+06
7.4609494e+05
1.5401840e+06
1.0372634e+06
1.7829216e+06
1.6350759e+06
9.4336288e+05
1.0782478e+06
1.4157605e+06
1.6118576e+06
1.0440308e+06
1.8333091e+06
8.0463888e+05
2.5039282e+06
2.3735215e+06
2.1440585e+06
1.4054621e+06
1.8239310e+06
1.5322146e+06
1.3469135e+06
8.7791831e+05
9.1412362e+05
1.6081871e+06
1.6917856e+06
1.1682059e+06
1.2310674e+06
8.8797975e+05
1.2895898e+06
2.1415875e+06
2.3394420e+06
9.5903712e+05
1.2322304e+06
1.0844160e+06
1.0431694e+06
1.4371985e+06
7.8804475e+05
2.7069108e+06
8.3941944e+05
1.6157142e+06
2.5646538e+06
1.3779632e+06
1.3249042e+06
2.5567148e+06
2.9875545e+06
1.4085341e+06
1.4867669e+06
9.9553462e+05
1.5218192e+06
1.8668644e+06
9.2084556e+05
2.0574340e+06
1.7656470e+06
1.2088370e+06
9.6010438e+05
1.1027578e+06
1.7538511e+06
2.1496388e+06
8.7703731e+05
1.0425166e+06
2.0299004e+06
2.6225038e+06
1.3528820e+06
2.3973208e+06
1.4164232e+06
1.3121300e+06
1.1122349e+06
1.8220624e+06
1.6481466e+06
1.3930340e+06
1.2724942e+06
2.3413162e+06
1.6317111e+06
2.4908965e+06
2.2440800e+06
1.1445372e+06
1.3198626e+06
9.4225088e+05
8.4550494e+05
2.3408390e+06
1.8776346e+06
8.7266844e+05
1.3131682e+06
1.7871738e+06
2.3120552e+06
1.1387125e+06
1.5799316e+06
1.9408591e+06
1.5554954e+06
1.2706600e+06
1.7772194e+06
1.0134939e+06
9.0091719e+05
3.1606002e+06
1.9218762e+06
1.5148299e+06
1.7247138e+06
6.4802394e+05
9.9830538e+05
1.2649314e+06
1.7646059e+06
1.3546211e+06
1.3445632e+06
1.1236575e+06
1.2848668e+06
8.1087606e+05
1.4711699e+06
2.3180890e+06
2.3476992e+06
1.6652646e+06
8.3829688e+05
1.4137099e+06
2.2918460e+06
2.1523715e+06
7.8737612e+05
2.1013782e+06
1.3454469e+06
8.6252888e+05
1.4929415e+06
2.7116095e+06
2.3575528e+06
1.5169239e+06
6.8186319e+05
8.5840819e+05
1.0839459e+06
1.4968525e+06
1.4137324e+06
1.5721879e+06
1.5009279e+06
1.0287697e+06
1.7353489e+06
9.9627138e+05
1.4571486e+06
1.4507326e+06
2.3921060e+06
9.3019525e+05
1.5881780e+06
2.7043752e+06
1.2702196e+06
2.4568288e+06
3.0926902e+06
2.3804762e+06
1.7970125e+06
1.4799414e+06
8.2738350e+05
7.6025238e+05
2.3524212e+06
1.8392195e+06
9.1391288e+05
1.6154722e+06
1.1486840e+06
9.6042844e+05
8.0543288e+05
1.2998292e+06
2.7994185e+06
2.6873245e+06
1.9145678e+06
1.5116812e+06
1.3731629e+06
1.6654991e+06
5.9816575e+05
9.4425925e+05
1.4908400e+06
1.8740181e+06
9.4741088e+05
1.3368779e+06
1.3391535e+06
2.7021162e+06
2.4328665e+06
1.5667506e+06
1.1534968e+06
6.6257988e+05
1.8216884e+06
6.3055350e+05
1.8296359e+06
7.1904956e+05
1.0173058e+06
1.9866958e+06
2.0119062e+06
1.3633784e+06
2.7357440e+06
1.4541956e+06
6.4866019e+05
1.1024621e+06
7.3480969e+05
2.3231965e+06
2.3306465e+06
1.2998425e+06
1.4453399e+06
8.7411044e+05
1.5350931e+06
1.2182034e+06
2.2334798e+06
2.7396728e+06
1.4226859e+06
6.9165844e+05
1.5043084e+06
2.0735671e+06
7.8481750e+05
2.3110268e+06
2.0464961e+06
1.6146890e+06
1.2583605e+06
1.2441776e+06
7.8984081e+05
1.7000745e+06
1.0354203e+06
1.8335964e+06
2.6440225e+06
2.7062625e+06
1.4978504e+06
1.1523780e+06
1.5349631e+06
1.9013052e+06
1.0042952e+06
1.7356114e+06
1.0460514e+06
1.8069218e+06
2.7066018e+06
1.2266855e+06
9.7612500e+05
1.9110172e+06
2.7618338e+06
1.2564639e+06
2.9569302e+06
2.6469520e+06
8.7922862e+05
9.2320131e+05
2.1735005e+06
1.3812699e+06
8.4149775e+05
9.4923356e+05
1.4402610e+06
1.3600294e+06
2.1566998e+06
1.8547180e+06
1.4747272e+06
1.5419284e+06
1.1427602e+06
8.1248581e+05
1.0892580e+06
2.2260992e+06
1.5081476e+06
2.2838738e+06
1.1589926e+06
1.8361316e+06
9.5920131e+05
2.6100885e+06
2.1609685e+06
8.4446950e+05
2.5654548e+06
2.7657392e+06
2.8383312e+06
2.1254380e+06
3.1454865e+06
8.9935019e+05
2.3216560e+06
1.5432992e+06
1.6646110e+06
1.6227912e+06
1.3457779e+06
8.5144200e+05
1.2626584e+06
8.4056775e+05
1.4865675e+06
1.5649672e+06
1.3208074e+06
1.2799941e+06
1.3381488e+06
2.2935642e+06
1.3468146e+06
1.6316166e+06
1.7017775e+06
1.8713205e+06
2.4150348e+06
9.9875112e+05
2.7016970e+06
1.6408896e+06
1.0894079e+06
1.1458985e+06
1.3589050e+06
1.3652146e+06
1.1931665e+06
1.1140516e+06
9.8311444e+05
2.3112385e+06
2.6378005e+06
1.2572776e+06
9.5258688e+05
3.4155998e+06
3.1289290e+06
9.3572944e+05
1.6533812e+06
2.3625085e+06
2.2066305e+06
1.5420499e+06
2.1506328e+06
2.4929642e+06
2.0045675e+06
2.0110751e+06
2.0361872e+06
1.0215545e+06
1.7401555e+06
1.5976110e+06
2.3596318e+06
1.6096622e+06
1.6075371e+06
1.0129743e+06
1.5315398e+06
1.0459908e+06
1.3347751e+06
1.3281154e+06
1.2151309e+06
8.9759362e+05
1.0587449e+06
1.2937449e+06
1.3825851e+06
1.1335838e+06
1.6253175e+06
1.3735299e+06
1.8033352e+06
1.5904441e+06
1.1687918e+06
6.2663762e+05
1.0622108e+06
9.7957731e+05
1.6030830e+06
1.6476785e+06
2.7493538e+06
2.8602520e+06
3.0612842e+06
3.1176910e+06
2.6381488e+06
2.3502118e+06
3.0689832e+06
2.7766825e+06
2.6917192e+06
2.7978450e+06
2.0643048e+06
2.3670152e+06
1.8861942e+06
2.0951038e+06
1.5415272e+06
1.2860425e+06
1.2480218e+06
1.1903592e+06
1.3323970e+06
1.1756681e+06
1.6949839e+06
7.9485081e+05
1.4411938e+06
1.0046225e+06
1.0810074e+06
1.6841906e+06
9.6240356e+05
9.5721444e+05
1.2243571e+06
1.0587758e+06
9.0899069e+05
1.7009458e+06
1.4948030e+06
1.6419276e+06
1.4102304e+06
1.8270919e+06
1.9057825e+06
1.5602102e+06
1.0929652e+06
1.5695169e+06
2.0975445e+06
1.0105116e+06
2.5595928e+06
2.3900065e+06
1.4575264e+06
2.0992935e+06
2.2489122e+06
1.6465748e+06
8.6550356e+05
1.8534338e+06
1.4847044e+06
1.0823435e+06
1.4523275e+06
1.1441895e+06
3.0655195e+06
8.6626169e+05
1.5339362e+06
1.3019228e+06
2.8748515e+06
1.1068586e+06
1.0069820e+06
1.2935352e+06
8.6909031e+05
1.2512959e+06
1.1212984e+06
9.5506900e+05
1.8265332e+06
2.0138156e+06
2.4424568e+06
1.2748282e+06
2.7866240e+06
1.7311336e+06
1.0822180e+06
1.1692658e+06
1.5875632e+06
9.7291419e+05
9.4145744e+05
1.2513730e+06
3.3284778e+06
2.4873808e+06
2.6302800e+06
1.6906102e+06
2.2315710e+06
1.1494860e+06
1.6910289e+06
1.4007630e+06
1.8973282e+06
1.3861149e+06
1.6122211e+06
2.0141514e+06
1.1012818e+06
1.4798322e+06
2.3658502e+06
9.8864644e+05
6.7337944e+05
2.5739975e+06
1.9316662e+06
1.0488985e+06
1.7048714e+06
1.3421239e+06
2.8031445e+06
1.0311001e+06
1.2580351e+06
1.5349751e+06
1.9733160e+06
2.4226772e+06
8.9833638e+05
1.1710365e+06
1.3087006e+06
1.1324738e+06
8.8587106e+05
2.5194300e+06
2.9128832e+06
3.0227315e+06
1.5153669e+06
9.2475019e+05
1.7266289e+06
2.3624760e+06
9.8896362e+05
2.5711822e+06
7.2208038e+05
9.8988119e+05
1.7225330e+06
1.4616679e+06
1.2539936e+06
1.1405020e+06
2.0038382e+06
9.5404538e+05
1.8411759e+06
1.9206605e+06
1.5805430e+06
3.2335112e+06
8.4185081e+05
1.0173812e+06
2.4246302e+06
9.6270631e+05
1.6681676e+06
1.3659408e+06
2.9510572e+06
1.2041935e+06
1.3899566e+06
1.5968254e+06
7.0950119e+05
1.4200989e+06
2.0563301e+06
1.6825092e+06
2.5961138e+06
1.9043410e+06
1.5460615e+06
2.8846372e+06
2.2047058e+06
1.3685924e+06
2.7171755e+06
9.0540238e+05
8.4872662e+05
1.5133178e+06
1.7876160e+06
1.1029092e+06
1.5396328e+06
1.5362884e+06
1.1294432e+06
8.3600944e+05
2.7276172e+06
2.3233965e+06
1.6342235e+06
1.9654185e+06
2.3224348e+06
9.6953344e+05
2.1332240e+06
1.2477160e+06
1.0796026e+06
8.8526569e+05
1.2782924e+06
1.3441201e+06
1.6661770e+06
2.9674585e+06
2.1781355e+06
1.5875878e+06
1.3171156e+06
2.1978265e+06
9.4399831e+05
1.9942924e+06
1.7247076e+06
8.3475862e+05
1.6007289e+06
1.2833571e+06
1.4882029e+06
2.0668460e+06
2.8726230e+06
9.1157656e+05
1.9164111e+06
1.4886698e+06
2.4800505e+06
2.7028260e+06
1.1255860e+06
1.6721714e+06
8.8201588e+05
1.0370596e+06
1.8047080e+06
7.1562369e+05
1.0327096e+06
1.4511419e+06
1.4234851e+06
1.5654236e+06
2.8094700e+06
2.7981622e+06
2.6619430e+06
1.0917514e+06
1.8068030e+06
9.4862331e+05
1.5199811e+06
2.2617605e+06
2.2225025e+06
7.3341138e+05
1.4321029e+06
6.8911975e+05
1.6032098e+06
6.2582450e+05
2.5252292e+06
1.2972930e+06
8.1587294e+05
1.3431146e+06
8.7782519e+05
1.6645500e+06
2.8601742e+06
2.7922188e+06
5.6016344e+05
7.1935819e+05
1.6807061e+06
1.6670479e+06
8.8247638e+05
6.8939825e+05
1.2968614e+06
2.0495041e+06
1.0434966e+06
2.6295578e+06
1.5622460e+06
1.6984138e+06
2.3051735e+06
1.3776475e+06
2.9360555e+06
2.5386450e+06
1.5807145e+06
1.6534279e+06
6.4641944e+05
2.3254678e+06
1.6024901e+06
5.8978850e+05
8.9281125e+05
1.6317425e+06
1.2756156e+06
1.6931140e+06
6.9464881e+05
1.2030574e+06
1.2938146e+06
2.3500665e+06
2.5482888e+06
6.7416419e+05
8.6700262e+05
9.4508481e+05
1.4299221e+06
2.6250762e+06
1.6943326e+06
1.7095718e+06
8.6931238e+05
1.1315141e+06
2.5030375e+06
1.2739695e+06
1.1852059e+06
2.8441442e+06
3.0946088e+06
1.6051565e+06
8.6151712e+05
2.0141220e+06
6.9264119e+05
1.7533722e+06
1.3767024e+06
6.8977994e+05
1.0755280e+06
8.6088969e+05
1.4874448e+06
1.9812968e+06
2.9352508e+06
8.0729444e+05
1.6465039e+06
2.2873650e+06
3.1697555e+06
1.6367672e+06
1.4677368e+06
2.7373520e+06
2.3951868e+06
6.5219688e+05
1.3064629e+06
1.5984530e+06
8.5476006e+05
1.2965038e+06
9.2131144e+05
1.5634552e+06
7.6595200e+05
1.6426328e+06
2.7360428e+06
2.7883502e+06
2.1647410e+06
2.1227480e+06
6.6897888e+05
9.7178738e+05
1.6647052e+06
6.2061481e+05
2.2929750e+06
1.7353012e+06
1.5031874e+06
1.8390665e+06
2.1067145e+06
1.2099285e+06
1.3508638e+06
1.2293311e+06
1.7094834e+06
1.0187383e+06
2.6576828e+06
2.3277272e+06
1.6493574e+06
8.8128244e+05
1.6393439e+06
5.8269625e+05
7.9717806e+05
1.0847942e+06
1.0734888e+06
1.4299149e+06
1.8264512e+06
2.5069850e+06
1.4048569e+06
2.9337348e+06
1.8490779e+06
1.5209329e+06
2.7705118e+06
2.2079065e+06
1.3273912e+06
5.9187231e+05
2.4960275e+06
5.8544000e+05
1.4763445e+06
1.8288315e+06
1.7821631e+06
9.6046800e+05
7.5161612e+05
1.5332566e+06
6.9911606e+05
5.1631838e+05
2.6428022e+06
1.7656521e+06
3.2010790e+06
1.5712290e+06
1.7907739e+06
1.0979772e+06
1.8329401e+06
1.8226044e+06
8.2804944e+05
2.5368790e+06
1.2818606e+06
1.7156912e+06
1.7774818e+06
2.6989005e+06
1.4971766e+06
3.1207190e+06
2.9023585e+06
2.7664610e+06
7.8414331e+05
8.4782300e+05
7.6265094e+05
1.3419652e+06
7.8244006e+05
2.7542002e+06
2.0865858e+06
7.7149662e+05
1.2758168e+06
2.2812258e+06
2.9175565e+06
1.4317695e+06
1.5665410e+06
2.6793370e+06
1.7885739e+06
2.3575732e+06
2.2139160e+06
9.9519875e+05
1.8251696e+06
2.5596952e+06
1.8040559e+06
1.8240969e+06
1.1534898e+06
1.1133462e+06
9.1909750e+05
1.1941870e+06
1.3352945e+06
1.6221460e+06
7.7312938e+05
1.6682959e+06
2.9995572e+06
2.9644752e+06
2.8871798e+06
1.2792284e+06
1.5182526e+06
2.0004506e+06
9.8861531e+05
9.0728169e+05
9.1436112e+05
1.5366905e+06
2.4160870e+06
1.7550775e+06
2.4988088e+06
1.9681694e+06
1.5202901e+06
6.4143319e+05
1.0083665e+06
1.0268322e+06
1.3133364e+06
3.0464465e+06
1.3867712e+06
2.7927908e+06
1.7017429e+06
1.0997450e+06
1.8686830e+06
9.4803312e+05
1.9052015e+06
1.0661229e+06
1.7962195e+06
1.7857835e+06
8.3049681e+05
1.1997349e+06
2.0835530e+06
3.2282785e+06
3.6577340e+06
3.2019880e+06
1.6661780e+06
2.8855248e+06
1.7788265e+06
2.3337940e+06
8.0106412e+05
2.6214295e+06
8.1581381e+05
9.6849662e+05
2.5597300e+06
1.4258934e+06
1.9624051e+06
1.4405051e+06
3.0461485e+06
1.5133986e+06
2.7043770e+06
9.2593588e+05
9.0245425e+05
1.2391030e+06
1.6411925e+06
1.7102562e+06
1.3662745e+06
2.1226548e+06
1.1491236e+06
1.9892226e+06
1.6116670e+06
1.3960956e+06
1.5705516e+06
1.8624268e+06
2.3939328e+06
1.0979288e+06
1.6933678e+06
3.2947745e+06
2.7918595e+06
1.5527698e+06
2.6632600e+06
9.1710556e+05
9.1565012e+05
3.1776042e+06
1.3801190e+06
7.3188994e+05
1.6524648e+06
1.3541278e+06
1.5106090e+06
8.5794744e+05
1.4744515e+06
1.8316599e+06
2.4919920e+06
1.2338565e+06
3.4727485e+06
2.5782925e+06
2.8299585e+06
8.9428506e+05
2.1839002e+06
1.7256034e+06
2.1473440e+06
1.8976398e+06
1.4980339e+06
2.1038828e+06
2.7268472e+06
2.3129238e+06
1.6532481e+06
1.2131615e+06
1.2450651e+06
1.8131288e+06
3.1670020e+06
3.3633158e+06
3.0492632e+06
2.2933972e+06
9.1407544e+05
1.8937069e+06
8.9685262e+05
1.7166511e+06
1.1984791e+06
1.4106928e+06
1.7543552e+06
1.0160810e+06
3.0332580e+06
1.9147132e+06
3.3859598e+06
1.6821618e+06
1.1526838e+06
1.1244215e+06
1.5879029e+06
2.2711795e+06
3.0763735e+06
3.0403740e+06
1.8920720e+06
6.5104031e+05
1.7742818e+06
1.0933806e+06
1.9157866e+06
9.6852006e+05
1.5887729e+06
3.6819365e+06
1.9930405e+06
2.8114445e+06
2.2372490e+06
2.9460680e+06
2.1386812e+06
2.5957432e+06
6.8567438e+05
6.9800312e+05
1.6330080e+06
2.0028008e+06
2.4647402e+06
1.2221895e+06
1.6104764e+06
1.1693980e+06
2.1762368e+06
2.0650279e+06
1.7246769e+06
6.7777788e+05
1.7276881e+06
3.2358548e+06
2.5430128e+06
5.8533981e+05
1.6561948e+06
1.0413813e+06
1.1440714e+06
1.9073032e+06
2.8621032e+06
1.7152846e+06
1.5648522e+06
2.6134708e+06
1.0206031e+06
3.5966070e+06
1.8448108e+06
2.9065055e+06
1.8612426e+06
1.7746324e+06
2.5260578e+06
7.5508512e+05
2.4082922e+06
8.2459069e+05
3.1121620e+06
1.3992828e+06
2.1129072e+06
1.3885245e+06
1.8198640e+06
2.7030350e+06
2.3238035e+06
3.2188008e+06
8.8046000e+05
1.9907471e+06
1.9935610e+06
2.0458528e+06
2.8581322e+06
1.1560510e+06
2.3758430e+06
1.9900950e+06
1.6461748e+06
1.1772468e+06
1.8526350e+06
2.7829122e+06
1.1886966e+06
3.6111842e+06
2.0929640e+06
2.7339088e+06
3.2123738e+06
3.2885182e+06
1.7287859e+06
2.2281048e+06
1.1412042e+06
1.0920799e+06
1.8253290e+06
1.0324258e+06
1.2638171e+06
1.8782002e+06
1.7971890e+06
3.1300300e+06
1.4905754e+06
1.9142689e+06
3.5448675e+06
2.1782148e+06
1.2898951e+06
1.8253962e+06
2.6692490e+06
3.4643872e+06
2.1631255e+06
2.2411455e+06
1.6486525e+06
2.8328478e+06
1.2639936e+06
2.3350352e+06
1.6404796e+06
1.2251280e+06
1.4551904e+06
2.4458608e+06
1.9602921e+06
1.5564025e+06
1.1069989e+06
4.2076445e+06
3.4364532e+06
1.7361331e+06
2.4808430e+06
2.5650485e+06
3.1880550e+06
2.2054468e+06
1.1268318e+06
2.5531312e+06
8.1716888e+05
1.1423942e+06
1.3153848e+06
1.8595242e+06
1.9344882e+06
3.1648625e+06
1.4407616e+06
1.9394196e+06
1.4661069e+06
9.3230550e+05
1.5156411e+06
1.8537938e+06
3.7696282e+06
2.4616225e+06
3.1512800e+06
8.3205825e+05
3.0741395e+06
1.8856325e+06
2.3007612e+06
1.7226461e+06
1.2888144e+06
9.6582756e+05
1.4467115e+06
1.6908010e+06
2.8089512e+06
1.6949110e+06
1.4615804e+06
3.9279740e+06
1.1273254e+06
3.7512865e+06
2.5682600e+06
2.4942965e+06
2.9502405e+06
2.4212662e+06
1.6436969e+06
1.7957498e+06
2.7118785e+06
7.4792694e+05
9.0074975e+05
1.4463425e+06
2.4504738e+06
1.3435901e+06
1.3941504e+06
2.8692780e+06
2.7057705e+06
1.6020794e+06
1.4584484e+06
1.8137698e+06
2.4368332e+06
7.5734706e+05
3.1707422e+06
1.8538200e+06
1.8661358e+06
9.7687069e+05
1.1970839e+06
1.0762796e+06
1.4483500e+06
2.1315648e+06
1.2947246e+06
2.5534642e+06
3.7653588e+06
1.5743956e+06
2.7528358e+06
2.2106995e+06
2.1015638e+06
3.4971595e+06
2.0811022e+06
1.8818389e+06
1.9743171e+06
1.0687959e+06
9.8153869e+05
1.2258866e+06
3.4918868e+06
1.8170451e+06
1.7183781e+06
1.9553914e+06
2.5470342e+06
3.7176722e+06
8.6925869e+05
1.9982106e+06
3.3527582e+06
3.3661645e+06
2.6253040e+06
1.1745492e+06
3.2704688e+06
1.3231559e+06
1.4377619e+06
1.7900358e+06
2.3740895e+06
1.4263235e+06
1.4677685e+06
1.7482309e+06
1.3319340e+06
9.8231175e+05
1.8768908e+06
2.8720920e+06
3.0927100e+06
1.6822992e+06
2.0482761e+06
2.3992872e+06
1.7105995e+06
1.0773108e+06
2.6087625e+06
2.4829678e+06
1.6653481e+06
1.1122021e+06
1.8870625e+06
1.6867569e+06
1.8647878e+06
3.4408352e+06
1.8316556e+06
1.4017956e+06
2.2229182e+06
3.0733568e+06
1.0939961e+06
1.5772729e+06
1.1160085e+06
1.0798404e+06
1.9013476e+06
1.4153639e+06
1.3373831e+06
1.8969638e+06
3.2905198e+06
1.9401172e+06
3.9144610e+06
3.2372868e+06
1.5515318e+06
2.8166775e+06
1.7702226e+06
3.6452520e+06
1.9107270e+06
1.0909430e+06
2.7164708e+06
2.1352322e+06
2.1218665e+06
9.9651256e+05
2.9585460e+06
1.1621222e+06
1.5936274e+06
1.8870269e+06
2.1720830e+06
4.0357240e+06
2.0912599e+06
2.8362375e+06
1.0241161e+06
1.2173942e+06
1.6672519e+06
1.1429982e+06
1.9707658e+06
2.3844395e+06
3.1184005e+06
2.4010318e+06
1.3289562e+06
1.7297766e+06
1.4213118e+06
1.6354091e+06
2.4075515e+06
2.4931692e+06
3.5619295e+06
2.8996088e+06
2.2073295e+06
2.6038698e+06
9.4375725e+05
2.1173635e+06
9.8816725e+05
1.5663024e+06
1.2719738e+06
1.5960629e+06
1.1681071e+06
2.0477084e+06
2.5974578e+06
3.7911962e+06
2.6291822e+06
1.4046786e+06
3.1557165e+06
2.2002852e+06
1.0958411e+06
3.7331195e+06
1.6722841e+06
2.5104572e+06
1.0595559e+06
1.9185799e+06
1.2773411e+06
2.5220658e+06
1.4698975e+06
1.9726555e+06
1.4924938e+06
1.6121262e+06
3.7793628e+06
1.5534521e+06
4.0710330e+06
1.8368648e+06
2.1205052e+06
9.7653756e+05
2.5057822e+06
9.4350981e+05
1.8660561e+06
2.5577510e+06
3.2576190e+06
2.8597660e+06
2.0785052e+06
1.0185545e+06
1.5272025e+06
2.1230242e+06
1.1854459e+06
3.1926122e+06
3.3570555e+06
3.1827542e+06
9.6941212e+05
1.1222970e+06
2.2028848e+06
1.5708376e+06
2.4655155e+06
1.5159296e+06
2.6788265e+06
1.1830816e+06
6.5906362e+05
1.6837386e+06
1.2409389e+06
1.6800731e+06
2.8027752e+06
1.5462446e+06
3.8615862e+06
3.5444800e+06
3.0655210e+06
1.7424761e+06
1.8752749e+06
3.1064812e+06
2.3648938e+06
8.6495762e+05
9.6354656e+05
1.8490586e+06
2.2335192e+06
1.7649629e+06
1.8654624e+06
1.1578799e+06
1.3899814e+06
1.1052689e+06
1.3824640e+06
3.3080438e+06
3.3559850e+06
1.9095842e+06
2.1687125e+06
1.0277314e+06
1.6653864e+06
2.8297775e+06
1.3203192e+06
2.8881898e+06
2.0251714e+06
1.2021186e+06
1.8780512e+06
1.7797540e+06
3.6033642e+06
1.5368975e+06
3.6505182e+06
2.9410305e+06
1.5897391e+06
3.2151105e+06
1.9529341e+06
2.2936325e+06
1.0246232e+06
2.2434092e+06
1.0175907e+06
3.1799018e+06
9.0388712e+05
9.2042862e+05
1.6194408e+06
2.3966762e+06
1.5397328e+06
2.0117972e+06
2.2161810e+06
2.8958265e+06
1.9503712e+06
3.0421472e+06
3.8565170e+06
3.1394955e+06
9.8741662e+05
1.1505998e+06
1.9683212e+06
1.2001381e+06
1.4016569e+06
2.5554760e+06
1.2075289e+06
2.4859182e+06
2.0182088e+06
1.6582218e+06
2.4334115e+06
1.7390976e+06
1.1272775e+06
3.9679182e+06
3.1814005e+06
2.5816618e+06
2.6255398e+06
8.5486481e+05
9.5362431e+05
1.2022072e+06
1.6908481e+06
1.9838424e+06
3.2086762e+06
1.6219224e+06
1.3786196e+06
1.1394631e+06
2.8729540e+06
1.4256850e+06
1.8783250e+06
3.6357120e+06
2.2431445e+06
2.9481062e+06
1.5090035e+06
2.4199475e+06
8.6336875e+05
2.4693865e+06
1.0284906e+06
2.3205168e+06
1.8080840e+06
1.3081389e+06
1.8973036e+06
1.1664248e+06
2.0887551e+06
4.1862738e+06
1.5854272e+06
3.0838975e+06
1.3911504e+06
2.7230510e+06
2.4128628e+06
3.3202428e+06
4.0574702e+06
1.6250070e+06
1.0058931e+06
9.9091369e+05
4.3952560e+06
1.0190959e+06
3.5774762e+06
1.9639246e+06
1.3150280e+06
1.9268178e+06
3.1735918e+06
9.9845431e+05
3.6650600e+06
2.0953209e+06
3.8223085e+06
3.1492095e+06
2.7820690e+06
1.0000341e+06
1.1272410e+06
1.9271195e+06
2.3483908e+06
2.4403238e+06
1.1174982e+06
1.0747765e+06
1.5263196e+06
2.5330350e+06
2.7643955e+06
1.6565481e+06
1.6540926e+06
2.0342018e+06
1.6907498e+06
4.0788295e+06
3.4266782e+06
1.3178532e+06
1.8617698e+06
2.0964962e+06
1.4861919e+06
2.7335668e+06
1.9459814e+06
7.7690044e+05
2.1104808e+06
8.3784375e+05
2.9359710e+06
1.2373294e+06
2.4118045e+06
1.3236476e+06
3.4222678e+06
3.2383015e+06
3.4549508e+06
1.4906490e+06
2.1453362e+06
3.0248342e+06
1.5501460e+06
9.2164888e+05
1.1308350e+06
2.0639598e+06
1.9772821e+06
1.2929476e+06
2.0249212e+06
2.0789835e+06
2.1171648e+06
4.0871582e+06
1.6471281e+06
3.0413008e+06
1.9890646e+06
2.1792298e+06
9.8009538e+05
2.0109252e+06
2.3634762e+06
9.3384306e+05
3.2617195e+06
3.3275638e+06
1.5530426e+06
1.6345004e+06
1.0878564e+06
1.6508151e+06
2.2742145e+06
2.1447982e+06
2.0717615e+06
1.3202606e+06
2.5970998e+06
3.3067340e+06
3.3078572e+06
1.2374892e+06
1.2322760e+06
1.4858984e+06
2.0273469e+06
2.7203960e+06
2.8653235e+06
2.6162482e+06
1.2586446e+06
2.0917151e+06
1.9567319e+06
3.7847412e+06
2.0505168e+06
2.5570488e+06
1.4584401e+06
2.7102980e+06
3.1161892e+06
1.0760988e+06
1.1100888e+06
1.8862422e+06
2.3596632e+06
3.4514222e+06
1.0056876e+06
1.1745909e+06
1.3611885e+06
1.1510844e+06
1.4630825e+06
1.6217686e+06
2.1892040e+06
3.0480610e+06
3.9449080e+06
1.9503079e+06
3.0079995e+06
1.9868519e+06
2.1959365e+06
1.4642321e+06
1.2559016e+06
1.4784380e+06
2.3173090e+06
2.4129712e+06
2.8440800e+06
1.9362739e+06
2.6786340e+06
2.8307088e+06
1.9067370e+06
3.5265022e+06
1.6982144e+06
3.4364368e+06
1.1786066e+06
1.8095188e+06
1.1552392e+06
3.5597580e+06
1.1660116e+06
1.3991451e+06
2.3130490e+06
1.5266851e+06
2.8579798e+06
2.1653540e+06
2.0511056e+06
3.0990208e+06
2.1531420e+06
2.9184025e+06
1.5377606e+06
3.1692278e+06
1.5642504e+06
8.3535169e+05
1.5733649e+06
1.2489460e+06
2.1364215e+06
2.1362342e+06
2.1236782e+06
2.8644610e+06
1.2442152e+06
3.7542492e+06
1.3353199e+06
2.4783992e+06
1.8047399e+06
1.5324552e+06
3.7482660e+06
1.5402992e+06
3.3207488e+06
1.8613314e+06
2.2074228e+06
2.5312952e+06
2.7498880e+06
3.0111452e+06
3.9041435e+06
7.5174606e+05
1.2177182e+06
8.5526731e+05
1.2199530e+06
2.5309465e+06
2.3131790e+06
1.7672822e+06
1.6804741e+06
2.2845225e+06
3.3227690e+06
1.4613126e+06
4.0406102e+06
3.8505970e+06
3.2689445e+06
1.3262502e+06
8.9316788e+05
1.8219950e+06
1.0691941e+06
2.3133682e+06
2.0756901e+06
3.2193760e+06
3.1937420e+06
1.4045362e+06
1.2895951e+06
1.1046191e+06
1.5992738e+06
4.4881160e+06
3.4811010e+06
2.4491742e+06
1.5073094e+06
8.8608131e+05
3.2248342e+06
2.7529705e+06
7.9228938e+05
2.8877812e+06
1.0220241e+06
4.1042840e+06
1.6334434e+06
2.2606638e+06
3.2255510e+06
1.7951949e+06
1.4713064e+06
6.2514750e+05
2.1540578e+06
2.1107900e+06
4.4576210e+06
3.8562610e+06
1.4719088e+06
2.0892532e+06
1.0861676e+06
2.2677875e+06
1.4781502e+06
1.7954845e+06
1.9571784e+06
2.3016365e+06
2.4823912e+06
1.4016532e+06
3.4227795e+06
2.6839262e+06
9.2400631e+05
1.5697724e+06
1.8144564e+06
4.2449350e+06
3.8278640e+06
1.1539032e+06
1.4249966e+06
2.3493245e+06
3.1798538e+06
3.0199218e+06
1.2068192e+06
3.3477838e+06
6.9292919e+05
6.3885044e+05
2.0893766e+06
1.9280005e+06
3.0771670e+06
1.2383478e+06
7.8147669e+05
1.9706620e+06
1.0491419e+06
3.8005378e+06
1.6697305e+06
3.1595980e+06
1.9643181e+06
2.4855805e+06
3.3419412e+06
1.2605355e+06
2.2057155e+06
1.0576874e+06
1.8043810e+06
1.6694331e+06
2.2302010e+06
3.1205495e+06
3.9329145e+06
1.8800580e+06
3.2833548e+06
3.1821748e+06
1.9076088e+06
9.4260638e+05
1.8803411e+06
4.4379420e+06
3.0535660e+06
2.6146000e+06
3.3429975e+06
1.8798209e+06
8.9389562e+05
9.0699219e+05
1.0918465e+06
3.2287622e+06
9.2784706e+05
3.1214990e+06
1.4109821e+06
1.5751580e+06
3.1915842e+06
2.2050675e+06
1.9681856e+06
1.2893022e+06
4.3137240e+06
2.1248540e+06
3.9271930e+06
8.6114031e+05
1.6836676e+06
1.2493995e+06
2.5215008e+06
3.4138565e+06
3.1110388e+06
2.0856360e+06
1.4357682e+06
1.7797335e+06
1.4852994e+06
2.1815152e+06
2.5532530e+06
1.2750315e+06
1.6910609e+06
1.5021304e+06
1.0931009e+06
2.5244265e+06
2.2786720e+06
1.0026548e+06
2.1498260e+06
3.8735082e+06
3.4651435e+06
1.0332862e+06
8.5789781e+05
1.7699534e+06
3.7231942e+06
3.0680938e+06
8.5513050e+05
3.0925188e+06
2.7212878e+06
2.2872245e+06
2.3524800e+06
3.4568632e+06
3.8442882e+06
1.7496911e+06
3.8538230e+06
1.3823345e+06
3.1943815e+06
2.1262362e+06
3.6062885e+06
3.9353775e+06
1.2237480e+06
2.3066182e+06
2.2452142e+06
2.0801229e+06
3.4137985e+06
1.8314442e+06
1.8982635e+06
9.3218256e+05
1.7364238e+06
1.5040968e+06
2.5698305e+06
3.0518212e+06
2.6575192e+06
8.9402688e+05
1.5177448e+06
1.4074460e+06
1.9580275e+06
1.3244101e+06
2.0285082e+06
1.4904906e+06
1.1217289e+06
1.9044299e+06
3.5177370e+06
1.3974511e+06
1.0980309e+06
1.9053868e+06
3.0024100e+06
1.2913748e+06
1.3735348e+06
4.3350120e+06
4.1388465e+06
1.7897044e+06
1.2279549e+06
2.4783285e+06
1.4204434e+06
2.0566086e+06
3.3669152e+06
3.6303078e+06
3.6199125e+06
2.1946448e+06
3.9550270e+06
2.2343135e+06
3.5534198e+06
3.1455038e+06
2.6347112e+06
2.3513975e+06
3.4714098e+06
2.2436125e+06
3.0504880e+06
1.4638846e+06
2.8718072e+06
2.8375832e+06
2.1161660e+06
2.1071142e+06
1.2119026e+06
2.2984580e+06
1.9750012e+06
1.6149970e+06
1.2866229e+06
1.5401199e+06
2.1031762e+06
2.0992488e+06
1.1899092e+06
1.2523515e+06
1.2203869e+06
1.4589620e+06
1.5136096e+06
1.4855545e+06
1.6377895e+06
1.6737032e+06
1.3688371e+06
2.3779995e+06
2.6540828e+06
1.2756155e+06
1.9151012e+06
1.6107558e+06
1.9652326e+06
1.0003542e+06
1.7510302e+06
2.0538832e+06
3.3018645e+06
3.0316090e+06
3.7058380e+06
3.7123122e+06
3.9042778e+06
3.7869625e+06
4.0375258e+06
3.3339700e+06
4.0745200e+06
3.1842575e+06
3.5037102e+06
3.7940940e+06
1.8441602e+06
3.0586032e+06
2.8060432e+06
3.6368582e+06
2.6006072e+06
2.9606942e+06
2.0316048e+06
2.6077592e+06
3.2114038e+06
2.1342930e+06
1.1797070e+06
1.4482851e+06
2.6779782e+06
1.3899230e+06
1.7273215e+06
1.5280479e+06
1.4413719e+06
1.6795399e+06
1.5690919e+06
2.0536000e+06
1.8001095e+06
3.4635556e+05
1.5262784e+06
1.2990605e+06
1.6047619e+06
1.3766091e+06
1.6936682e+06
1.4265299e+06
2.7373078e+06
2.2918335e+06
1.5114092e+06
1.1202448e+06
3.9546375e+06
1.8548801e+06
2.3195130e+06
2.4416605e+06
1.9992408e+06
1.3152155e+06
1.8226666e+06
2.0995750e+06
3.5844268e+06
3.2853700e+06
2.8726132e+06
2.4759598e+06
4.1406888e+06
2.7598288e+06
2.2301395e+06
4.0746525e+06
2.7330850e+06
2.8581848e+06
6.8747894e+05
1.6348862e+06
2.8512198e+06
2.7555650e+06
1.7171780e+06
8.0346375e+05
1.3003298e+06
1.4819222e+06
2.1384798e+06
1.3568198e+06
2.1753210e+06
1.3772536e+06
1.3732666e+06
1.7438514e+06
3.5456258e+06
1.8695309e+06
1.1817272e+06
1.5759518e+06
1.3990022e+06
3.0478290e+06
1.1549722e+06
1.5334904e+06
2.7757202e+06
1.7234978e+06
1.2778142e+06
2.7683240e+06
3.7912318e+06
3.5653690e+06
2.4471292e+06
1.0651935e+06
1.2282305e+06
1.6365038e+06
3.5240532e+06
1.2356182e+06
1.4567672e+06
1.7676776e+06
2.2013878e+06
1.0017369e+06
3.7925328e+06
2.7383345e+06
1.4650208e+06
3.1234998e+06
1.9757981e+06
8.7880138e+05
3.2588048e+06
1.1637172e+06
2.2951965e+06
1.8951779e+06
3.3601662e+06
2.3389712e+06
1.8614606e+06
9.8853088e+05
2.1171975e+06
3.9629998e+06
3.5092095e+06
1.5375054e+06
3.5478278e+06
1.3811776e+06
3.2493960e+06
1.6726439e+06
1.9211838e+06
1.2670704e+06
2.7968855e+06
2.6806192e+06
9.4291894e+05
1.4049740e+06
1.8055809e+06
1.9141839e+06
1.7513888e+06
2.3517415e+06
3.8191888e+06
1.1354309e+06
2.6373190e+06
2.2793268e+06
1.3010795e+06
1.2724910e+06
1.8037932e+06
1.7451235e+06
1.1463649e+06
1.4237416e+06
3.1288465e+06
1.9745568e+06
8.9368475e+05
1.7999631e+06
4.1175192e+06
1.0983840e+06
2.0194099e+06
3.2131120e+06
1.7228654e+06
2.9537905e+06
3.0082620e+06
1.7758086e+06
9.1415712e+05
7.3624081e+05
1.0682765e+06
2.4982848e+06
1.7165969e+06
1.0197359e+06
7.6670412e+05
2.9964538e+06
3.5021445e+06
1.2798609e+06
9.7646994e+05
1.5451022e+06
3.0323702e+06
2.0785839e+06
2.6064362e+06
9.7888625e+05
2.3015868e+06
1.5938098e+06
3.5976950e+06
1.8257151e+06
2.7302430e+06
1.2430421e+06
1.2430869e+06
1.9615164e+06
9.7505969e+05
3.2726252e+06
3.3671375e+06
2.2878420e+06
1.4528440e+06
8.2637769e+05
1.3446471e+06
2.2827945e+06
1.0179141e+06
1.6595820e+06
1.4666685e+06
1.0615448e+06
3.0048968e+06
2.0961836e+06
2.3730018e+06
1.0700088e+06
1.5807995e+06
1.4445060e+06
2.6536258e+06
1.2026834e+06
2.9115275e+06
2.3317282e+06
8.6701562e+05
9.0011712e+05
3.5595990e+06
3.4568515e+06
7.9573044e+05
2.8940785e+06
1.9888340e+06
3.7017388e+06
1.4658741e+06
3.6232752e+06
1.8900555e+06
2.5714095e+06
1.1199696e+06
1.0900738e+06
1.7437020e+06
9.0032081e+05
3.4038465e+06
3.1599602e+06
1.7129140e+06
1.8582322e+06
8.6446475e+05
3.4255865e+06
1.7775495e+06
1.6674008e+06
3.1449922e+06
1.9377426e+06
2.6284572e+06
1.7755846e+06
1.2210510e+06
1.1881786e+06
2.5523125e+06
3.0977172e+06
1.3144898e+06
1.1759194e+06
1.0488300e+06
9.1816181e+05
1.9968258e+06
1.8031492e+06
1.8276431e+06
2.9617568e+06
6.8386625e+05
6.7688944e+05
2.9810572e+06
3.6761778e+06
1.6588128e+06
1.4964610e+06
2.9241982e+06
3.2542475e+06
1.9395981e+06
2.7169468e+06
1.1238774e+06
1.4183511e+06
7.9670512e+05
1.8374072e+06
9.5811675e+05
1.4569461e+06
2.1488390e+06
8.6212769e+05
2.3497488e+06
3.1321092e+06
2.9954350e+06
7.2154688e+05
2.8049998e+06
7.6067981e+05
1.7632440e+06
1.3032690e+06
2.7046170e+06
1.5148399e+06
1.3863995e+06
1.8688121e+06
1.3108458e+06
1.1423732e+06
2.1144525e+06
1.3226742e+06
9.9865406e+05
6.3413981e+05
5.8012412e+05
3.4930078e+06
2.4001300e+06
2.1151715e+06
2.6854102e+06
3.3576155e+06
2.4074935e+06
2.6002285e+06
2.1025320e+06
9.7241625e+05
1.3694166e+06
1.4929678e+06
2.5755918e+06
2.3673732e+06
9.7188762e+05
6.8252725e+05
7.1286544e+05
1.4945668e+06
2.8918842e+06
2.0607048e+06
1.7568655e+06
1.6881595e+06
1.5921228e+06
1.2795455e+06
1.1393461e+06
6.7997406e+05
3.5003485e+06
2.7943650e+06
1.0055299e+06
1.3741699e+06
1.0189524e+06
2.3163568e+06
2.5921795e+06
1.3359454e+06
1.6410350e+06
1.2108615e+06
8.3043650e+05
3.1264185e+06
2.3736488e+06
2.0621572e+06
1.4252244e+06
6.0789288e+05
6.1379350e+05
3.0022272e+06
9.4711069e+05
1.8614629e+06
2.6579092e+06
3.2625570e+06
2.3946980e+06
1.6122792e+06
2.7080918e+06
7.9650144e+05
1.9135765e+06
8.9566125e+05
2.3563900e+06
1.0782800e+06
2.5792910e+06
1.3870785e+06
1.9496618e+06
9.3030294e+05
1.1036000e+06
9.6748919e+05
1.1578480e+06
6.8732244e+05
2.9913630e+06
1.5042320e+06
2.7495728e+06
1.9863271e+06
1.2913594e+06
1.5054574e+06
1.4538778e+06
3.2433832e+06
1.2920074e+06
8.4518844e+05
1.2344578e+06
2.0878361e+06
1.4601129e+06
1.8589892e+06
2.2986342e+06
2.1711575e+06
7.4775200e+05
1.2768529e+06
7.8125262e+05
6.5106512e+05
1.0072198e+06
2.6827860e+06
3.4723900e+06
2.6202940e+06
2.6913288e+06
2.4271078e+06
2.8182485e+06
9.4155438e+05
8.0481569e+05
8.6457538e+05
1.4359279e+06
1.1262578e+06
8.6300712e+05
1.4864826e+06
6.9788419e+05
1.5366428e+06
9.7571262e+05
3.0456658e+06
2.8978538e+06
1.7077001e+06
1.4637292e+06
1.8570676e+06
2.2916862e+06
1.6825984e+06
2.4864488e+06
1.0678148e+06
1.2286874e+06
2.7971135e+06
2.0461001e+06
1.6592145e+06
1.0746362e+06
7.9870494e+05
2.2626535e+06
6.3626181e+05
1.2190120e+06
2.2985360e+06
6.8488975e+05
5.7178569e+05
8.8875600e+05
1.0366286e+06
1.6440538e+06
1.4773202e+06
3.2089180e+06
3.2935132e+06
1.3360289e+06
2.5950365e+06
2.7804948e+06
1.9257014e+06
9.0664462e+05
2.3274850e+06
1.4462266e+06
7.9999475e+05
1.9549130e+06
1.0516504e+06
1.8212314e+06
8.8318206e+05
1.1597958e+06
6.1775869e+05
1.7341460e+06
2.0700288e+06
6.0444425e+05
1.1447052e+06
1.7467405e+06
2.6522638e+06
2.6040365e+06
1.3073011e+06
3.0677092e+06
7.0589294e+05
2.2366712e+06
1.9491132e+06
8.0170288e+05
1.1972650e+06
1.3880169e+06
6.1876738e+05
1.1962208e+06
5.9615506e+05
1.1480332e+06
6.7376775e+05
2.8215622e+06
2.2579230e+06
2.8216710e+06
8.1549412e+05
2.3982685e+06
1.6750258e+06
1.6360084e+06
2.3514038e+06
2.5836758e+06
1.7020771e+06
1.2559655e+06
2.1291600e+06
8.0338375e+05
9.0472331e+05
1.9300106e+06
5.6680519e+05
1.7990069e+06
2.8495878e+06
1.8279824e+06
7.4805425e+05
1.0367610e+06
8.4912975e+05
3.1847665e+06
2.6505208e+06
1.4109479e+06
1.0039772e+06
1.1778826e+06
1.3680266e+06
2.3350640e+06
1.1315262e+06
2.4083698e+06
1.8107326e+06
1.3124060e+06
5.9826369e+05
4.8493559e+05
9.9120850e+05
1.4777928e+06
8.1383738e+05
2.3786198e+06
1.5308091e+06
1.5101375e+06
2.6825195e+06
2.3193835e+06
1.9700419e+06
5.3102175e+05
3.1860912e+06
2.4573592e+06
3.1028402e+06
1.7279980e+06
1.7785618e+06
7.8408862e+05
1.1222655e+06
7.1066631e+05
1.8918186e+06
5.3575019e+05
2.2211232e+06
4.4430259e+05
2.6327190e+06
1.4253064e+06
1.8668754e+06
1.5366358e+06
9.4672462e+05
1.1108464e+06
8.4322412e+05
2.8481542e+06
2.4636365e+06
9.8153800e+05
9.8688225e+05
1.2466452e+06
1.1247455e+06
1.8136424e+06
4.9567706e+05
8.0924194e+05
4.3732506e+05
2.3736082e+06
1.5049595e+06
1.1479581e+06
1.5369932e+06
7.7034362e+05
5.8817812e+05
2.6875505e+06
2.0220059e+06
2.1348722e+06
2.2324408e+06
1.0531841e+06
1.2795032e+06
7.5477269e+05
8.0820175e+05
1.2347331e+06
6.6262131e+05
1.0732740e+06
7.9220856e+05
2.8800275e+06
1.2362018e+06
1.9704569e+06
1.6127352e+06
4.4799409e+05
2.0845188e+06
1.0538881e+06
9.5649825e+05
1.1288249e+06
1.5513066e+06
3.0740928e+06
2.0113795e+06
2.3158888e+06
1.3184848e+06
1.6081599e+06
1.5231736e+06
1.6228029e+06
2.2473868e+06
2.2972215e+06
6.2497525e+05
5.7318462e+05
5.2215441e+05
8.6341794e+05
2.3961478e+06
8.1737706e+05
1.4600094e+06
2.3661012e+06
1.1491781e+06
3.0272948e+06
2.3670940e+06
9.6090450e+05
8.0432806e+05
2.5899320e+06
1.6989856e+06
9.0097150e+05
1.5806640e+06
6.1532131e+05
2.4290472e+06
7.4314275e+05
8.0692562e+05
1.6990671e+06
8.9380994e+05
1.1920959e+06
5.5233412e+05
1.0764792e+06
1.6770605e+06
1.2634151e+06
1.7185321e+06
1.5364089e+06
9.5119744e+05
2.0746374e+06
2.8524912e+06
2.4168710e+06
9.9381081e+05
2.3250815e+06
7.2205975e+05
1.0660865e+06
9.8946938e+05
5.3058656e+05
4.6867503e+05
1.1653594e+06
1.2074795e+06
4.6058225e+05
9.1304062e+05
1.6949159e+06
2.2767758e+06
2.1709738e+06
2.6413000e+06
2.2225585e+06
2.0960940e+06
8.6481594e+05
2.0136355e+06
1.8360750e+06
1.5640310e+06
1.4596964e+06
8.7744319e+05
6.5232238e+05
1.5070928e+06
1.9811302e+06
7.1622181e+05
4.2549128e+05
1.1679750e+06
9.0813475e+05
8.0361569e+05
7.9200075e+05
5.5998338e+05
1.1044262e+06
6.6389150e+05
1.0194982e+06
1.1395085e+06
1.5679328e+06
1.9924115e+06
2.4843978e+06
2.3365932e+06
1.5237375e+06
1.3318601e+06
2.0788899e+06
1.2863219e+06
5.2936312e+05
5.0758934e+05
1.7659601e+06
1.1476671e+06
4.7280325e+05
1.3527622e+06
1.2625598e+06
9.7677544e+05
2.2591240e+06
4.9457234e+05
2.1894728e+06
6.2837550e+05
2.3414295e+06
1.7233552e+06
1.3908512e+06
9.0984788e+05
2.6849035e+06
1.5674294e+06
1.7506750e+06
5.2762438e+05
8.2563338e+05
7.2273188e+05
5.1548769e+05
6.7914938e+05
1.8908619e+06
1.3890066e+06
1.0186131e+06
2.1525848e+06
2.1606655e+06
2.1392902e+06
1.9984751e+06
1.4047570e+06
8.7484500e+05
6.9218512e+05
6.7761431e+05
1.3640904e+06
9.8678119e+05
6.6751394e+05
1.7934075e+06
1.7101671e+06
4.5257128e+05
9.0799062e+05
8.4512944e+05
1.0159901e+06
5.0979512e+05
1.2045932e+06
1.0665964e+06
9.3980512e+05
1.9524196e+06
2.4466930e+06
2.6854228e+06
1.7534658e+06
6.3502706e+05
7.9163425e+05
1.8245440e+06
2.3132210e+06
1.3921131e+06
1.5075339e+06
9.1492400e+05
4.2662906e+05
1.4812402e+06
4.9040991e+05
9.0463850e+05
5.3524838e+05
8.7257838e+05
2.1420352e+06
1.7276781e+06
1.6137385e+06
1.2295660e+06
1.1469780e+06
9.2970762e+05
1.6021975e+06
7.7137962e+05
9.3599812e+05
7.8060512e+05
1.6709508e+06
2.1983835e+06
2.0012134e+06
5.9357981e+05
1.8784939e+06
1.4380221e+06
4.2126256e+05
3.7123088e+05
8.1322381e+05
1.7267718e+06
4.2776228e+05
1.2507976e+06
4.2389850e+05
1.5050516e+06
5.3796062e+05
1.3341415e+06
6.7371275e+05
2.3589518e+06
7.3098681e+05
2.3537045e+06
1.9710951e+06
2.5280900e+06
1.4069631e+06
8.3717606e+05
1.4937581e+06
2.2704275e+06
1.4997080e+06
7.4364106e+05
1.7333185e+06
8.3525388e+05
3.8800528e+05
1.3569571e+06
6.3271750e+05
1.1269482e+06
1.5520399e+06
8.8242750e+05
5.6875469e+05
5.3414500e+05
1.3039821e+06
9.6224506e+05
2.4342910e+06
1.9291381e+06
8.7389862e+05
1.3498280e+06
4.2156128e+05
1.8808614e+06
7.9060062e+05
1.3488444e+06
4.1413394e+05
1.5237890e+06
9.0206875e+05
5.4709044e+05
1.4558842e+06
8.5998881e+05
4.2565566e+05
6.5479000e+05
1.2386716e+06
2.3522758e+06
4.1858491e+05
5.8603712e+05
7.7332944e+05
1.8598006e+06
8.8052575e+05
1.5138240e+06
8.0258275e+05
1.1307855e+06
1.2139300e+06
7.5138212e+05
2.4368415e+06
1.5379395e+06
7.7753681e+05
1.8193484e+06
2.0072595e+06
6.6960500e+05
3.5542681e+05
1.7126075e+06
8.8098488e+05
1.7712492e+06
1.6042452e+06
1.2687459e+06
4.5404638e+05
8.7210906e+05
8.1781631e+05
2.4545402e+06
1.7635171e+06
4.4869891e+05
1.1331528e+06
5.9248731e+05
1.0955286e+06
1.9749394e+06
2.0347982e+06
1.3241265e+06
8.1700581e+05
1.7321218e+06
5.1109316e+05
1.4634918e+06
6.1731881e+05
4.5178406e+05
9.8354194e+05
1.0679155e+06
1.6233202e+06
4.0247188e+05
1.2490480e+06
1.4214638e+06
1.6659659e+06
8.4930031e+05
2.2082002e+06
4.9871044e+05
1.1601181e+06
2.2152915e+06
1.6461408e+06
7.2201844e+05
9.4193406e+05
1.9565049e+06
4.8976216e+05
1.7256402e+06
7.7678944e+05
4.3380278e+05
9.7432462e+05
1.5252195e+06
1.8989155e+06
2.1984568e+06
1.5466521e+06
7.0261175e+05
1.0369748e+06
8.9335962e+05
2.0104265e+06
4.1590419e+05
1.0541969e+06
1.8186649e+06
8.3793356e+05
6.1243981e+05
4.6469134e+05
7.3667650e+05
1.1259644e+06
6.7360431e+05
8.2997550e+05
3.9878409e+05
1.7591705e+06
1.2871631e+06
1.3231281e+06
4.3460325e+05
5.5373775e+05
6.3738738e+05
5.2976919e+05
1.3783382e+06
6.0365481e+05
1.2642990e+06
2.0370331e+06
6.0260662e+05
1.4887638e+06
1.9647294e+06
1.8295334e+06
3.8929947e+05
1.4147169e+06
1.1679590e+06
5.9022994e+05
1.9638075e+06
1.7139024e+06
1.3554354e+06
5.2510231e+05
9.5474381e+05
8.9547281e+05
1.3507255e+06
6.0077238e+05
9.1534250e+05
3.1536806e+05
3.7780603e+05
1.9664832e+06
3.8354688e+05
1.4268595e+06
8.7372619e+05
1.6611868e+06
1.7860648e+06
8.0564006e+05
5.5822669e+05
1.5218434e+06
1.3339722e+06
1.1255320e+06
4.4182528e+05
4.2858522e+05
9.0852856e+05
7.5014462e+05
1.1089038e+06
6.2984762e+05
4.6963397e+05
1.9069192e+06
3.7219297e+05
4.4586316e+05
4.3830222e+05
6.3420012e+05
9.0184231e+05
1.6148106e+06
2.1565080e+06
1.5588320e+06
2.8871984e+05
1.2075744e+06
1.8238038e+06
1.8168012e+06
1.0158249e+06
1.3351571e+06
6.9193844e+05
1.0542841e+06
6.5599050e+05
7.7944544e+05
6.2564775e+05
1.2510522e+06
7.5919975e+05
1.0452606e+06
7.8976875e+05
1.6469092e+06
8.2615819e+05
1.1845814e+06
3.4885353e+05
1.6180075e+06
4.2239769e+05
1.1250308e+06
2.0060599e+06
1.6626059e+06
4.2908988e+05
6.2713650e+05
1.3170324e+06
1.9094262e+06
3.4951103e+05
1.6711926e+06
1.1125392e+06
4.5911969e+05
9.1130906e+05
3.9778653e+05
7.6908862e+05
1.2255994e+06
5.8123962e+05
5.8126381e+05
1.7257912e+06
5.5964538e+05
4.4926206e+05
8.3772919e+05
8.7441581e+05
2.7217903e+05
2.0253750e+06
1.2788728e+06
1.4444266e+06
1.8535749e+06
7.6409488e+05
1.0699698e+06
5.1002281e+05
1.1465729e+06
5.9794250e+05
1.6878398e+06
3.9684378e+05
8.9842444e+05
4.5002731e+05
3.7373494e+05
1.3253068e+06
3.8912094e+05
3.2343062e+05
1.8835006e+06
8.7629106e+05
3.9715831e+05
1.3127830e+06
1.6027754e+06
9.8442838e+05
1.7580951e+06
1.9855198e+06
1.3914791e+06
1.6651909e+06
6.3779188e+05
1.5441544e+06
1.0579579e+06
2.0395292e+06
3.2490625e+05
5.8343844e+05
8.1968775e+05
4.3790606e+05
8.6041388e+05
1.4263894e+06
9.0210575e+05
8.0588475e+05
1.9683564e+06
1.1601171e+06
2.7257088e+05
5.0977122e+05
1.9887726e+06
5.2191531e+05
1.2877309e+06
7.4846912e+05
1.8002158e+06
6.0729581e+05
1.1966938e+06
4.2716481e+05
6.1864306e+05
6.4889625e+05
6.1958288e+05
1.7628244e+06
1.4501396e+06
1.0325804e+06
1.2653644e+06
1.3753862e+06
3.9024344e+05
5.9951725e+05
1.4173180e+06
1.0778018e+06
3.9274631e+05
3.8400309e+05
7.2780888e+05
5.9816925e+05
4.5756853e+05
1.0084209e+06
4.5441231e+05
1.5544974e+06
1.7792130e+06
1.5854750e+06
1.1031872e+06
3.1317516e+05
1.2708498e+06
8.0443869e+05
1.3220520e+06
7.7152031e+05
7.8070319e+05
1.1573384e+06
1.4139638e+06
6.4146888e+05
5.9384331e+05
3.0258797e+05
4.0305675e+05
6.6388262e+05
1.8860204e+06
1.7051839e+06
1.2217174e+06
1.8043952e+06
6.7293562e+05
1.4617558e+06
7.4083062e+05
1.1866961e+06
1.1800586e+06
4.4840625e+05
1.8078631e+06
8.2639356e+05
5.1229844e+05
7.5629388e+05
5.9497612e+05
3.9441609e+05
3.9580812e+05
3.8352178e+05
5.2241531e+05
2.6065389e+05
1.5659639e+06
6.8069431e+05
1.2716580e+06
1.1322015e+06
3.0937134e+05
1.2268511e+06
9.8752400e+05
3.7668953e+05
5.1148941e+05
1.8603295e+06
1.5007601e+06
1.3933744e+06
1.5312758e+06
1.2312894e+06
1.6273662e+06
7.8215931e+05
5.4781456e+05
1.1019411e+06
5.2991469e+05
5.3828069e+05
6.3988019e+05
8.0398244e+05
8.6260388e+05
1.7217975e+06
1.4570399e+06
1.5050191e+06
8.3643362e+05
1.3489714e+06
8.6522519e+05
1.2362572e+06
3.7212522e+05
2.8424981e+05
3.3397603e+05
1.0128518e+06
1.9275166e+06
3.4456928e+05
4.1441875e+05
7.0983638e+05
1.0934455e+06
5.5845856e+05
7.1278725e+05
1.8352436e+06
1.2957008e+06
1.5640442e+06
1.4198184e+06
1.2327819e+06
6.3282956e+05
1.0422554e+06
1.0736524e+06
7.5341681e+05
6.4078300e+05
3.8721419e+05
3.3727425e+05
6.6100525e+05
3.3404594e+05
1.4517845e+06
3.2472084e+05
4.9512234e+05
1.5827569e+06
7.0748406e+05
1.7864081e+06
1.2622121e+06
1.5654494e+06
1.3760961e+06
1.1150444e+06
4.3246184e+05
5.2315847e+05
1.2799026e+06
8.0794881e+05
9.6189781e+05
2.7700003e+05
5.3508531e+05
4.2486888e+05
8.4845500e+05
6.7271762e+05
4.8972588e+05
2.6455716e+05
2.7287688e+05
5.1099875e+05
5.5641912e+05
1.2381754e+06
3.2448494e+05
1.8516924e+06
1.1915091e+06
8.6800800e+05
1.5410279e+06
3.3519062e+05
1.0673215e+06
5.7661544e+05
1.5952854e+06
1.1645719e+06
4.9317766e+05
6.4392731e+05
5.8704488e+05
2.5783586e+05
1.1466896e+06
5.4641075e+05
3.9229006e+05
4.4397134e+05
1.5849739e+06
9.9821669e+05
1.3381934e+06
1.7386082e+06
1.0767364e+06
5.8588900e+05
8.0043988e+05
1.4122719e+06
3.1842294e+05
1.7576569e+06
5.3850544e+05
9.3279100e+05
1.4473790e+06
1.1297505e+06
1.4565792e+06
8.7593112e+05
9.5147344e+05
3.2792209e+05
1.2493842e+06
3.8996062e+05
9.9437831e+05
7.6546194e+05
9.0525562e+05
7.1625412e+05
8.1399975e+05
4.7324181e+05
1.1061010e+06
2.4684269e+05
2.5502917e+05
3.8357472e+05
3.5687697e+05
2.7348947e+05
8.1435344e+05
5.9013300e+05
1.6616535e+06
1.0835681e+06
1.5489828e+06
1.4146624e+06
1.3951490e+06
1.5985704e+06
1.3655725e+06
5.2960119e+05
7.7583625e+05
9.7371731e+05
4.9276612e+05
2.9110912e+05
1.1398004e+06
8.2315956e+05
1.5717131e+06
2.4166914e+05
4.6984734e+05
3.7899900e+05
5.7211544e+05
7.2557319e+05
5.5564312e+05
4.2505822e+05
1.0689379e+06
2.5672639e+05
5.1571750e+05
3.8964578e+05
4.8475819e+05
3.0456453e+05
7.7418319e+05
1.5527172e+06
1.2376994e+06
1.0739235e+06
4.0568191e+05
1.4668486e+06
5.8347006e+05
4.0047225e+05
1.1234731e+06
5.7948412e+05
5.4454444e+05
5.3826931e+05
2.8441353e+05
1.6993476e+06
7.6158494e+05
1.5617154e+06
4.7487578e+05
7.3137319e+05
7.3089862e+05
1.2550290e+06
1.3615000e+06
8.2483069e+05
5.5796288e+05
3.2283891e+05
9.7968194e+05
1.7533068e+06
1.0912281e+06
1.5596681e+06
7.6037038e+05
2.8064866e+05
4.7641131e+05
8.0383288e+05
1.4917088e+06
9.9841306e+05
1.2352382e+06
1.4883532e+06
7.3151638e+05
1.1958174e+06
2.3987620e+05
1.0655275e+06
5.0917228e+05
1.0563460e+06
8.9621788e+05
3.7719453e+05
4.5717784e+05
1.1354020e+06
2.7427662e+05
8.9890956e+05
6.4997144e+05
1.6042718e+06
1.1603508e+06
1.2162126e+06
8.6662369e+05
1.5151610e+06
1.3462779e+06
3.5471147e+05
1.5445622e+06
2.9251469e+05
1.3438616e+06
8.0263031e+05
1.1084916e+06
2.5932045e+05
5.6160950e+05
4.3053250e+05
3.1321938e+05
8.3931688e+05
9.1776138e+05
3.3185162e+05
7.5950975e+05
6.5736744e+05
3.8017169e+05
8.6358556e+05
6.2819594e+05
4.0858719e+05
1.1918541e+06
1.6254474e+06
1.0397199e+06
3.7183241e+05
8.9500556e+05
1.4059029e+06
1.3652355e+06
1.2667366e+06
7.5071231e+05
2.0515103e+05
3.9010122e+05
3.5654484e+05
1.8177923e+05
1.2619059e+06
4.6329834e+05
3.5959462e+05
7.2281081e+05
6.7101581e+05
1.3930218e+06
1.9278341e+05
6.9494431e+05
1.4195649e+06
6.3937719e+05
1.5944678e+06
1.2479994e+06
1.7331529e+06
1.0159297e+06
1.1966686e+06
9.0515044e+05
3.2325181e+05
7.4061419e+05
9.5166281e+05
2.6815819e+05
4.3611141e+05
1.8709722e+05
3.8860684e+05
4.1377903e+05
6.6433281e+05
2.4770786e+05
5.5999919e+05
1.1589142e+06
7.3086800e+05
1.0365038e+06
2.6496894e+05
1.0325002e+06
4.8591681e+05
1.3284574e+06
4.0767378e+05
2.3369411e+05
6.9961100e+05
2.2833948e+05
9.5806031e+05
1.6753185e+06
4.3736647e+05
1.5453691e+06
4.8547744e+05
1.5141109e+06
1.1884726e+06
1.3692538e+06
6.3375056e+05
2.2902353e+05
1.0811648e+06
1.0574280e+06
1.4063510e+06
4.6587638e+05
3.8892284e+05
1.3229721e+06
1.1632112e+06
4.9444175e+05
5.7525462e+05
8.5813869e+05
9.2080275e+05
2.7678138e+05
2.6862650e+05
1.2487139e+06
4.9218041e+05
7.5202231e+05
2.8427716e+05
3.6051600e+05
1.0924218e+06
1.4364808e+06
1.0399027e+06
7.7013556e+05
1.5424758e+06
1.2127522e+06
7.8957150e+05
7.9901038e+05
2.3675036e+05
6.0630619e+05
3.4427234e+05
1.0474709e+06
3.0620900e+05
3.6247653e+05
1.1056752e+06
7.4544669e+05
2.5168561e+05
4.0189450e+05
1.4537420e+06
2.0461194e+05
9.2277912e+05
1.1408150e+06
1.4761841e+06
7.3043638e+05
1.2436118e+06
1.4262731e+06
1.0084886e+06
2.0985275e+05
7.2097381e+05
1.3090039e+06
4.5031050e+05
4.1029788e+05
4.3307069e+05
3.4950359e+05
5.6820712e+05
7.3381631e+05
8.8463538e+05
6.0783706e+05
4.3782419e+05
7.6960600e+05
8.8425912e+05
8.3688800e+05
1.3348961e+06
2.1299097e+05
5.9602912e+05
2.4450798e+05
7.5746675e+05
1.0700285e+06
1.2411291e+06
1.5590486e+06
4.3156238e+05
4.6925453e+05
4.6501156e+05
7.4343169e+05
2.7496341e+05
2.6451509e+05
8.0233825e+05
1.1656906e+06
2.3290123e+05
4.6164241e+05
1.2949182e+06
5.2629469e+05
1.4430318e+06
1.0440708e+06
1.0690558e+06
3.1649641e+05
3.9618975e+05
9.2187256e+05
9.0566412e+05
7.1723550e+05
2.0126688e+05
5.6904550e+05
3.8120606e+05
7.8596125e+05
1.5703546e+06
1.5180894e+06
2.1136441e+05
1.2461286e+06
1.0521425e+06
1.1276092e+06
7.6349550e+05
4.1092303e+05
1.6786277e+05
3.6553347e+05
1.3308092e+06
3.7805141e+05
1.3681760e+06
1.0201626e+06
4.6402597e+05
2.7033200e+05
6.9709856e+05
4.0528284e+05
7.2283462e+05
4.8264231e+05
1.3269531e+06
8.2612650e+05
1.4784766e+06
1.3671539e+06
9.9133244e+05
2.7991491e+05
1.5568865e+06
1.1923718e+06
1.2993909e+06
2.3794303e+05
6.8692750e+05
1.0599701e+06
3.1107956e+05
7.3473669e+05
9.3595238e+05
5.9881775e+05
5.3570681e+05
2.5180338e+05
4.8003569e+05
9.4746612e+05
3.2016519e+05
5.6024344e+05
3.5404356e+05
1.0665016e+06
4.2786934e+05
3.1040262e+05
2.8897888e+05
2.2356131e+05
7.4139650e+05
8.0287769e+05
1.3849389e+06
1.9730705e+05
1.1892660e+06
1.2392532e+06
9.4488525e+05
1.1691186e+06
4.9007584e+05
3.4954650e+05
7.4479581e+05
4.2312819e+05
4.6221091e+05
5.1447906e+05
1.3830542e+06
2.1677442e+05
1.2997531e+06
1.1180572e+06
9.2861188e+05
9.0525312e+05
4.9789888e+05
6.0846394e+05
6.9970006e+05
6.9788188e+05
4.2081706e+05
7.7732669e+05
3.9143850e+05
9.9579925e+05
2.8547684e+05
1.9837030e+05
1.3585440e+06
4.5283453e+05
6.3564069e+05
1.1204055e+06
1.2145368e+06
4.9453716e+05
3.1664947e+05
1.0884714e+06
8.0868094e+05
8.6965194e+05
3.6604134e+05
5.8793738e+05
3.6221491e+05
2.6225228e+05
2.4379873e+05
2.9907425e+05
8.0136969e+05
1.9606942e+05
8.7512444e+05
8.5237225e+05
1.2970982e+06
5.1204688e+05
1.0671855e+06
1.3575489e+06
5.4963775e+05
1.1577128e+06
3.7637781e+05
1.2746948e+06
1.1875864e+06
2.5518689e+05
1.2058905e+06
8.7656612e+05
1.0092634e+06
8.2191238e+05
8.4199806e+05
5.3939781e+05
7.8435644e+05
2.7220062e+05
1.0649842e+06
5.5622056e+05
1.0331147e+06
9.4204188e+05
3.0711156e+05
3.0774569e+05
8.1381056e+05
9.5061388e+05
2.8583331e+05
1.6312969e+05
2.5011745e+05
1.3452888e+06
2.7528791e+05
1.2761839e+06
1.0296093e+06
5.8103612e+05
7.3651188e+05
4.7151372e+05
5.0865725e+05
1.1369090e+06
3.6106912e+05
5.8024188e+05
6.5525681e+05
1.9440059e+05
7.4955600e+05
4.0020903e+05
4.8317341e+05
1.3406295e+06
2.0327797e+05
1.1847322e+06
3.6537653e+05
7.4528912e+05
1.0814505e+06
2.1282681e+05
9.3602094e+05
1.3927010e+06
5.3551794e+05
8.6709650e+05
5.4660062e+05
1.1076341e+06
7.2831206e+05
3.8780797e+05
7.2433512e+05
1.3757809e+06
1.1021170e+06
1.2005962e+06
4.8088688e+05
8.9882612e+05
1.0535596e+06
2.0474875e+05
7.6702406e+05
4.8863700e+05
7.5602506e+05
4.5885456e+05
2.6477991e+05
3.6427194e+05
3.5368903e+05
3.5957294e+05
3.3572866e+05
8.2199875e+05
7.9723781e+05
1.2753025e+06
2.6888331e+05
1.0758931e+06
2.6319672e+05
7.6097975e+05
3.0972753e+05
1.1429884e+06
2.0609303e+05
1.2265275e+06
7.9012644e+05
1.0214172e+06
1.1669708e+06
3.4938284e+05
5.5622731e+05
2.4055106e+05
7.3251569e+05
6.7720962e+05
5.6732344e+05
5.2527006e+05
3.5825869e+05
1.7586906e+05
4.9104084e+05
1.0176919e+06
1.2256739e+06
5.5989175e+05
1.0175811e+06
6.2933188e+05
6.9914219e+05
1.0063774e+06
1.3269408e+06
1.1982494e+06
8.8005494e+05
1.0467403e+06
7.3261006e+05
3.2926459e+05
8.5302425e+05
1.1521078e+06
3.0397006e+05
4.3004400e+05
4.3556016e+05
2.9208184e+05
7.7942306e+05
2.4287689e+05
1.3169695e+06
2.3533720e+05
1.2040094e+06
3.1761703e+05
5.5670425e+05
1.0273406e+06
5.4833531e+05
8.3630550e+05
9.6857519e+05
7.8858575e+05
1.0862644e+06
7.4059562e+05
1.2893892e+06
1.1926044e+06
1.5255525e+05
9.7775600e+05
4.3691912e+05
2.5435764e+05
5.3662544e+05
4.6894756e+05
7.8308919e+05
1.9274086e+05
7.6453312e+05
3.7628081e+05
2.0344008e+05
9.7238312e+05
3.2184053e+05
7.9784069e+05
4.0472628e+05
5.6695988e+05
1.9993383e+05
5.5491956e+05
2.0958538e+05
5.5143706e+05
1.0142516e+06
8.9904875e+05
1.2826072e+06
1.1974472e+06
2.0486752e+05
4.4860369e+05
6.6261044e+05
7.8159994e+05
1.0613092e+06
2.8501891e+05
1.2109024e+06
1.1391871e+06
7.5757844e+05
9.3930644e+05
6.4829975e+05
5.5104300e+05
8.4277538e+05
5.1914362e+05
3.3547069e+05
3.0306781e+05
6.5261038e+05
3.3327466e+05
3.6093338e+05
2.9721478e+05
8.8965856e+05
3.2857947e+05
3.5306891e+05
9.0687631e+05
1.4537392e+05
9.5003988e+05
3.5286700e+05
6.8516700e+05
1.0239978e+06
3.9642022e+05
7.9771669e+05
9.4567969e+05
1.2748979e+06
5.9803300e+05
6.5802788e+05
3.1713469e+05
2.1686627e+05
1.0383243e+06
1.1141826e+06
1.0526712e+06
3.5064319e+05
4.2930238e+05
8.1616125e+05
1.8271628e+05
6.5278606e+05
1.0660155e+06
1.2591096e+06
1.8774945e+05
2.2983706e+05
1.1240675e+06
8.7442131e+05
1.0634584e+06
1.1682108e+06
6.0744431e+05
1.1180819e+06
6.3315344e+05
1.2692856e+06
3.9198194e+05
5.5301338e+05
1.2709229e+06
9.1151588e+05
1.2865700e+06
1.0268331e+06
7.3594456e+05
4.2160419e+05
1.1446354e+06
1.0691632e+06
5.3709800e+05
3.1969291e+05
6.6486875e+05
3.6804306e+05
7.1430481e+05
7.9473400e+05
3.5364941e+05
8.1386500e+05
1.4623123e+05
3.2009556e+05
3.6436744e+05
7.7172388e+05
2.2758320e+05
1.9129673e+05
4.7295653e+05
4.6592109e+05
6.9525862e+05
1.1276870e+06
8.0393381e+05
1.1035619e+06
3.4419875e+05
3.5394212e+05
8.4245038e+05
5.2413688e+05
1.1814075e+06
1.0361669e+06
1.1172569e+06
9.9862669e+05
1.4704945e+05
1.8647625e+05
1.1571511e+06
3.6193112e+05
8.8516369e+05
9.8157681e+05
8.1938000e+05
6.0766650e+05
5.3062606e+05
7.8711294e+05
1.9835889e+05
1.1843410e+06
1.0215498e+06
9.6476088e+05
2.8761697e+05
1.0652176e+06
6.7439806e+05
1.1472312e+06
7.4212394e+05
9.3632444e+05
1.0372669e+06
1.1068052e+06
1.2130144e+06
2.5551330e+05
1.0426500e+06
5.4869381e+05
2.9776331e+05
3.2747169e+05
1.6086577e+05
8.9264369e+05
3.9347047e+05
3.5800625e+05
9.9218838e+05
1.1770672e+06
5.4427338e+05
7.7548262e+05
1.9126969e+05
6.7926962e+05
5.8187769e+05
1.2180759e+06
1.1847962e+06
2.2346672e+05
9.8493875e+05
8.6806719e+05
2.1526892e+05
5.4297188e+05
1.0320797e+06
1.9116916e+05
8.9174031e+05
2.8129919e+05
1.1186420e+06
5.3758000e+05
4.5481181e+05
5.4620512e+05
2.4743459e+05
8.2590912e+05
4.1893425e+05
2.8085019e+05
4.8519597e+05
3.4130541e+05
5.2918950e+05
1.6526206e+05
7.9392400e+05
2.9951966e+05
9.8520831e+05
4.5877366e+05
1.0988471e+06
6.4264569e+05
1.1876699e+06
8.1537519e+05
1.1884185e+06
6.8352500e+05
9.6524519e+05
1.1516081e+06
1.0596092e+06
1.1121095e+06
1.1019580e+06
1.0378821e+06
1.1288845e+06
8.9780106e+05
1.1326506e+06
7.3674662e+05
1.0804364e+06
4.9379747e+05
1.0055961e+06
4.5410209e+05
2.0824345e+05
8.5285788e+05
1.9652234e+05
6.4059538e+05
4.1384972e+05
1.0266896e+06
2.4720358e+05
2.8584959e+05
8.0600744e+05
9.0653181e+05
3.9465706e+05
1.0020776e+06
1.0158253e+06
1.0049728e+06
8.8090938e+05
6.5907881e+05
3.1962044e+05
6.4933306e+05
1.7015066e+05
1.0533135e+06
7.0046869e+05
3.5261728e+05
3.4288088e+05
1.0492482e+06
9.6501881e+05
6.4880075e+05
8.9759925e+05
2.7665362e+05
7.4645050e+05
7.8234425e+05
7.8240719e+05
8.8701881e+05
9.0852100e+05
1.0376589e+06
2.0004620e+05
5.8448025e+05
9.9419838e+05
1.0956985e+06
1.1678200e+06
4.8268031e+05
3.5320441e+05
1.0993114e+06
1.1852391e+06
1.1345026e+06
9.2565888e+05
1.1594139e+06
1.0676800e+06
1.1871865e+06
8.7933456e+05
1.1481366e+06
3.2130681e+05
6.8918038e+05
6.7731506e+05
7.6499100e+05
5.3253681e+05
2.1683461e+05
7.3369200e+05
3.8838488e+05
8.0770175e+05
1.0710612e+06
3.4421103e+05
2.2575214e+05
9.2844331e+05
3.3645541e+05
3.7621856e+05
6.3874150e+05
4.7457156e+05
6.2810212e+05
3.3394928e+05
1.0012154e+06
4.9813947e+05
3.1823219e+05
8.6510400e+05
2.8833994e+05
6.2441638e+05
9.2032438e+05
1.0190446e+06
9.2035731e+05
9.8589506e+05
2.3231348e+05
1.1847938e+06
1.0806514e+06
1.0420768e+06
4.0167003e+05
1.1322546e+06
2.5414667e+05
1.1129790e+06
1.1793160e+06
9.6034831e+05
1.1423205e+06
8.3948331e+05
6.2222262e+05
1.1572631e+06
8.7049000e+05
5.6125812e+05
6.7381550e+05
3.1882297e+05
1.2190356e+06
5.8102738e+05
4.8694597e+05
2.5489392e+05
6.9441769e+05
2.9311925e+05
3.8194928e+05
6.5067900e+05
3.6625338e+05
5.7386969e+05
6.5408025e+05
2.2662736e+05
9.9238881e+05
9.4076200e+05
9.1415006e+05
2.6713778e+05
7.6220256e+05
8.2540912e+05
2.5315548e+05
3.4043316e+05
9.8919994e+05
5.8523188e+05
2.3441734e+05
4.1522075e+05
3.8460056e+05
1.0729012e+06
9.6355462e+05
5.3964238e+05
2.5057752e+05
9.9137125e+05
1.1330550e+06
1.1876900e+06
8.8258006e+05
7.1359619e+05
1.1616189e+06
1.0225666e+06
8.0759538e+05
3.3960791e+05
7.7725250e+05
2.8691228e+05
5.0136116e+05
1.2475351e+06
5.2891619e+05
3.6391775e+05
6.0927712e+05
3.5989584e+05
3.7435941e+05
7.3020762e+05
4.3853853e+05
5.6344169e+05
4.4522128e+05
9.3630706e+05
4.9463022e+05
2.6928828e+05
6.9553438e+05
2.6417828e+05
7.2206088e+05
7.6419044e+05
2.8962031e+05
2.4450552e+05
8.6264619e+05
9.3428206e+05
2.4874745e+05
1.0048258e+06
8.0270731e+05
4.1564475e+05
4.0439900e+05
6.4643269e+05
1.0765126e+06
3.7887119e+05
2.8086703e+05
8.2571288e+05
5.3689750e+05
2.5660706e+05
3.7434238e+05
1.0326241e+06
4.0743794e+05
9.4830131e+05
1.0149734e+06
6.1639512e+05
3.9567238e+05
7.4095106e+05
6.4258362e+05
1.1752550e+06
6.6099481e+05
4.0596000e+05
8.0774244e+05
3.3270256e+05
2.1656491e+05
2.9703819e+05
9.9951719e+05
1.1482900e+06
1.1837706e+06
9.0543850e+05
8.0672725e+05
4.2698303e+05
2.8985484e+05
5.8813488e+05
2.2940284e+05
8.7001050e+05
2.4559884e+05
1.0153364e+06
2.8584872e+05
6.7668781e+05
5.6626788e+05
2.3948241e+05
4.3562647e+05
8.9316062e+05
4.3936625e+05
9.5497444e+05
7.9282938e+05
2.3191538e+05
3.6102419e+05
1.0044906e+06
8.5208419e+05
6.2119800e+05
1.1636034e+06
4.9729791e+05
3.4374031e+05
1.1453224e+06
6.4881556e+05
4.8734678e+05
1.1787448e+06
7.1738012e+05
8.0861031e+05
1.0881800e+06
2.6778025e+05
3.8044731e+05
9.5318450e+05
3.7795381e+05
9.4415294e+05
6.6664200e+05
2.9414278e+05
4.5048966e+05
4.5691700e+05
1.2076548e+06
9.5293388e+05
1.1726575e+06
2.3522569e+05
1.0378608e+06
5.9322575e+05
1.2384382e+06
6.2650119e+05
2.3724425e+05
9.3924569e+05
6.9091694e+05
4.6964338e+05
9.0738950e+05
8.9842912e+05
3.9412306e+05
8.3712275e+05
3.6528112e+05
4.0614066e+05
7.8704250e+05
2.4125733e+05
7.0425581e+05
2.2435819e+05
3.3266184e+05
1.9845069e+05
3.0559644e+05
3.2829731e+05
8.9730550e+05
6.2588706e+05
6.4624444e+05
3.1853928e+05
6.1868394e+05
3.5218653e+05
9.7536650e+05
1.0684882e+06
4.4083162e+05
1.0052169e+06
7.8032444e+05
9.4475125e+05
9.6297875e+05
7.5277750e+05
2.1402064e+05
5.7224394e+05
7.1954406e+05
4.0017297e+05
8.7016550e+05
3.4495628e+05
1.0367715e+06
3.2941600e+05
1.0873439e+06
5.6992981e+05
1.0525114e+06
1.0812942e+06
9.5693838e+05
3.0474578e+05
9.1390881e+05
7.3026338e+05
5.3518919e+05
4.6982781e+05
1.7483758e+05
7.6106569e+05
7.5120762e+05
1.8129228e+05
2.9758891e+05
5.3023112e+05
2.3159297e+05
5.1848141e+05
6.9266019e+05
2.0458675e+05
3.1756134e+05
2.5469864e+05
8.1464806e+05
4.0082609e+05
7.6567044e+05
4.4408525e+05
3.0429775e+05
9.7636744e+05
1.3697248e+05
6.5116938e+05
6.1557262e+05
1.0146889e+06
8.1491888e+05
4.8712506e+05
8.7315256e+05
2.8995491e+05
2.4966323e+05
1.0108694e+06
8.6449994e+05
1.9795955e+05
7.8756475e+05
7.7261175e+05
5.2315225e+05
1.0338095e+06
1.0804454e+06
5.0690216e+05
2.1679847e+05
1.0780249e+06
9.8492388e+05
8.7061881e+05
2.9110456e+05
4.8328288e+05
1.0325261e+06
7.3122600e+05
7.4270219e+05
2.1430412e+05
1.0228690e+06
6.7984312e+05
5.3701881e+05
2.8820081e+05
9.6193069e+05
4.1351244e+05
8.1003756e+05
2.5318088e+05
6.6335831e+05
1.8366533e+05
5.1706850e+05
2.6444100e+05
CELL_DATA 22633
FIELD FieldData 0
