# vtk DataFile Version 4.0
vtk output
ASCII
DATASET UNSTRUCTURED_GRID
POINTS 4496 float
-4.3633327e-01 9.6409470e-01 4.4200001e+01 
-4.3633258e-01 9.6409065e-01 4.4074627e+01 
-3.2152572e-01 9.1279918e-01 4.4200001e+01 
-3.8534868e-01 8.4052670e-01 4.4200001e+01 
-3.9589554e-01 8.5545403e-01 4.4010014e+01 
-3.2616228e-01 9.1667932e-01 4.4011734e+01 
-4.3633190e-01 9.6408653e-01 4.3948376e+01 
-2.1293370e-01 8.4677851e-01 4.4200001e+01 
-2.9042658e-01 7.3813015e-01 4.4200001e+01 
-2.1010752e-01 8.4669363e-01 4.4073502e+01 
-2.8908840e-01 7.3604190e-01 4.4072292e+01 
-3.9589015e-01 8.5505831e-01 4.3883316e+01 
-3.2487559e-01 9.1697580e-01 4.3885036e+01 
-2.0722924e-01 8.4660655e-01 4.3944645e+01 
-1.1981077e-01 7.7773046e-01 4.4200001e+01 
-2.8772619e-01 7.3391593e-01 4.3942276e+01 
-4.3633121e-01 9.6408242e-01 4.3821228e+01 
-1.9739023e-01 6.6468561e-01 4.4200001e+01 
-2.9444304e-01 7.8727525e-01 4.3879974e+01 
-8.7554991e-02 7.5255024e-01 4.4042213e+01 
-1.6445170e-01 6.4084798e-01 4.4041008e+01 
-3.2357255e-01 9.1726828e-01 4.3757431e+01 
-3.9587301e-01 8.5463828e-01 4.3755711e+01 
-2.0429766e-01 8.4651643e-01 4.3813354e+01 
-2.8633916e-01 7.3175091e-01 4.3809875e+01 
-2.6899619e-02 6.8901783e-01 4.4200001e+01 
-1.0567340e-01 7.7152997e-01 4.3875790e+01 
-4.3633053e-01 9.6407831e-01 4.3693161e+01 
-8.7133333e-02 5.9509218e-01 4.4200001e+01 
-1.8777622e-01 6.5475601e-01 4.3873402e+01 
-2.0131156e-01 8.4642249e-01 4.3679543e+01 
-3.2225290e-01 9.1755641e-01 4.3628902e+01 
-3.9584404e-01 8.5419410e-01 4.3627178e+01 
-1.0114321e-03 6.6670936e-01 4.3939713e+01 
-2.8492665e-01 7.2954547e-01 4.3675007e+01 
-1.0131179e-01 7.7015632e-01 4.3743176e+01 
-6.0682178e-02 5.7631296e-01 4.3938457e+01 
3.9444737e-02 6.2338209e-01 4.4053139e+01 
-1.8470748e-01 6.5131217e-01 4.3739727e+01 
-7.0938184e-03 5.4737431e-01 4.4052326e+01 
-4.3632981e-01 9.6407413e-01 4.3564159e+01 
7.6947339e-02 5.8804804e-01 4.4200001e+01 
-1.2721874e-02 6.8194175e-01 4.3817982e+01 
-7.7214435e-02 5.8474159e-01 4.3819649e+01 
4.0195532e-02 5.2425718e-01 4.4200001e+01 
-1.9826968e-01 8.4632379e-01 4.3543118e+01 
-9.6842363e-02 7.6872379e-01 4.3607994e+01 
-3.2091641e-01 9.1783977e-01 4.3499420e+01 
-3.9580306e-01 8.5372573e-01 4.3497700e+01 
-2.8348783e-01 7.2729832e-01 4.3537586e+01 
-1.8155001e-01 6.4778340e-01 4.3603539e+01 
1.5678726e-01 5.2239102e-01 4.4060219e+01 
1.0298219e-02 6.6009766e-01 4.3674484e+01 
1.3250886e-01 4.7546524e-01 4.4058990e+01 
-4.3632913e-01 9.6407002e-01 4.3434200e+01 
-5.0139543e-02 5.6696451e-01 4.3671154e+01 
1.3504514e-01 5.4209155e-01 4.3856747e+01 
1.0361936e-01 4.8715758e-01 4.3855240e+01 
2.0846681e-01 4.8028421e-01 4.4200001e+01 
1.9279444e-01 4.4799727e-01 4.4200001e+01 
-9.2261828e-02 7.6722860e-01 4.3470158e+01 
-1.4701239e-03 6.7547697e-01 4.3552124e+01 
-1.9517080e-01 8.4621930e-01 4.3403992e+01 
-3.1956279e-01 9.1811794e-01 4.3368977e+01 
-3.9574999e-01 8.5323322e-01 4.3367252e+01 
-1.7830023e-01 6.4416617e-01 4.3464752e+01 
-6.7131944e-02 5.7555372e-01 4.3547829e+01 
-2.8202194e-01 7.2500783e-01 4.3397518e+01 
-4.3632844e-01 9.6406585e-01 4.3303261e+01 
1.5138821e-01 5.3037512e-01 4.3609200e+01 
1.2119007e-01 4.7490793e-01 4.3606068e+01 
-8.7566733e-02 7.6566672e-01 4.3329563e+01 
-1.7495437e-01 6.4045686e-01 4.3323273e+01 
-3.1819177e-01 9.1839045e-01 4.3237537e+01 
-3.9568463e-01 8.5271639e-01 4.3235813e+01 
2.2269404e-02 6.5294570e-01 4.3398811e+01 
-1.9201367e-01 8.4610778e-01 4.3262066e+01 
-3.8899176e-02 5.5709696e-01 4.3393635e+01 
-2.8052819e-01 7.2267252e-01 4.3254715e+01 
3.7877345e-01 3.8273901e-01 4.4200001e+01 
-4.3632776e-01 9.6406174e-01 4.3171322e+01 
3.9241230e-01 3.7329337e-01 4.3965439e+01 
1.0283732e-02 6.6872352e-01 4.3271511e+01 
-5.6385640e-02 5.6585240e-01 4.3265472e+01 
-8.2753494e-02 7.6403379e-01 4.3186119e+01 
-4.0345609e-01 8.6371827e-01 4.3104889e+01 
-3.1680310e-01 9.1865683e-01 4.3105087e+01 
-1.7150842e-01 6.3665158e-01 4.3179005e+01 
-1.8879703e-01 8.4598809e-01 4.3117241e+01 
-2.7900568e-01 7.2029078e-01 4.3109074e+01 
4.0610775e-01 3.6380205e-01 4.3729839e+01 
1.6776134e-01 5.1882964e-01 4.3331150e+01 
-4.3632707e-01 9.6405768e-01 4.3038357e+01 
1.4031014e-01 4.6124566e-01 4.3307755e+01 
3.4952711e-02 6.4519531e-01 4.3111935e+01 
-7.7818394e-02 7.6232505e-01 4.3039719e+01 
-3.1539652e-01 9.1891652e-01 4.2971603e+01 
-3.9551663e-01 8.5160977e-01 4.2969879e+01 
-2.6899155e-02 5.4666573e-01 4.3105160e+01 
-1.6795819e-01 6.3274628e-01 4.3031849e+01 
-1.8551964e-01 8.4585863e-01 4.2969406e+01 
4.1985780e-01 3.5425979e-01 4.3493168e+01 
-2.7745360e-01 7.1786088e-01 4.2960495e+01 
-4.3632638e-01 9.6405357e-01 4.2904346e+01 
2.2723136e-02 6.6139150e-01 4.2979332e+01 
-4.4916678e-02 5.5559248e-01 4.2971806e+01 
-3.1397179e-01 9.1916907e-01 4.2837063e+01 
-3.9541367e-01 8.5101974e-01 4.2835335e+01 
-7.2757579e-02 7.6053542e-01 4.2890255e+01 
-1.6429928e-01 6.2873662e-01 4.2881699e+01 
1.8463810e-01 5.0694346e-01 4.3035332e+01 
-1.8218029e-01 8.4571803e-01 4.2818455e+01 
1.5503895e-01 4.5003417e-01 4.3027725e+01 
-2.7587104e-01 7.1538109e-01 4.2808868e+01 
4.3366045e-01 3.4466109e-01 4.3255390e+01 
-4.3632573e-01 9.6404958e-01 4.2769268e+01 
-3.8429454e-01 8.3484912e-01 4.2710606e+01 
-3.1252861e-01 9.1941386e-01 4.2701439e+01 
4.8404284e-02 6.3678014e-01 4.2813030e+01 
-1.4070326e-02 5.3562075e-01 4.2804932e+01 
-6.7567028e-02 7.5865942e-01 4.2737610e+01 
-1.6052702e-01 6.2461799e-01 4.2728443e+01 
-1.7877772e-01 8.4556442e-01 4.2664265e+01 
-4.3632504e-01 9.6404558e-01 4.2633099e+01 
-2.7425703e-01 7.1284944e-01 4.2654083e+01 
4.4751364e-01 3.3500037e-01 4.3016472e+01 
3.5901129e-02 6.5341437e-01 4.2674721e+01 
-3.7959340e-01 8.2794034e-01 4.2568317e+01 
-3.1106678e-01 9.1965032e-01 4.2564713e+01 
-3.2659348e-02 5.4472327e-01 4.2665997e+01 
2.0396979e-01 4.9291667e-01 4.2740131e+01 
-6.2242586e-02 7.5669110e-01 4.2581669e+01 
1.7765003e-01 4.3475360e-01 4.2732578e+01 
-1.5663649e-01 6.2038553e-01 4.2571964e+01 
-4.3632439e-01 9.6404165e-01 4.2495808e+01 
-1.7531081e-01 8.4539592e-01 4.2506718e+01 
-2.7261066e-01 7.1026409e-01 4.2496017e+01 
-3.0958602e-01 9.1987789e-01 4.2426853e+01 
-3.7859210e-01 8.2613736e-01 4.2421188e+01 
4.6141517e-01 3.2527190e-01 4.2776375e+01 
6.2686495e-02 6.2762415e-01 4.2501175e+01 
-3.3570320e-04 5.2390522e-01 4.2492062e+01 
-5.6779940e-02 7.5462401e-01 4.2422298e+01 
-4.3632373e-01 9.6403772e-01 4.2357380e+01 
-1.5262254e-01 6.1603409e-01 4.2412144e+01 
-1.7177837e-01 8.4521037e-01 4.2345684e+01 
-2.7093092e-01 7.0762289e-01 4.2334549e+01 
-3.0808610e-01 9.2009580e-01 4.2287842e+01 
-3.8275370e-01 8.3137155e-01 4.2275047e+01 
4.9876589e-02 6.4471585e-01 4.2356720e+01 
-1.9539909e-02 5.3318781e-01 4.2347118e+01 
-4.3632311e-01 9.6403396e-01 4.2217781e+01 
2.1959943e-01 4.8236796e-01 4.2385345e+01 
-5.1174615e-02 7.5245124e-01 4.2259373e+01 
1.9034323e-01 4.2346162e-01 4.2378918e+01 
-1.4847966e-01 6.1155808e-01 4.2248856e+01 
4.7536272e-01 3.1546980e-01 4.2535065e+01 
-1.6817927e-01 8.4500539e-01 4.2181026e+01 
-2.6921678e-01 7.0492369e-01 4.2169544e+01 
-3.0656675e-01 9.2030340e-01 4.2147648e+01 
-3.9470181e-01 8.4769493e-01 4.2145920e+01 
7.7868804e-02 6.1763972e-01 4.2175373e+01 
-4.3632248e-01 9.6403021e-01 4.2076988e+01 
1.4390758e-02 5.1145434e-01 4.2165581e+01 
-4.5421973e-02 7.5016522e-01 4.2092751e+01 
-1.4420210e-01 6.0695171e-01 4.2081959e+01 
-3.0502778e-01 9.2049998e-01 4.2006248e+01 
-4.0175444e-01 8.5747409e-01 4.2004128e+01 
-1.6451253e-01 8.4477836e-01 4.2012604e+01 
4.8935395e-01 3.0558801e-01 4.2292507e+01 
-2.6746723e-01 7.0216429e-01 4.2000870e+01 
6.4714879e-02 6.3520777e-01 4.2024277e+01 
-4.3632188e-01 9.6402657e-01 4.1934975e+01 
-5.4755262e-03 5.2092212e-01 4.2014156e+01 
-2.3078828e-01 8.1064087e-01 4.1931458e+01 
2.3550548e-01 4.7116494e-01 4.2073269e+01 
2.0610523e-01 4.1123796e-01 4.2066772e+01 
-3.9517213e-02 7.4775779e-01 4.1922287e+01 
-1.3978374e-01 6.0220873e-01 4.1911320e+01 
-3.0346894e-01 9.2068475e-01 4.1863613e+01 
-3.9432141e-01 8.4618556e-01 4.1861881e+01 
-1.6077711e-01 8.4452641e-01 4.1840263e+01 
-2.6568118e-01 6.9934219e-01 4.1828377e+01 
-4.3632129e-01 9.6402299e-01 4.1791718e+01 
5.0338638e-01 2.9562023e-01 4.2048656e+01 
9.4028555e-02 6.0672593e-01 4.1834507e+01 
3.0205652e-02 4.9819478e-01 4.1824417e+01 
-3.8116732e-01 8.2744831e-01 4.1725647e+01 
-3.0189002e-01 9.2085695e-01 4.1719719e+01 
-3.3455357e-02 7.4522001e-01 4.1747829e+01 
-1.3521814e-01 5.9732240e-01 4.1736786e+01 
-4.3632072e-01 9.6401960e-01 4.1647179e+01 
-1.5697217e-01 8.4424627e-01 4.1663853e+01 
-2.6385748e-01 6.9645494e-01 4.1651920e+01 
8.0488607e-02 6.2478805e-01 4.1676235e+01 
2.6870471e-01 4.4547972e-01 4.1752304e+01 
9.6269641e-03 5.0785345e-01 4.1665993e+01 
2.4764967e-01 3.8646612e-01 4.1743168e+01 
-3.0029076e-01 9.2101562e-01 4.1574532e+01 
-3.9388368e-01 8.4456980e-01 4.1572796e+01 
5.1745731e-01 2.8556010e-01 4.1803486e+01 
-2.7231261e-02 7.4254233e-01 4.1569210e+01 
-1.3049847e-01 5.9228569e-01 4.1558201e+01 
-4.3632016e-01 9.6401632e-01 4.1501339e+01 
-1.5309690e-01 8.4393430e-01 4.1483204e+01 
-2.6199502e-01 6.9349992e-01 4.1471333e+01 
-2.9867104e-01 9.2115986e-01 4.1428024e+01 
-3.9364263e-01 8.4372103e-01 4.1426289e+01 
1.1125199e-01 5.9476525e-01 4.1477348e+01 
4.7217656e-02 4.8404291e-01 4.1467384e+01 
-4.3631962e-01 9.6401310e-01 4.1354160e+01 
-2.0839609e-02 7.3971421e-01 4.1386261e+01 
-1.2561750e-01 5.8709091e-01 4.1375404e+01 
5.3156406e-01 2.7540097e-01 4.1556946e+01 
-1.4915068e-01 8.4358656e-01 4.1298138e+01 
-2.9703063e-01 9.2128879e-01 4.1280167e+01 
-3.9338648e-01 8.4284443e-01 4.1278431e+01 
-2.6009262e-01 6.9047421e-01 4.1286449e+01 
2.9365057e-01 4.2687622e-01 4.1391586e+01 
9.7278498e-02 6.1333776e-01 4.1311302e+01 
2.7470219e-01 3.6807936e-01 4.1382729e+01 
2.5872495e-02 4.9389899e-01 4.1301384e+01 
-4.3631911e-01 9.6401012e-01 4.1205620e+01 
-1.4274905e-02 7.3672432e-01 4.1198803e+01 
-1.2056758e-01 5.8173001e-01 4.1188221e+01 
-2.9536936e-01 9.2140132e-01 4.1130928e+01 
-3.9311492e-01 8.4193951e-01 4.1129196e+01 
-1.4513300e-01 8.4319860e-01 4.1108471e+01 
-2.5814909e-01 6.8737495e-01 4.1097092e+01 
5.4570377e-01 2.6513597e-01 4.1309002e+01 
-4.3631864e-01 9.6400726e-01 4.1055683e+01 
1.2963529e-01 5.8162063e-01 4.1102535e+01 
6.5549292e-02 4.6890301e-01 4.1093170e+01 
-2.9368708e-01 9.2149633e-01 4.0980282e+01 
-3.9282763e-01 8.4100580e-01 4.0978546e+01 
-7.5314799e-03 7.3356009e-01 4.1006645e+01 
-1.1534062e-01 5.7619411e-01 4.0996464e+01 
-4.3631819e-01 9.6400458e-01 4.0904320e+01 
-1.4104357e-01 8.4276545e-01 4.0914013e+01 
-2.5616318e-01 6.8419898e-01 4.0903072e+01 
3.2058594e-01 4.0660852e-01 4.1012939e+01 
3.0392724e-01 3.4830356e-01 4.1004852e+01 
1.3929455e-01 5.7455480e-01 4.0908039e+01 
5.5987346e-01 2.5475809e-01 4.1059616e+01 
-2.9198360e-01 9.2157274e-01 4.0828186e+01 
-3.9252430e-01 8.4004271e-01 4.0826450e+01 
7.5252555e-02 4.6092877e-01 4.0899174e+01 
-6.0348789e-04 7.3020804e-01 4.0809586e+01 
-1.0992801e-01 5.7047397e-01 4.0799946e+01 
-4.3631777e-01 9.6400213e-01 4.0751495e+01 
-1.3688231e-01 8.4228164e-01 4.0714550e+01 
-2.5413361e-01 6.8094307e-01 4.0704193e+01 
-2.9025882e-01 9.2162931e-01 4.0674618e+01 
-3.9220461e-01 8.3904964e-01 4.0672882e+01 
1.4928435e-01 5.6712997e-01 4.0708546e+01 
-2.2555751e-01 7.4089563e-01 4.0648521e+01 
8.5339002e-02 4.5266494e-01 4.0700317e+01 
-4.3631741e-01 9.6399981e-01 4.0597176e+01 
5.7406986e-01 2.4426004e-01 4.0808739e+01 
3.2379124e-01 4.0516213e-01 4.0702431e+01 
6.5151006e-03 7.2665334e-01 4.0607414e+01 
2.9629943e-01 3.4699711e-01 4.0697845e+01 
-1.0432066e-01 5.6455940e-01 4.0598461e+01 
-2.8851265e-01 9.2166477e-01 4.0519535e+01 
-3.9186817e-01 8.3802611e-01 4.0517799e+01 
-1.3264935e-01 8.4174097e-01 4.0509869e+01 
-2.5205913e-01 6.7760366e-01 4.0500244e+01 
-4.3631706e-01 9.6399778e-01 4.0441326e+01 
1.5961993e-01 5.5932128e-01 4.0503838e+01 
9.5828816e-02 4.4409505e-01 4.0496403e+01 
1.3830490e-02 7.2287977e-01 4.0399906e+01 
-2.8674495e-01 9.2167777e-01 4.0362904e+01 
-3.9151466e-01 8.3697134e-01 4.0361168e+01 
-9.8508880e-02 5.5843961e-01 4.0391796e+01 
5.8828968e-01 2.3363429e-01 4.0556339e+01 
-1.2834521e-01 8.4113657e-01 4.0299736e+01 
-4.3631676e-01 9.6399599e-01 4.0283916e+01 
3.7540305e-01 3.0489451e-01 4.0419098e+01 
4.0296251e-01 3.4319970e-01 4.0418556e+01 
-2.4993844e-01 6.7417705e-01 4.0291004e+01 
1.7031763e-01 5.5110198e-01 4.0293686e+01 
1.0674348e-01 4.3520126e-01 4.0287201e+01 
-2.8495568e-01 9.2166680e-01 4.0204693e+01 
-3.9114371e-01 8.3588475e-01 4.0202957e+01 
2.1349061e-02 7.1886963e-01 4.0186821e+01 
-9.2482448e-02 5.5210280e-01 4.0179718e+01 
-4.3631652e-01 9.6399444e-01 4.0124901e+01 
6.0252947e-01 2.2287303e-01 4.0302364e+01 
-1.2397068e-01 8.4046096e-01 4.0083908e+01 
-2.4777018e-01 6.7065942e-01 4.0076241e+01 
-2.8341931e-01 9.2173636e-01 4.0045010e+01 
-3.9090377e-01 8.3497548e-01 4.0043278e+01 
3.8856417e-01 2.9438046e-01 4.0164288e+01 
4.1656584e-01 3.3289364e-01 4.0163826e+01 
1.8031599e-01 5.4364133e-01 4.0074596e+01 
1.1541983e-01 4.2734042e-01 4.0067333e+01 
-2.2141793e-01 7.7166349e-01 3.9990055e+01 
-4.3631631e-01 9.6399319e-01 3.9964546e+01 
2.6659578e-02 7.1708864e-01 3.9969933e+01 
-9.0938017e-02 5.4865581e-01 3.9965149e+01 
-2.8408390e-01 9.2262787e-01 3.9885139e+01 
-3.9184290e-01 8.3572704e-01 3.9883438e+01 
-1.1960422e-01 8.3971924e-01 3.9866001e+01 
6.1678553e-01 2.1196821e-01 4.0046776e+01 
-2.4561417e-01 6.6714638e-01 3.9861797e+01 
-4.3631613e-01 9.6399230e-01 3.9805172e+01 
1.8224937e-01 5.4478556e-01 3.9851994e+01 
1.1227111e-01 4.2591399e-01 3.9850639e+01 
4.0265635e-01 2.8331238e-01 3.9908489e+01 
4.3092319e-01 3.2187808e-01 3.9908104e+01 
-2.2315158e-01 7.7335364e-01 3.9777592e+01 
-2.8475434e-01 9.2347819e-01 3.9726242e+01 
2.8490232e-02 7.1880168e-01 3.9753887e+01 
-3.9275566e-01 8.3645439e-01 3.9724571e+01 
-9.1548912e-02 5.4664814e-01 3.9752350e+01 
-4.3631604e-01 9.6399170e-01 3.9646759e+01 
-1.1535989e-01 8.3892792e-01 3.9651600e+01 
-2.4349880e-01 6.6368383e-01 3.9650478e+01 
6.3098758e-01 2.0096327e-01 3.9790730e+01 
1.8106893e-01 5.4923809e-01 3.9637936e+01 
1.0815459e-01 4.2512158e-01 3.9639584e+01 
-2.8542885e-01 9.2428809e-01 3.9568298e+01 
-3.9364204e-01 8.3715808e-01 3.9566654e+01 
3.7604639e-01 3.6517909e-01 3.9649559e+01 
3.4411186e-01 3.0674967e-01 3.9650303e+01 
3.0306969e-02 7.2036350e-01 3.9541294e+01 
-9.2094563e-02 5.4464346e-01 3.9542625e+01 
-2.2327590e-01 7.7324754e-01 3.9514381e+01 
-4.3631598e-01 9.6399140e-01 3.9489288e+01 
-2.4142314e-01 6.6027021e-01 3.9442184e+01 
-1.1123539e-01 8.3808672e-01 3.9440594e+01 
-2.8611061e-01 9.2505991e-01 3.9411285e+01 
-3.9450425e-01 8.3784252e-01 3.9409668e+01 
1.0422853e-01 4.2429364e-01 3.9431545e+01 
1.8008251e-01 5.5350369e-01 3.9427258e+01 
6.4510512e-01 1.8987277e-01 3.9534679e+01 
-4.3631601e-01 9.6399146e-01 3.9332741e+01 
-9.2579618e-02 5.4264182e-01 3.9335873e+01 
3.2105893e-02 7.2177994e-01 3.9332031e+01 
4.5993534e-01 2.9918647e-01 3.9396236e+01 
3.6780185e-01 2.9068699e-01 3.9377472e+01 
-2.8679883e-01 9.2579454e-01 3.9255184e+01 
-3.9896187e-01 8.4387207e-01 3.9250950e+01 
-2.3938626e-01 6.5690386e-01 3.9236820e+01 
-1.0722842e-01 8.3719516e-01 3.9232868e+01 
-2.4293023e-01 7.9894316e-01 3.9185921e+01 
-4.3631607e-01 9.6399182e-01 3.9177097e+01 
1.0048166e-01 4.2342997e-01 3.9226429e+01 
2.3723893e-01 4.9462256e-01 3.9190979e+01 
-9.3008362e-02 5.4064304e-01 3.9132000e+01 
3.3883687e-02 7.2305661e-01 3.9125992e+01 
-2.8749284e-01 9.2649293e-01 3.9099979e+01 
6.5913308e-01 1.7869173e-01 3.9278629e+01 
-3.9615774e-01 8.3915812e-01 3.9098415e+01 
-1.7688191e-01 7.2381729e-01 3.9066620e+01 
3.7826118e-01 2.8149378e-01 3.9143242e+01 
-4.3631619e-01 9.6399260e-01 3.9022343e+01 
-2.3738723e-01 6.5358341e-01 3.9034294e+01 
-1.0333671e-01 8.3625311e-01 3.9028313e+01 
4.7424805e-01 2.8775379e-01 3.9140301e+01 
9.6903533e-02 4.2253050e-01 3.9024139e+01 
1.7857151e-01 5.6144583e-01 3.9015602e+01 
-2.8819180e-01 9.2715627e-01 3.8945656e+01 
-3.9695001e-01 8.3979106e-01 3.8944118e+01 
-9.3384795e-02 5.3864694e-01 3.8930920e+01 
3.5637442e-02 7.2419852e-01 3.8923069e+01 
-2.5129533e-01 7.7277285e-01 3.8878689e+01 
-4.3631637e-01 9.6399367e-01 3.8868458e+01 
6.7306668e-01 1.6741519e-01 3.9022583e+01 
-2.3542514e-01 6.5030724e-01 3.8834515e+01 
-9.9557981e-02 8.3526045e-01 3.8826828e+01 
3.3413476e-01 2.9830050e-01 3.8911201e+01 
3.6144790e-01 3.7846172e-01 3.8899429e+01 
-2.8889531e-01 9.2778492e-01 3.8792194e+01 
9.3484469e-02 4.2159525e-01 3.8824589e+01 
-3.7465081e-01 8.0827540e-01 3.8772999e+01 
1.7799635e-01 5.6511396e-01 3.8814415e+01 
-4.3631661e-01 9.6399510e-01 3.8715424e+01 
-9.3712606e-02 5.3665334e-01 3.8732544e+01 
3.7364598e-02 7.2521031e-01 3.8723167e+01 
-3.9846838e-01 8.4101093e-01 3.8638088e+01 
-3.0660737e-01 9.3461853e-01 3.8637390e+01 
-2.3349917e-01 6.4707404e-01 3.8637398e+01 
-9.5890015e-02 8.3421713e-01 3.8628315e+01 
6.8690097e-01 1.5603818e-01 3.8766533e+01 
-2.1401562e-01 7.9224402e-01 3.8586525e+01 
9.0215534e-02 4.2062446e-01 3.8627693e+01 
1.7751488e-01 5.6857902e-01 3.8616192e+01 
-4.3631691e-01 9.6399689e-01 3.8563232e+01 
-9.3995206e-02 5.3466207e-01 3.8536785e+01 
5.0247043e-01 2.6468235e-01 3.8628426e+01 
4.7358268e-01 2.2607334e-01 3.8628433e+01 
-3.7484458e-01 8.0749160e-01 3.8504803e+01 
3.9062902e-02 7.2609627e-01 3.8526184e+01 
-2.6815405e-01 9.2075670e-01 3.8501320e+01 
2.5966790e-01 3.2861054e-01 3.8574799e+01 
3.1564391e-01 4.2112365e-01 3.8553017e+01 
-2.3160845e-01 6.4388245e-01 3.8442863e+01 
-9.2330612e-02 8.3312309e-01 3.8432678e+01 
-4.3631727e-01 9.6399909e-01 3.8411861e+01 
8.7088384e-02 4.1961834e-01 3.8433372e+01 
1.7711101e-01 5.7184219e-01 3.8420834e+01 
7.0063102e-01 1.4455575e-01 3.8510483e+01 
-3.6402488e-01 7.9293370e-01 3.8336117e+01 
-2.6501906e-01 9.1991377e-01 3.8334435e+01 
-9.4235748e-02 5.3267282e-01 3.8343563e+01 
4.0730380e-02 7.2686058e-01 3.8332027e+01 
-4.3631771e-01 9.6400160e-01 3.8261295e+01 
5.1637328e-01 2.5303102e-01 3.8372486e+01 
4.8743987e-01 2.1440519e-01 3.8372421e+01 
-2.2975217e-01 6.4073122e-01 3.8250828e+01 
-8.8877603e-02 8.3197856e-01 3.8239822e+01 
8.4095009e-02 4.1857690e-01 3.8241547e+01 
-2.6987466e-01 9.2199183e-01 3.8173153e+01 
1.5584399e-01 5.9991848e-01 3.8210232e+01 
2.6285183e-01 3.2086381e-01 3.8225883e+01 
-3.6475360e-01 7.9309064e-01 3.8145058e+01 
-9.4437145e-02 5.3068548e-01 3.8152805e+01 
4.2365439e-02 7.2750694e-01 3.8140606e+01 
-4.3631819e-01 9.6400452e-01 3.8111519e+01 
7.1425188e-01 1.3296290e-01 3.8254436e+01 
-2.2423694e-01 7.9678041e-01 3.8059132e+01 
-2.2792953e-01 6.3761896e-01 3.8061218e+01 
3.4306890e-01 3.9653999e-01 3.8119331e+01 
-3.0554163e-01 9.3515408e-01 3.8039795e+01 
-8.5528858e-02 8.3078349e-01 3.8049664e+01 
-4.0125769e-01 8.4328377e-01 3.8035862e+01 
8.1228115e-02 4.1750050e-01 3.8052139e+01 
5.3013241e-01 2.4129438e-01 3.8116543e+01 
5.0117886e-01 2.0265298e-01 3.8116409e+01 
1.7648260e-01 5.7777184e-01 3.8038349e+01 
-3.3372086e-01 7.5415289e-01 3.7967556e+01 
-4.3631873e-01 9.6400774e-01 3.7962521e+01 
-9.4602086e-02 5.2869987e-01 3.7964432e+01 
4.3967076e-02 7.2803944e-01 3.7951836e+01 
-4.0452158e-01 8.4812719e-01 3.7910202e+01 
-2.9319087e-01 9.3085498e-01 3.7888630e+01 
-2.2613975e-01 6.3454461e-01 3.7873959e+01 
-8.2282290e-02 8.2953817e-01 3.7862114e+01 
7.2775871e-01 1.2125468e-01 3.7998386e+01 
7.8481086e-02 4.1638982e-01 3.7865070e+01 
-4.3631935e-01 9.6401143e-01 3.7814281e+01 
1.5593854e-01 6.0469693e-01 3.7833504e+01 
-3.5891178e-01 7.8425926e-01 3.7779030e+01 
2.9171333e-01 2.9945263e-01 3.7847244e+01 
-9.4733045e-02 5.2671582e-01 3.7778370e+01 
-1.3386223e-01 6.7573297e-01 3.7767498e+01 
-2.6040804e-01 9.1901547e-01 3.7749611e+01 
5.4374415e-01 2.2946636e-01 3.7860600e+01 
4.5533616e-02 7.2846097e-01 3.7765633e+01 
5.1479572e-01 1.9081219e-01 3.7860397e+01 
-2.2438207e-01 6.3150692e-01 3.7688976e+01 
3.3554658e-01 4.0465948e-01 3.7745422e+01 
-4.3632001e-01 9.6401542e-01 3.7666786e+01 
-7.9135858e-02 8.2824272e-01 3.7677090e+01 
7.5847976e-02 4.1524586e-01 3.7680279e+01 
1.7602243e-01 5.8292747e-01 3.7666279e+01 
-2.5476646e-01 9.1703618e-01 3.7590244e+01 
-8.2882628e-02 7.1442437e-01 3.7595539e+01 
7.4114656e-01 1.0942613e-01 3.7742336e+01 
-9.4832338e-02 5.2473313e-01 3.7594555e+01 
4.7063492e-02 7.2877419e-01 3.7581913e+01 
-3.6530969e-01 7.9142135e-01 3.7562614e+01 
-4.3632075e-01 9.6401983e-01 3.7520023e+01 
-2.2265576e-01 6.2850475e-01 3.7506207e+01 
5.5720460e-01 2.1754089e-01 3.7604656e+01 
5.2828658e-01 1.7887834e-01 3.7604385e+01 
-7.6087564e-02 8.2689744e-01 3.7494518e+01 
7.3323429e-02 4.1406992e-01 3.7497692e+01 
-4.0375072e-01 8.4535897e-01 3.7445919e+01 
1.5609369e-01 6.0875082e-01 3.7466835e+01 
-2.6579350e-01 9.2122644e-01 3.7433434e+01 
2.6325002e-01 3.0700493e-01 3.7464275e+01 
-9.4902121e-02 5.2275157e-01 3.7412910e+01 
-3.2473329e-01 7.4082249e-01 3.7394375e+01 
4.8555396e-02 7.2898149e-01 3.7400604e+01 
-4.3632156e-01 9.6402466e-01 3.7373978e+01 
7.5441051e-01 9.7472273e-02 3.7486286e+01 
-4.8723921e-02 6.5081555e-01 3.7336182e+01 
3.2893789e-01 4.1216832e-01 3.7381390e+01 
-2.2096011e-01 6.2553710e-01 3.7325581e+01 
-7.3135458e-02 8.2550251e-01 3.7314320e+01 
-3.0432814e-01 9.3524235e-01 3.7304134e+01 
-4.0433234e-01 8.4584957e-01 3.7300243e+01 
-1.6731457e-01 7.6885879e-01 3.7286919e+01 
7.0902504e-02 4.1286328e-01 3.7317242e+01 
1.7566696e-01 5.8734244e-01 3.7303974e+01 
5.7050985e-01 2.0551197e-01 3.7348713e+01 
5.4164732e-01 1.6684693e-01 3.7348370e+01 
-4.3632242e-01 9.6402985e-01 3.7228634e+01 
-3.1201029e-01 7.2455895e-01 3.7225697e+01 
-9.4944343e-02 5.2077091e-01 3.7233376e+01 
5.0008133e-02 7.2908527e-01 3.7221630e+01 
-2.9682615e-01 9.3255734e-01 3.7156517e+01 
-4.0489858e-01 8.4632945e-01 3.7155262e+01 
-1.8870118e-01 7.7550596e-01 3.7150997e+01 
-2.1929441e-01 6.2260282e-01 3.7147030e+01 
-7.0277624e-02 8.2405823e-01 3.7136421e+01 
-9.6087098e-02 6.6538131e-01 3.7136211e+01 
4.1916363e-02 4.2779586e-01 3.7121902e+01 
-4.3632334e-01 9.6403545e-01 3.7083981e+01 
1.5627787e-01 6.1212689e-01 3.7109600e+01 
-3.1327799e-01 7.2548163e-01 3.7081093e+01 
7.6754564e-01 8.5388154e-02 3.7230240e+01 
-9.4960772e-02 5.1879108e-01 3.7055885e+01 
5.1420636e-02 7.2908789e-01 3.7044918e+01 
-2.5594085e-01 9.1760838e-01 3.7024376e+01 
-4.0544996e-01 8.4679890e-01 3.7010960e+01 
-1.8576650e-01 7.7765042e-01 3.6995960e+01 
5.8365589e-01 1.9337365e-01 3.7092766e+01 
5.5487406e-01 1.5471348e-01 3.7092358e+01 
2.7343187e-01 2.9389885e-01 3.7040520e+01 
3.2311696e-01 4.1906568e-01 3.7026634e+01 
-2.1765801e-01 6.1970091e-01 3.6970497e+01 
-6.7512207e-02 8.2256490e-01 3.6960751e+01 
3.1982321e-02 5.9191042e-01 3.6965019e+01 
-4.3632436e-01 9.6404141e-01 3.6940002e+01 
-3.1452391e-01 7.2637409e-01 3.6937160e+01 
6.6353150e-02 4.1036251e-01 3.6962494e+01 
1.7537189e-01 5.9105575e-01 3.6950844e+01 
-2.4819289e-01 9.1462833e-01 3.6870625e+01 
-4.0598705e-01 8.4725809e-01 3.6867329e+01 
-9.4953053e-02 5.1681197e-01 3.6880383e+01 
5.2792128e-02 7.2899139e-01 3.6870396e+01 
7.8054708e-01 7.3168807e-02 3.6974190e+01 
-4.3632543e-01 9.6404779e-01 3.6796684e+01 
-3.1574932e-01 7.2723651e-01 3.6793892e+01 
-2.1605022e-01 6.1683041e-01 3.6795921e+01 
9.5958076e-03 5.9352505e-01 3.6802078e+01 
-6.4837389e-02 8.2102281e-01 3.6787239e+01 
-1.8103550e-01 7.8270859e-01 3.6746704e+01 
3.8272861e-02 4.2500082e-01 3.6771477e+01 
1.5646653e-01 6.1486733e-01 3.6761234e+01 
5.9663856e-01 1.8112005e-01 3.6836823e+01 
-4.0651044e-01 8.4770727e-01 3.6724354e+01 
5.6796265e-01 1.4247353e-01 3.6836346e+01 
-2.5522238e-01 9.1718006e-01 3.6714699e+01 
-1.1114137e-01 6.7802876e-01 3.6700081e+01 
-9.4922669e-02 5.1483351e-01 3.6706802e+01 
5.4121915e-02 7.2879797e-01 3.6698002e+01 
-4.3632656e-01 9.6405458e-01 3.6654018e+01 
-3.1695542e-01 7.2806937e-01 3.6651272e+01 
2.6380321e-01 2.9252920e-01 3.6692150e+01 
3.1797570e-01 4.2535260e-01 3.6680595e+01 
-2.1447045e-01 6.1399037e-01 3.6623241e+01 
-6.2251419e-02 8.1943220e-01 3.6615822e+01 
-1.8312693e-01 7.8028470e-01 3.6594273e+01 
-4.0702069e-01 8.4814662e-01 3.6582020e+01 
6.2165316e-02 4.0775129e-01 3.6615555e+01 
1.7510822e-01 5.9410906e-01 3.6606331e+01 
7.9340982e-01 6.0809266e-02 3.6718143e+01 
-2.6098427e-01 9.1920161e-01 3.6565880e+01 
-9.4871007e-02 5.1285565e-01 3.6535091e+01 
-4.3632776e-01 9.6406180e-01 3.6511986e+01 
5.5409417e-02 7.2850943e-01 3.6527668e+01 
-3.1814319e-01 7.2887301e-01 3.6509289e+01 
6.0945374e-01 1.6874535e-01 3.6580875e+01 
5.8090901e-01 1.3012257e-01 3.6580334e+01 
-2.1291804e-01 6.1117989e-01 3.6452404e+01 
-3.0046210e-01 9.3357158e-01 3.6441467e+01 
-4.0751830e-01 8.4857625e-01 3.6440315e+01 
-1.8335095e-01 7.7956551e-01 3.6442867e+01 
-5.9752576e-02 8.1779343e-01 3.6446438e+01 
-1.6662594e-02 6.0017198e-01 3.6424164e+01 
3.4936592e-02 4.2212349e-01 3.6428600e+01 
1.5664075e-01 6.1701012e-01 3.6421200e+01 
-4.3632904e-01 9.6406937e-01 3.6370575e+01 
-3.1931347e-01 7.2964793e-01 3.6367924e+01 
-9.4799332e-02 5.1087826e-01 3.6365192e+01 
5.6654137e-02 7.2812778e-01 3.6359333e+01 
8.0612904e-01 4.8304576e-02 3.6462093e+01 
-2.5088763e-01 9.1507405e-01 3.6306881e+01 
-4.0800381e-01 8.4899646e-01 3.6299229e+01 
2.5485897e-01 2.9101750e-01 3.6351212e+01 
3.1342325e-01 4.3103433e-01 3.6342743e+01 
-1.8194495e-01 7.8031689e-01 3.6292461e+01 
-2.1139240e-01 6.0839796e-01 3.6283348e+01 
-5.7339191e-02 8.1610680e-01 3.6279022e+01 
5.8310956e-02 4.0503985e-01 3.6275959e+01 
1.7485365e-01 5.9654057e-01 3.6269917e+01 
-4.3633038e-01 9.6407741e-01 3.6229774e+01 
-3.2046729e-01 7.3039442e-01 3.6227173e+01 
6.2209719e-01 1.5624379e-01 3.6324928e+01 
5.9370899e-01 1.1765613e-01 3.6324322e+01 
-4.2455696e-02 6.6925818e-01 3.6208664e+01 
-9.4708838e-02 5.0890142e-01 3.6197052e+01 
5.7854917e-02 7.2765416e-01 3.6192932e+01 
-4.0847772e-01 8.4940726e-01 3.6158741e+01 
-2.4213955e-01 9.1141510e-01 3.6131252e+01 
-2.0989297e-01 6.0564381e-01 3.6116028e+01 
-5.5009648e-02 8.1437254e-01 3.6113514e+01 
-4.3633178e-01 9.6408588e-01 3.6089573e+01 
1.1496475e-01 4.7446844e-01 3.6094696e+01 
8.1869978e-01 3.5649776e-02 3.6206047e+01 
-4.2350102e-02 5.9256637e-01 3.6040344e+01 
-1.3118914e-01 7.4363917e-01 3.6004688e+01 
-4.3633327e-01 9.6409470e-01 3.5950001e+01 
-3.0669412e-01 9.3530416e-01 3.5950001e+01 
-3.9926469e-01 8.3308035e-01 3.5950001e+01 
-1.8183666e-01 8.8553143e-01 3.5950001e+01 
-3.1333256e-01 7.2035658e-01 3.5950001e+01 
-5.2764308e-02 8.1259257e-01 3.5950001e+01 
-2.0841572e-01 6.0291016e-01 3.5950001e+01 
9.2435949e-02 6.9171435e-01 3.5950001e+01 
-5.9133973e-02 4.7944158e-01 3.5950001e+01 
2.3172837e-01 5.2982128e-01 3.5950001e+01 
1.2157809e-01 3.6078578e-01 3.5950001e+01 
3.9265585e-01 3.4657604e-01 3.5950001e+01 
3.3473507e-01 2.4030718e-01 3.5950001e+01 
5.9579557e-01 1.7164893e-01 3.5950001e+01 
5.7209939e-01 1.1904663e-01 3.5950001e+01 
-4.3633482e-01 9.6410406e-01 3.5809345e+01 
-1.5081002e-02 6.0419625e-01 3.5821754e+01 
8.3111709e-01 2.2839896e-02 3.5950001e+01 
-5.0568014e-02 8.1073987e-01 3.5785954e+01 
-4.0014338e-01 8.3391124e-01 3.5771095e+01 
-2.0692162e-01 6.0012394e-01 3.5780830e+01 
-2.3915108e-01 9.0941912e-01 3.5765991e+01 
-6.4247847e-02 4.8054451e-01 3.5735367e+01 
-3.0991235e-01 7.1496147e-01 3.5702183e+01 
6.5546811e-02 7.2120202e-01 3.5699062e+01 
-4.3633652e-01 9.6411425e-01 3.5663746e+01 
-4.8384707e-02 8.0878609e-01 3.5618763e+01 
-5.6193598e-02 6.3879979e-01 3.5616566e+01 
-1.6188958e-01 7.7585441e-01 3.5608109e+01 
-2.0541003e-01 5.9728169e-01 3.5608337e+01 
-4.0486920e-01 8.4127271e-01 3.5587387e+01 
1.8578205e-01 5.8618557e-01 3.5614239e+01 
-2.4483280e-01 9.1114563e-01 3.5584118e+01 
7.1978889e-02 3.8604587e-01 3.5605377e+01 
8.4346277e-01 9.7829718e-03 3.5692188e+01 
6.0414851e-01 1.6108388e-01 3.5642872e+01 
-4.3633837e-01 9.6412522e-01 3.5512932e+01 
6.9687307e-02 7.1715409e-01 3.5530205e+01 
3.6522143e-02 5.4064459e-01 3.5534626e+01 
-3.0917704e-01 7.1312582e-01 3.5515438e+01 
-8.3201542e-02 4.9221227e-01 3.5517658e+01 
3.2728276e-01 4.1545218e-01 3.5533958e+01 
1.8668950e-01 4.3055752e-01 3.5516827e+01 
2.7592319e-01 2.6354700e-01 3.5523869e+01 
6.2988251e-01 8.0090754e-02 3.5553577e+01 
-4.6211820e-02 8.0673069e-01 3.5448315e+01 
-2.8550145e-01 9.2632806e-01 3.5435547e+01 
-4.0273702e-01 8.3711994e-01 3.5433804e+01 
1.7254078e-01 6.0205555e-01 3.5461281e+01 
-1.6946907e-01 7.6463342e-01 3.5435032e+01 
-2.0388083e-01 5.9438062e-01 3.5432381e+01 
5.1982131e-02 3.9643976e-01 3.5447346e+01 
-4.3634033e-01 9.6413696e-01 3.5356621e+01 
-3.0655351e-01 7.0912242e-01 3.5359158e+01 
7.3890135e-02 7.1290678e-01 3.5358017e+01 
-6.3445784e-02 6.7278284e-01 3.5340641e+01 
-7.9265162e-02 4.8707473e-01 3.5339870e+01 
8.5565960e-01 -3.4237511e-03 3.5434380e+01 
-2.8299442e-01 9.2496616e-01 3.5275745e+01 
-4.0045229e-01 8.3275056e-01 3.5274570e+01 
-4.4046439e-02 8.0457306e-01 3.5274467e+01 
-2.0233394e-01 5.9141779e-01 3.5252827e+01 
5.9245956e-01 1.6589543e-01 3.5334282e+01 
1.9831666e-01 5.7187825e-01 3.5270000e+01 
-1.4844625e-01 7.4131823e-01 3.5242931e+01 
8.6218059e-02 3.7131608e-01 3.5249962e+01 
-4.3634242e-01 9.6414959e-01 3.5194508e+01 
-3.0377433e-01 7.0488608e-01 3.5197067e+01 
6.4216608e-01 6.7054577e-02 3.5295803e+01 
7.8162082e-02 7.0845443e-01 3.5182369e+01 
4.9956340e-02 5.2816355e-01 3.5183422e+01 
-7.5211965e-02 4.8177627e-01 3.5158401e+01 
3.4530294e-01 3.9402023e-01 3.5186939e+01 
-2.7769634e-01 9.2247081e-01 3.5110569e+01 
-3.9800203e-01 8.2814825e-01 3.5109367e+01 
2.9850924e-01 2.4382146e-01 3.5165543e+01 
-4.1885272e-02 8.0231315e-01 3.5097095e+01 
1.8464507e-01 5.8815396e-01 3.5110813e+01 
-1.6348772e-02 6.1692029e-01 3.5097370e+01 
-2.0076936e-01 5.8839005e-01 3.5069519e+01 
6.5551095e-02 3.8197306e-01 3.5085312e+01 
-1.0433751e-01 6.9869679e-01 3.5042255e+01 
8.6771923e-01 -1.6767796e-02 3.5176571e+01 
-4.3634468e-01 9.6416301e-01 3.5026260e+01 
-3.0082700e-01 7.0039839e-01 3.5028851e+01 
8.2510941e-02 7.0379138e-01 3.5003117e+01 
-2.7417054e-02 5.4896539e-01 3.4984180e+01 
-7.1036555e-02 4.7630838e-01 3.4973103e+01 
-2.7213457e-01 9.1978902e-01 3.4939083e+01 
-3.9537203e-01 8.2329488e-01 3.4937862e+01 
6.2524414e-01 1.3554446e-01 3.5030968e+01 
6.5431446e-01 5.3912014e-02 3.5038029e+01 
-3.9724573e-02 7.9995096e-01 3.4916046e+01 
2.1151906e-01 5.5625266e-01 3.4911648e+01 
-1.9918710e-01 5.8529413e-01 3.4882305e+01 
-4.3634707e-01 9.6417731e-01 3.4851536e+01 
-2.9769772e-01 6.9563919e-01 3.4854145e+01 
1.0147641e-01 3.5552222e-01 3.4879551e+01 
-9.1624700e-02 6.4608955e-01 3.4822926e+01 
4.9370583e-02 5.0792378e-01 3.4825462e+01 
8.6945154e-02 6.9891185e-01 3.4820114e+01 
8.7965328e-01 -3.0236695e-02 3.4918762e+01 
3.6457032e-01 3.7072602e-01 3.4825607e+01 
-6.6733189e-02 4.7066200e-01 3.4783813e+01 
-2.6709256e-01 9.1722077e-01 3.4760925e+01 
-3.9254668e-01 8.1817049e-01 3.4759678e+01 
3.2281670e-01 2.2257012e-01 3.4792000e+01 
-3.7560113e-02 7.9748690e-01 3.4731178e+01 
1.9740243e-01 5.7297778e-01 3.4745720e+01 
-1.9758724e-01 5.8212632e-01 3.4691017e+01 
8.0088951e-02 3.6645818e-01 3.4707718e+01 
6.9350743e-01 7.9027526e-02 3.4781254e+01 
6.6633731e-01 4.0671878e-02 3.4780258e+01 
-4.3634957e-01 9.6419239e-01 3.4669941e+01 
9.1473877e-02 6.9380981e-01 3.4633213e+01 
-3.0132401e-01 6.9860047e-01 3.4590755e+01 
-4.4409234e-02 6.6699988e-01 3.4591103e+01 
-2.6755971e-01 9.1676062e-01 3.4575687e+01 
-3.9234623e-01 8.1716025e-01 3.4574459e+01 
-6.2295746e-02 4.6482742e-01 3.4590363e+01 
-3.5387091e-02 7.9492176e-01 3.4542324e+01 
8.9147335e-01 -4.3817975e-02 3.4660957e+01 
2.2549517e-01 5.3920269e-01 3.4538017e+01 
-1.9596991e-01 5.7888281e-01 3.4495483e+01 
-4.3635222e-01 9.6420825e-01 3.4481071e+01 
1.1786424e-01 3.3855090e-01 3.4492859e+01 
5.6081943e-02 4.8928255e-01 3.4448074e+01 
9.6107237e-02 6.8847936e-01 3.4442242e+01 
6.7824429e-01 2.7343106e-02 3.4522488e+01 
-2.2661780e-01 8.9939511e-01 3.4413303e+01 
7.0883983e-01 6.2591307e-02 3.4511990e+01 
3.8529342e-01 3.4542903e-01 3.4448761e+01 
-2.9964390e-01 6.9542408e-01 3.4393017e+01 
-3.9271265e-01 8.1700575e-01 3.4381748e+01 
-5.7717700e-02 4.5879427e-01 3.4392574e+01 
-3.3200085e-02 7.9225677e-01 3.4349323e+01 
2.1092336e-01 5.5642903e-01 3.4364769e+01 
-4.6672884e-02 5.9603482e-01 3.4347305e+01 
3.4270018e-01 2.0208438e-01 3.4352516e+01 
-1.9433539e-01 5.7555956e-01 3.4295517e+01 
-4.3635499e-01 9.6422487e-01 3.4284477e+01 
9.5701538e-02 3.4978205e-01 3.4313217e+01 
9.0319109e-01 -5.7499174e-02 3.4403149e+01 
-1.8395698e-01 8.7960696e-01 3.4246948e+01 
1.0085647e-01 6.8291432e-01 3.4247032e+01 
-3.4725738e-01 7.5284708e-01 3.4173904e+01 
-5.2992076e-02 4.5255145e-01 3.4190254e+01 
6.9004506e-01 1.3934737e-02 3.4264713e+01 
6.7266065e-01 8.5431620e-02 3.4251846e+01 
-3.0992938e-02 7.8949380e-01 3.4151997e+01 
-4.5495633e-02 5.8885628e-01 3.4149982e+01 
2.4036828e-01 5.2060932e-01 3.4147804e+01 
-1.9268395e-01 5.7215220e-01 3.4090927e+01 
-4.3635789e-01 9.6424216e-01 3.4079681e+01 
1.3550943e-01 3.2027444e-01 3.4088463e+01 
-1.8102010e-01 8.7716913e-01 3.4047359e+01 
1.0573407e-01 6.7710871e-01 3.4047405e+01 
9.1481823e-01 -7.1267828e-02 3.4145344e+01 
-2.9624158e-01 6.8885469e-01 3.3983753e+01 
-4.8111398e-02 4.4608712e-01 3.3983204e+01 
-2.8758697e-02 7.8663522e-01 3.3950157e+01 
4.5307997e-01 2.7014643e-01 3.3993706e+01 
3.7737060e-01 1.7475888e-01 3.3993877e+01 
2.3373307e-01 5.2826250e-01 3.3954330e+01 
7.2803360e-01 3.8528401e-02 3.4008125e+01 
7.0174962e-01 4.5588240e-04 3.4006943e+01 
-3.9201248e-01 8.1394380e-01 3.3882107e+01 
-1.9101606e-01 5.6865591e-01 3.3881504e+01 
1.1251137e-01 3.3181655e-01 3.3900303e+01 
-4.3636090e-01 9.6426004e-01 3.3866154e+01 
-1.7873919e-01 8.7500703e-01 3.3847530e+01 
1.1075395e-01 6.7105663e-01 3.3843170e+01 
-2.9595730e-01 6.8726552e-01 3.3781273e+01 
-4.3067656e-02 4.3938857e-01 3.3771217e+01 
9.2636627e-01 -8.5111462e-02 3.3887535e+01 
-2.6489476e-02 7.8368407e-01 3.3743614e+01 
-4.3247990e-02 5.7361484e-01 3.3741585e+01 
2.5628185e-01 5.0033849e-01 3.3739567e+01 
-3.9171720e-01 8.1265658e-01 3.3680061e+01 
-1.8933223e-01 5.6506568e-01 3.3667038e+01 
-4.3636397e-01 9.6427846e-01 3.3643333e+01 
-1.7973109e-01 8.7441999e-01 3.3646641e+01 
7.3935455e-01 2.4904128e-02 3.3750416e+01 
7.1336770e-01 -1.3084209e-02 3.3749172e+01 
1.5456159e-01 3.0054939e-01 3.3664761e+01 
1.1593159e-01 6.6475230e-01 3.3634125e+01 
4.3215165e-01 2.8820845e-01 3.3643120e+01 
-2.9584396e-01 6.8585682e-01 3.3579254e+01 
-3.7852231e-02 4.3244219e-01 3.3554070e+01 
-2.4176348e-02 7.8064442e-01 3.3532158e+01 
2.4079819e-01 5.1876551e-01 3.3549713e+01 
4.0807760e-01 1.4774749e-01 3.3566223e+01 
9.3784690e-01 -9.9017635e-02 3.3629730e+01 
-3.9147675e-01 8.1143761e-01 3.3478043e+01 
-1.8763316e-01 5.6137604e-01 3.3447296e+01 
1.3066116e-01 3.1241634e-01 3.3467312e+01 
-1.7190038e-01 8.6931646e-01 3.3420120e+01 
-4.3636709e-01 9.6429712e-01 3.3410595e+01 
1.2128428e-01 6.5819019e-01 3.3420055e+01 
7.4403310e-01 -3.5287719e-02 3.3510136e+01 
7.5060338e-01 1.1237298e-02 3.3492706e+01 
-2.9573497e-01 6.8442178e-01 3.3377243e+01 
-3.2455854e-02 4.2523336e-01 3.3331520e+01 
-2.1809211e-02 7.7752101e-01 3.3315567e+01 
2.7340320e-01 4.7823817e-01 3.3311703e+01 
-3.9125279e-01 8.1022435e-01 3.3276028e+01 
9.4927180e-01 -1.1297387e-01 3.3371925e+01 
-1.7377746e-01 8.6918426e-01 3.3219299e+01 
-1.8591967e-01 5.5758113e-01 3.3222038e+01 
1.2683135e-01 6.5136486e-01 3.3200737e+01 
1.7519526e-01 2.7921209e-01 3.3219982e+01 
-2.9564250e-01 6.8297428e-01 3.3175232e+01 
-4.3637022e-01 9.6431589e-01 3.3167263e+01 
4.5894140e-01 2.5594246e-01 3.3211224e+01 
7.6179302e-01 -2.4602287e-03 3.3234997e+01 
7.3638463e-01 -4.0310793e-02 3.3233631e+01 
-1.9376608e-02 7.7432001e-01 3.3093616e+01 
-2.6868505e-02 4.1774645e-01 3.3103329e+01 
2.5748497e-01 4.9739283e-01 3.3112400e+01 
-3.9104345e-01 8.0901253e-01 3.3074013e+01 
4.9175999e-01 8.9181110e-02 3.3093296e+01 
-1.8204966e-01 8.7223226e-01 3.3014366e+01 
-1.8419279e-01 5.5367452e-01 3.2991001e+01 
9.6065253e-01 -1.2696771e-01 3.3114120e+01 
-2.9556766e-01 6.8151498e-01 3.2973225e+01 
1.3259439e-01 6.4427155e-01 3.2975933e+01 
1.8616802e-01 2.6788154e-01 3.2989075e+01 
-4.3637332e-01 9.6433455e-01 3.2912601e+01 
7.7293640e-01 -1.6176570e-02 3.2977287e+01 
7.4780363e-01 -5.3978443e-02 3.2975861e+01 
-1.6865563e-02 7.7104867e-01 3.2866058e+01 
-2.1079361e-02 4.0996462e-01 3.2869221e+01 
-3.9250609e-01 8.1034309e-01 3.2841141e+01 
2.9193026e-01 4.5413601e-01 3.2862411e+01 
-2.9551101e-01 6.8004382e-01 3.2771214e+01 
5.1702994e-01 1.9390844e-01 3.2830135e+01 
5.0341457e-01 7.6112211e-02 3.2835571e+01 
-1.8245374e-01 5.4964942e-01 3.2753918e+01 
-1.7102474e-01 8.6532372e-01 3.2745358e+01 
1.3859759e-01 6.3690573e-01 3.2745396e+01 
9.7200084e-01 -1.4098670e-01 3.2856316e+01 
1.9761579e-01 2.5607568e-01 3.2752132e+01 
-3.7453637e-01 7.8186417e-01 3.2662991e+01 
-4.3637636e-01 9.6435267e-01 3.2645798e+01 
-1.4261367e-02 7.6771569e-01 3.2632629e+01 
3.2612395e-01 4.1013893e-01 3.2652946e+01 
7.8404635e-01 -2.9899828e-02 3.2719574e+01 
7.5917643e-01 -6.7669645e-02 3.2718090e+01 
-1.5076662e-02 4.0186986e-01 3.2628918e+01 
-2.9547295e-01 6.7856050e-01 3.2569202e+01 
-1.6941269e-01 8.6348420e-01 3.2541187e+01 
5.7443655e-01 1.3773179e-01 3.2581203e+01 
5.1498944e-01 6.2992752e-02 3.2577843e+01 
-1.8070395e-01 5.4549825e-01 3.2510498e+01 
1.4486811e-01 6.2926358e-01 3.2508846e+01 
-3.8925648e-01 8.0346000e-01 3.2487602e+01 
-1.3525115e-01 7.3577613e-01 3.2487034e+01 
2.0956995e-01 2.4376643e-01 3.2508865e+01 
9.8332822e-01 -1.5501837e-01 3.2598507e+01 
-1.1547334e-02 7.6433170e-01 3.2393059e+01 
-2.9029495e-01 6.7085510e-01 3.2384319e+01 
-4.3637922e-01 9.6436989e-01 3.2365971e+01 
-8.8476008e-03 3.9344284e-01 3.2382126e+01 
7.9513574e-01 -4.3618087e-02 3.2461864e+01 
3.1210318e-01 4.2783970e-01 3.2389690e+01 
7.7051342e-01 -8.1374779e-02 3.2460320e+01 
-1.8208267e-01 8.6894500e-01 3.2331314e+01 
-1.2657827e-01 7.3375171e-01 3.2272591e+01 
-3.9046043e-01 8.0431134e-01 3.2262966e+01 
5.8526558e-01 1.2435804e-01 3.2323608e+01 
-1.7894518e-01 5.4121310e-01 3.2260433e+01 
1.5143639e-01 6.2134206e-01 3.2266014e+01 
5.2649206e-01 4.9828205e-02 3.2320114e+01 
2.2206457e-01 2.3092343e-01 3.2258965e+01 
9.9464649e-01 -1.6905029e-01 3.2340702e+01 
-2.8592229e-01 6.6392988e-01 3.2175961e+01 
-8.7045338e-03 7.6090914e-01 3.2147053e+01 
3.2289809e-01 4.1380358e-01 3.2143845e+01 
-2.3782058e-03 3.8466284e-01 3.2128521e+01 
8.0621731e-01 -5.7319410e-02 3.2204151e+01 
7.8182471e-01 -9.5084190e-02 3.2202549e+01 
-3.7582260e-01 7.8063846e-01 3.2074932e+01 
-4.3638188e-01 9.6438563e-01 3.2072136e+01 
-1.7354237e-01 8.6325347e-01 3.2016335e+01 
1.5833582e-01 6.1313826e-01 3.2016586e+01 
-1.7717944e-01 5.3678501e-01 3.2003395e+01 
5.9610564e-01 1.1104818e-01 3.2066006e+01 
5.3792989e-01 3.6624506e-02 3.2062382e+01 
-3.0130115e-01 6.8133032e-01 3.1973534e+01 
2.3513682e-01 2.1751386e-01 3.2002110e+01 
1.0059671e+00 -1.8306997e-01 3.2082897e+01 
-3.2580975e-01 9.3488353e-01 3.1903316e+01 
-3.9938655e-01 8.1747228e-01 3.1890068e+01 
-5.7114679e-03 7.5746274e-01 3.1894304e+01 
3.3388746e-01 3.9957884e-01 3.1890112e+01 
4.3468266e-03 3.7550753e-01 3.1867771e+01 
8.1730384e-01 -7.0991859e-02 3.1946436e+01 
7.9312068e-01 -1.0878814e-01 3.1944775e+01 
-1.6795298e-01 8.5950077e-01 3.1802137e+01 
-3.1302080e-01 6.9441497e-01 3.1772400e+01 
-4.3638411e-01 9.6439916e-01 3.1763224e+01 
1.6479975e-01 6.0558873e-01 3.1760969e+01 
6.0697055e-01 9.7813889e-02 3.1808405e+01 
5.4931098e-01 2.3388216e-02 3.1804651e+01 
-1.7540912e-01 5.3220457e-01 3.1739035e+01 
2.4610992e-01 2.0510508e-01 3.1731684e+01 
1.0173019e+00 -1.9706497e-01 3.1825089e+01 
-2.6434717e-01 8.3322382e-01 3.1663279e+01 
-1.5295760e-01 6.3931149e-01 3.1654165e+01 
-4.0205413e-01 8.2095182e-01 3.1645237e+01 
-2.5609210e-03 7.5402808e-01 3.1635868e+01 
3.4107411e-01 3.9043885e-01 3.1625374e+01 
5.9977951e-03 3.7016478e-01 3.1603312e+01 
8.2840806e-01 -8.4623471e-02 3.1688721e+01 
8.0441165e-01 -1.2247683e-01 3.1687002e+01 
-3.2442692e-01 7.0735085e-01 3.1571350e+01 
-1.6835344e-01 8.5866392e-01 3.1503059e+01 
1.6718140e-01 6.0301745e-01 3.1503473e+01 
6.1787426e-01 8.4666900e-02 3.1550802e+01 
5.6064337e-01 1.0126042e-02 3.1546921e+01 
-1.7368458e-01 5.2759075e-01 3.1474390e+01 
-4.3638578e-01 9.6440917e-01 3.1457338e+01 
-3.8402361e-01 7.8970808e-01 3.1447849e+01 
1.0286624e+00 -2.1102282e-01 3.1567280e+01 
2.4510813e-01 2.0037749e-01 3.1465300e+01 
6.7380408e-04 7.5072157e-01 3.1379126e+01 
-2.9481173e-01 6.6820151e-01 3.1340282e+01 
3.4259436e-01 3.8890556e-01 3.1368879e+01 
8.3954269e-01 -9.8202273e-02 3.1431004e+01 
8.1570798e-01 -1.3614042e-01 3.1429228e+01 
6.0604676e-03 3.6603105e-01 3.1339676e+01 
1.6970101e-01 6.0054034e-01 3.1247646e+01 
-3.9906198e-01 8.1342906e-01 3.1225044e+01 
6.2883043e-01 7.1618959e-02 3.1293198e+01 
5.7193530e-01 -3.1550163e-03 3.1289186e+01 
-1.5920223e-01 8.5293394e-01 3.1207830e+01 
-1.7202079e-01 5.2298003e-01 3.1211626e+01 
1.0400603e+00 -2.2493106e-01 3.1309471e+01 
2.4310702e-01 1.9638310e-01 3.1202749e+01 
-4.3638679e-01 9.6441519e-01 3.1160116e+01 
4.0057087e-03 7.4755657e-01 3.1124029e+01 
3.4430879e-01 3.8738647e-01 3.1114042e+01 
8.5072029e-01 -1.1171627e-01 3.1173286e+01 
8.2702011e-01 -1.4976902e-01 3.1171452e+01 
6.1402251e-03 3.6187786e-01 3.1077883e+01 
-4.1159102e-01 8.3547109e-01 3.1012064e+01 
-1.5804160e-01 8.5181165e-01 3.0992868e+01 
1.7238145e-01 5.9815848e-01 3.0993431e+01 
-3.0303958e-01 6.7531574e-01 3.0963430e+01 
5.8319527e-01 -1.6447669e-02 3.1031452e+01 
5.9060538e-01 1.0340899e-01 3.1020269e+01 
-1.7041749e-01 5.1837015e-01 3.0950670e+01 
1.0515071e+00 -2.3877725e-01 3.1051661e+01 
2.4121177e-01 1.9237642e-01 3.0941992e+01 
-4.3638715e-01 9.6441728e-01 3.0871103e+01 
-1.3642900e-01 6.1320096e-01 3.0871494e+01 
7.4475883e-03 7.4454564e-01 3.0870512e+01 
-2.0606746e-01 7.9458815e-01 3.0858521e+01 
-3.8014922e-01 7.8004581e-01 3.0851561e+01 
3.7160489e-01 3.5244101e-01 3.0875673e+01 
8.6195362e-01 -1.2515347e-01 3.0915567e+01 
8.3835852e-01 -1.6335265e-01 3.0913675e+01 
6.2255859e-03 3.5771146e-01 3.0817867e+01 
-2.9564866e-01 6.6424721e-01 3.0761856e+01 
1.7522229e-01 5.9590006e-01 3.0740770e+01 
5.9443188e-01 -2.9744348e-02 3.0773716e+01 
5.9762329e-01 9.4483338e-02 3.0764774e+01 
-1.0431593e-01 7.2208285e-01 3.0687824e+01 
-1.6887452e-01 5.1375902e-01 3.0691463e+01 
1.0630146e+00 -2.5254890e-01 3.0793850e+01 
-3.8637251e-01 7.8865314e-01 3.0649347e+01 
-2.7039641e-01 9.0677065e-01 3.0648304e+01 
2.3940577e-01 1.8836655e-01 3.0682972e+01 
1.1011536e-02 7.4170125e-01 3.0618532e+01 
-4.3638682e-01 9.6441537e-01 3.0589878e+01 
3.7180606e-01 3.5350928e-01 3.0620760e+01 
-2.8780892e-01 6.5258235e-01 3.0560087e+01 
8.7325519e-01 -1.3850187e-01 3.0657845e+01 
8.4973365e-01 -1.7688133e-01 3.0655897e+01 
6.3104988e-03 3.5353416e-01 3.0559574e+01 
-3.4021688e-01 9.4038111e-01 3.0476517e+01 
1.7823431e-01 5.9377795e-01 3.0489624e+01 
-3.8156861e-01 7.7963823e-01 3.0446535e+01 
6.0480237e-01 8.5668936e-02 3.0509878e+01 
6.0565382e-01 -4.3037236e-02 3.0515980e+01 
-1.6739179e-01 5.0914496e-01 3.0433954e+01 
1.0745945e+00 -2.6623356e-01 3.0536036e+01 
-1.4495735e-01 8.4391189e-01 3.0400566e+01 
2.3768406e-01 1.8435502e-01 3.0425646e+01 
1.4709241e-02 7.3903543e-01 3.0368046e+01 
-2.8505585e-01 6.4707309e-01 3.0341827e+01 
3.5060415e-01 3.8318378e-01 3.0358757e+01 
-4.3638584e-01 9.6440947e-01 3.0316048e+01 
-2.9347393e-01 9.1815960e-01 3.0294416e+01 
8.8463765e-01 -1.5174943e-01 3.0400122e+01 
8.6115599e-01 -1.9034500e-01 3.0398117e+01 
6.3937418e-03 3.4934452e-01 3.0302952e+01 
-3.9649498e-01 8.0306274e-01 3.0250675e+01 
1.8142785e-01 5.9180439e-01 3.0239950e+01 
-1.3868994e-01 8.4040666e-01 3.0200827e+01 
6.1218923e-01 7.6946676e-02 3.0255558e+01 
6.1687016e-01 -5.6318272e-02 3.0258240e+01 
-1.6596922e-01 5.0452608e-01 3.0178093e+01 
1.0862582e+00 -2.7981877e-01 3.0278221e+01 
2.9483262e-01 1.4154084e-01 3.0156040e+01 
1.8552009e-02 7.3655975e-01 3.0119011e+01 
-3.2867530e-01 7.0104796e-01 3.0099722e+01 
-2.8901666e-01 9.1603684e-01 3.0094103e+01 
3.8644862e-01 3.3782718e-01 3.0119532e+01 
-1.1984464e-01 6.2218630e-01 3.0070471e+01 
-4.3638417e-01 9.6439958e-01 3.0049238e+01 
8.9611351e-01 -1.6488415e-01 3.0142397e+01 
8.7263620e-01 -2.0373358e-01 3.0140335e+01 
6.4741322e-03 3.4514111e-01 3.0047953e+01 
-1.3722329e-01 8.3975273e-01 2.9990862e+01 
1.8481299e-01 5.8999127e-01 2.9991707e+01 
5.9110242e-01 -4.6477638e-02 3.0016539e+01 
-2.6232868e-01 6.1488497e-01 2.9943718e+01 
6.1999792e-01 6.8135515e-02 3.0001768e+01 
4.5818605e-02 5.4713964e-01 2.9946186e+01 
-1.6460671e-01 4.9990082e-01 2.9923832e+01 
1.0980175e+00 -2.9329205e-01 3.0020405e+01 
-3.7045062e-01 7.5837892e-01 2.9875517e+01 
-1.1514808e-01 6.7748439e-01 2.9876307e+01 
-2.3055202e-01 8.8767445e-01 2.9864632e+01 
2.2550795e-02 7.3428547e-01 2.9871387e+01 
2.9725912e-01 1.3468158e-01 2.9900957e+01 
3.9107627e-01 3.3416039e-01 2.9869455e+01 
-4.3638188e-01 9.6438581e-01 2.9789103e+01 
9.0769535e-01 -1.7789395e-01 2.9884670e+01 
6.5505267e-03 3.4092253e-01 2.9794529e+01 
8.8418472e-01 -2.1703693e-01 2.9882553e+01 
-2.6810831e-01 6.2010157e-01 2.9763975e+01 
-8.8801734e-02 8.1112623e-01 2.9752378e+01 
1.8839946e-01 5.8835006e-01 2.9744852e+01 
5.9553814e-01 -5.5390228e-02 2.9761110e+01 
6.2944907e-01 5.8079895e-02 2.9748308e+01 
-2.4413976e-01 8.9449334e-01 2.9665258e+01 
-1.6330418e-01 4.9526739e-01 2.9671125e+01 
-1.3783747e-01 6.6326869e-01 2.9645895e+01 
-3.6316362e-01 7.4563652e-01 2.9640310e+01 
1.1098839e+00 -3.0664095e-01 2.9762589e+01 
2.6716223e-02 7.3222345e-01 2.9625135e+01 
1.8716747e-02 5.2134699e-01 2.9623039e+01 
2.9157516e-01 1.3320588e-01 2.9650049e+01 
3.9213362e-01 3.3570981e-01 2.9620150e+01 
-9.7778842e-02 8.1739742e-01 2.9560425e+01 
-4.3637893e-01 9.6436810e-01 2.9535318e+01 
-2.6981223e-01 6.1967027e-01 2.9529345e+01 
6.6218213e-03 3.3668736e-01 2.9542633e+01 
9.1939563e-01 -1.9076680e-01 2.9626942e+01 
8.9581215e-01 -2.3024486e-01 2.9624767e+01 
1.9219674e-01 5.8689189e-01 2.9499348e+01 
-2.4932493e-01 8.9737010e-01 2.9465612e+01 
-5.2692704e-02 6.5442151e-01 2.9468374e+01 
-3.6952710e-01 7.5356013e-01 2.9438637e+01 
5.9192973e-01 -5.9206329e-02 2.9507841e+01 
6.4783525e-01 3.9785232e-02 2.9494045e+01 
-1.6206157e-01 4.9062419e-01 2.9419924e+01 
3.1058609e-02 7.3038423e-01 2.9380217e+01 
1.1218693e+00 -3.1985295e-01 2.9504768e+01 
-1.0261102e-01 8.2116318e-01 2.9360779e+01 
2.9477683e-01 1.2589771e-01 2.9396656e+01 
3.6201218e-01 3.7896448e-01 2.9371801e+01 
-2.7710477e-01 6.2658697e-01 2.9327675e+01 
-4.3637532e-01 9.6434659e-01 2.9287577e+01 
6.6869357e-03 3.3243424e-01 2.9292221e+01 
-2.5445220e-01 9.0033108e-01 2.9265968e+01 
9.3122691e-01 -2.0349063e-01 2.9369211e+01 
9.0752918e-01 -2.4334718e-01 2.9366982e+01 
1.9621406e-01 5.8562756e-01 2.9255156e+01 
-3.7580317e-01 7.6159304e-01 2.9236963e+01 
5.9892088e-01 -6.9570661e-02 2.9252544e+01 
-1.6087881e-01 4.8596966e-01 2.9170181e+01 
-1.0738164e-01 8.2498449e-01 2.9161135e+01 
7.2000873e-01 -2.7780939e-02 2.9232283e+01 
3.5587985e-02 7.2877812e-01 2.9136591e+01 
-2.8437591e-01 6.3357544e-01 2.9126005e+01 
9.5042242e-03 4.8058045e-01 2.9132975e+01 
1.1339852e+00 -3.3291563e-01 2.9246948e+01 
2.4420181e-01 3.5365242e-01 2.9136215e+01 
2.9777786e-01 1.1874184e-01 2.9144186e+01 
-1.5697779e-01 6.5214425e-01 2.9085901e+01 
4.3396300e-01 2.8702679e-01 2.9118277e+01 
-2.5952405e-01 9.0337652e-01 2.9066324e+01 
-4.3637109e-01 9.6432137e-01 2.9045591e+01 
-3.8198256e-01 7.6974058e-01 2.9035288e+01 
6.7448393e-03 3.2816181e-01 2.9043243e+01 
9.4320166e-01 -2.1605337e-01 2.9111479e+01 
9.1934633e-01 -2.5633365e-01 2.9109194e+01 
2.0046045e-01 5.8456755e-01 2.9012238e+01 
-1.1209061e-01 8.2886165e-01 2.8961489e+01 
6.0550374e-01 -7.9614781e-02 2.8997587e+01 
-2.9161859e-01 6.4064229e-01 2.8924335e+01 
-1.5975583e-01 4.8130226e-01 2.8921858e+01 
6.8768531e-01 1.4865375e-03 2.8983368e+01 
4.0314123e-02 7.2741503e-01 2.8894220e+01 
1.4542961e-02 4.8002476e-01 2.8890383e+01 
2.4836069e-01 3.5355762e-01 2.8893755e+01 
-2.6455039e-01 9.0650654e-01 2.8866678e+01 
2.9992145e-01 1.1217260e-01 2.8892496e+01 
1.1462431e+00 -3.4581649e-01 2.8989126e+01 
-3.8805276e-01 7.7800733e-01 2.8833612e+01 
4.4201359e-01 2.8076687e-01 2.8863510e+01 
-4.3636626e-01 9.6429241e-01 2.8809088e+01 
6.7945248e-03 3.2386866e-01 2.8795660e+01 
-1.1671489e-01 8.3278263e-01 2.8761831e+01 
2.0494469e-01 5.8372205e-01 2.8770555e+01 
9.5533228e-01 -2.2844295e-01 2.8853746e+01 
9.3127435e-01 -2.6919392e-01 2.8851404e+01 
-2.9882938e-01 6.4779842e-01 2.8722668e+01 
6.1026514e-01 -8.8460363e-02 2.8742434e+01 
-2.6963809e-01 9.0976697e-01 2.8666994e+01 
-1.5869261e-01 4.7662041e-01 2.8674904e+01 
-1.6119909e-01 6.5161824e-01 2.8658226e+01 
7.0574391e-01 -1.5262775e-02 2.8720919e+01 
4.5246538e-02 7.2630471e-01 2.8653070e+01 
1.9785602e-02 4.7967181e-01 2.8648998e+01 
-3.9398628e-01 7.8637689e-01 2.8631945e+01 
2.5276628e-01 3.5363719e-01 2.8652504e+01 
2.9865214e-01 1.0788708e-01 2.8641386e+01 
1.1586547e+00 -3.5854307e-01 2.8731302e+01 
-4.3636081e-01 9.6425980e-01 2.8577812e+01 
-1.2086377e-01 8.3653283e-01 2.8562000e+01 
4.5473221e-01 2.6949114e-01 2.8578180e+01 
6.8350192e-03 3.1955349e-01 2.8549427e+01 
-3.0606303e-01 6.5513146e-01 2.8521044e+01 
2.0967540e-01 5.8310103e-01 2.8530075e+01 
9.6763122e-01 -2.4064730e-01 2.8596010e+01 
9.4332385e-01 -2.8191775e-01 2.8593613e+01 
-2.7338588e-01 9.1248220e-01 2.8464609e+01 
-3.9955908e-01 7.9448205e-01 2.8430403e+01 
-1.5768911e-01 4.7192264e-01 2.8429281e+01 
6.0729790e-01 -9.2472143e-02 2.8484108e+01 
5.0394535e-02 7.2545654e-01 2.8413103e+01 
2.5241202e-02 4.7953191e-01 2.8408785e+01 
2.5742674e-01 3.5390168e-01 2.8412428e+01 
7.5671154e-01 -6.1986003e-02 2.8459404e+01 
3.7746206e-01 3.7708190e-01 2.8405508e+01 
-1.2346066e-01 8.3954054e-01 2.8362133e+01 
2.8443864e-01 1.1231830e-01 2.8392788e+01 
-4.3635479e-01 9.6422374e-01 2.8351524e+01 
1.1712317e+00 -3.7108287e-01 2.8473478e+01 
-3.1429103e-01 6.6399443e-01 2.8320158e+01 
6.8653817e-03 3.1521499e-01 2.8304501e+01 
2.1466103e-01 5.8271402e-01 2.8290756e+01 
-2.2595984e-01 7.7867830e-01 2.8234623e+01 
9.8011100e-01 -2.5265431e-01 2.8338274e+01 
9.5550549e-01 -2.9449472e-01 2.8335821e+01 
-4.0521517e-01 8.0311656e-01 2.8224056e+01 
-2.1378964e-01 8.8568413e-01 2.8206741e+01 
5.4646707e-01 1.5870762e-01 2.8252958e+01 
-1.5674531e-01 4.6720749e-01 2.8184944e+01 
-1.1072535e-01 6.1803877e-01 2.8173477e+01 
5.5767205e-02 7.2487992e-01 2.8174284e+01 
3.0918635e-02 4.7961518e-01 2.8169706e+01 
2.2558884e-01 1.4804319e-01 2.8178129e+01 
5.7085639e-01 -7.5927295e-02 2.8202877e+01 
3.8203099e-01 3.7706643e-01 2.8166885e+01 
-4.3634814e-01 9.6418411e-01 2.8129993e+01 
7.6935780e-01 -7.2919630e-02 2.8201775e+01 
-3.1792790e-01 6.6670406e-01 2.8118160e+01 
1.1839858e+00 -3.8342339e-01 2.8215652e+01 
-4.1088885e-01 8.1265193e-01 2.8052032e+01 
-1.0747202e-01 8.3364391e-01 2.8049753e+01 
6.8847029e-03 3.1085175e-01 2.8060839e+01 
2.1990991e-01 5.8257061e-01 2.8052568e+01 
-2.7686629e-01 9.1647023e-01 2.8021421e+01 
9.9278396e-01 -2.6445195e-01 2.8080536e+01 
9.6783000e-01 -3.0691451e-01 2.8078030e+01 
4.8500910e-01 2.4378875e-01 2.7975101e+01 
-1.5586123e-01 4.6247351e-01 2.7941853e+01 
6.1373442e-02 7.2458380e-01 2.7936577e+01 
3.5083470e-01 5.9701540e-02 2.7969784e+01 
6.6339689e-01 3.2051861e-02 2.7983854e+01 
-4.3634096e-01 9.6414113e-01 2.7913004e+01 
-3.5021856e-01 7.1050483e-01 2.7904175e+01 
-1.8026489e-01 8.7242121e-01 2.7872971e+01 
6.1461478e-01 -1.0933902e-01 2.7930138e+01 
-6.8689533e-02 6.9687319e-01 2.7854906e+01 
1.1969285e+00 -3.9555219e-01 2.7957827e+01 
6.8476066e-02 4.8411456e-01 2.7831699e+01 
-2.4929002e-01 7.2966504e-01 2.7757946e+01 
-4.3633321e-01 9.6409476e-01 2.7700001e+01 
-2.6366946e-01 9.1232789e-01 2.7700001e+01 
-3.9619577e-01 7.8146338e-01 2.7700001e+01 
-9.7426333e-02 8.3208579e-01 2.7700001e+01 
-2.8773412e-01 6.2058139e-01 2.7700001e+01 
6.7220680e-02 7.2457713e-01 2.7700001e+01 
-1.5503694e-01 4.5771992e-01 2.7700001e+01 
2.5166225e-01 5.5517209e-01 2.7700001e+01 
3.2605879e-02 2.8292578e-01 2.7700001e+01 
4.1320616e-01 3.4919643e-01 2.7700001e+01 
2.4685934e-01 1.2396254e-01 2.7700001e+01 
5.7927895e-01 1.3152829e-01 2.7700001e+01 
4.7869316e-01 -2.8613154e-02 2.7700001e+01 
-9.4536625e-02 6.1507195e-01 2.7642519e+01 
7.7335912e-01 -7.3581196e-02 2.7700001e+01 
7.1578079e-01 -1.7703478e-01 2.7700001e+01 
9.8201627e-01 -2.5730991e-01 2.7700001e+01 
9.5642781e-01 -3.1083125e-01 2.7700001e+01 
1.2100714e+00 -4.0745673e-01 2.7700001e+01 
-1.7925726e-01 8.7519556e-01 2.7527029e+01 
-3.4474269e-01 6.9830453e-01 2.7525053e+01 
-4.3632445e-01 9.6404231e-01 2.7479263e+01 
7.3318176e-02 7.2486287e-01 2.7464283e+01 
-1.5424158e-01 4.5274705e-01 2.7449400e+01 
-2.4767683e-01 7.3109686e-01 2.7415033e+01 
2.9232356e-01 5.1561773e-01 2.7406458e+01 
5.0447243e-01 2.3471968e-01 2.7424900e+01 
3.6597666e-01 3.8608614e-02 2.7425039e+01 
-2.6699722e-01 9.1637170e-01 2.7362268e+01 
-4.0678853e-01 7.9758716e-01 2.7362076e+01 
8.4533192e-02 2.3560357e-01 2.7385023e+01 
6.8343049e-01 2.0371536e-02 2.7416147e+01 
-9.2811428e-02 8.3421683e-01 2.7355268e+01 
6.1907274e-01 -1.2331799e-01 2.7409779e+01 
-3.0373785e-01 6.3753265e-01 2.7337450e+01 
1.2234216e+00 -4.1913471e-01 2.7442139e+01 
9.5816058e-01 -2.3712990e-01 2.7380461e+01 
9.2303210e-01 -3.0152801e-01 2.7380213e+01 
-9.4648570e-02 6.3727981e-01 2.7262688e+01 
-4.3631440e-01 9.6398234e-01 2.7245499e+01 
7.9700068e-02 7.2542667e-01 2.7227505e+01 
4.0729597e-01 3.7385234e-01 2.7222588e+01 
-3.0083191e-01 6.3145465e-01 2.7182810e+01 
-1.5346687e-01 4.4745597e-01 2.7185478e+01 
-2.6534158e-01 9.1728228e-01 2.7158012e+01 
-4.0649849e-01 7.9478836e-01 2.7156149e+01 
2.7000928e-01 9.8066054e-02 2.7191708e+01 
-6.9240727e-02 8.2514101e-01 2.7104301e+01 
8.2222778e-01 -1.1400059e-01 2.7171177e+01 
2.4631713e-01 5.8154708e-01 2.7105949e+01 
7.5433338e-01 -2.1158068e-01 2.7165184e+01 
-1.5519784e-01 7.1106237e-01 2.7066517e+01 
1.2369574e+00 -4.3061531e-01 2.7184275e+01 
4.8611411e-01 -4.6227299e-02 2.7088245e+01 
-4.3728366e-02 5.8484417e-01 2.7039148e+01 
-2.2409649e-01 5.2851874e-01 2.7030640e+01 
3.5414744e-02 2.6822072e-01 2.7043535e+01 
5.7836765e-01 1.5120721e-01 2.7066143e+01 
-4.3630308e-01 9.6391457e-01 2.6997551e+01 
-2.1856719e-01 8.9827973e-01 2.6997572e+01 
-3.3608240e-01 6.7921680e-01 2.6985580e+01 
3.9007083e-01 4.0526408e-01 2.7009050e+01 
8.6349241e-02 7.2624916e-01 2.6989632e+01 
1.3612953e-01 3.9439487e-01 2.6989027e+01 
1.0455128e+00 -3.0941224e-01 2.7049484e+01 
1.0186521e+00 -3.5490650e-01 2.7046761e+01 
2.4753499e-01 1.0882939e-01 2.6959589e+01 
-1.5271708e-01 4.4181287e-01 2.6907080e+01 
-6.3723534e-02 8.2559633e-01 2.6899059e+01 
-2.0059563e-01 7.6965439e-01 2.6869707e+01 
2.5428215e-01 5.8115256e-01 2.6867561e+01 
8.3598310e-01 -1.2369138e-01 2.6913500e+01 
7.6626021e-01 -2.2397882e-01 2.6907387e+01 
-3.8846883e-01 7.5839084e-01 2.6810238e+01 
-2.8109601e-01 5.9910548e-01 2.6811035e+01 
1.2506524e+00 -4.4193769e-01 2.6926403e+01 
4.2173904e-01 3.7175971e-01 2.6787823e+01 
9.3248144e-02 7.2731042e-01 2.6750628e+01 
-1.3560270e-01 8.6452627e-01 2.6742380e+01 
4.7629628e-02 2.5269094e-01 2.6757160e+01 
-4.3629044e-01 9.6383882e-01 2.6734123e+01 
6.8303019e-02 4.7739443e-01 2.6744226e+01 
1.0591378e+00 -3.2019985e-01 2.6791698e+01 
1.0317031e+00 -3.6656666e-01 2.6788919e+01 
4.1388008e-01 -7.2568208e-03 2.6717297e+01 
-4.3014732e-01 8.4382522e-01 2.6634890e+01 
-3.3670643e-01 6.7575699e-01 2.6635691e+01 
-1.4212997e-01 5.8797395e-01 2.6621929e+01 
2.6252925e-01 5.8093458e-01 2.6628025e+01 
-1.5199706e-01 4.3577904e-01 2.6612925e+01 
-2.3908597e-01 9.1142964e-01 2.6577852e+01 
8.4988582e-01 -1.3321151e-01 2.6655819e+01 
6.2821072e-01 1.0497777e-01 2.6625795e+01 
7.7825135e-01 -2.3631716e-01 2.6649584e+01 
-5.6118727e-02 8.2761008e-01 2.6561987e+01 
1.2644798e+00 -4.5314100e-01 2.6668528e+01 
-2.0068657e-01 7.6573956e-01 2.6519648e+01 
4.0813538e-01 4.0143439e-01 2.6530371e+01 
1.0037878e-01 7.2859001e-01 2.6510458e+01 
7.5183474e-02 4.7683671e-01 2.6503824e+01 
-3.8913903e-01 7.5537771e-01 2.6460344e+01 
-2.8200060e-01 5.9499794e-01 2.6461151e+01 
-4.3627644e-01 9.6375495e-01 2.6453751e+01 
6.0993798e-02 2.3592438e-01 2.6454300e+01 
1.0728794e+00 -3.3087367e-01 2.6533909e+01 
1.0448500e+00 -3.7814713e-01 2.6531076e+01 
-1.7637388e-01 8.8751704e-01 2.6383129e+01 
-2.1713175e-02 6.1773288e-01 2.6381618e+01 
-1.4908947e-03 8.0036515e-01 2.6376062e+01 
2.7103883e-01 5.8086950e-01 2.6387304e+01 
8.6390126e-01 -1.4259590e-01 2.6398130e+01 
-1.6257787e-01 7.0112097e-01 2.6316122e+01 
-1.5131217e-01 4.2930976e-01 2.6301565e+01 
-4.3066165e-01 8.4134126e-01 2.6284990e+01 
-3.3740425e-01 6.7224771e-01 2.6285803e+01 
8.3127439e-01 -2.7272436e-01 2.6367617e+01 
1.2784131e+00 -4.6426442e-01 2.6410648e+01 
1.0772267e-01 7.3006701e-01 2.6269083e+01 
9.2424065e-02 4.0873128e-01 2.6264084e+01 
4.4383553e-01 3.6470234e-01 2.6264744e+01 
-2.7162907e-01 9.2840368e-01 2.6213799e+01 
-9.1528229e-02 8.5218924e-01 2.6206732e+01 
4.8955384e-01 -6.5984719e-02 2.6250231e+01 
1.0867071e+00 -3.4146935e-01 2.6276114e+01 
1.0580715e+00 -3.8967755e-01 2.6273228e+01 
-2.2919399e-01 7.6035643e-01 2.6160711e+01 
-4.3626115e-01 9.6366328e-01 2.6154783e+01 
-2.0737978e-02 6.4843839e-01 2.6145620e+01 
2.7979061e-01 5.8093315e-01 2.6145361e+01 
2.1671328e-01 3.1722078e-01 2.6145117e+01 
7.5671613e-02 2.1777661e-01 2.6133421e+01 
-3.8989121e-01 7.5233322e-01 2.6110451e+01 
-2.8297931e-01 5.9081715e-01 2.6111267e+01 
4.2930982e-01 1.3861263e-01 2.6113464e+01 
8.4935373e-01 -2.8719345e-01 2.6156519e+01 
8.7799472e-01 -1.5187949e-01 2.6140440e+01 
6.4920616e-01 9.8525979e-02 2.6099232e+01 
-1.8578663e-01 8.9601976e-01 2.6037403e+01 
-8.5764173e-03 8.1242776e-01 2.6030334e+01 
4.2728239e-01 3.9789161e-01 2.6046898e+01 
1.1526079e-01 7.3171985e-01 2.6026468e+01 
1.2924258e+00 -4.7534713e-01 2.6152765e+01 
8.9513361e-02 4.7609845e-01 2.6019447e+01 
-1.6784106e-01 7.0957190e-01 2.5970592e+01 
-1.5066841e-01 4.2235321e-01 2.5971382e+01 
-4.3124217e-01 8.3885533e-01 2.5935093e+01 
-3.3817402e-01 6.6868830e-01 2.5935915e+01 
1.1005907e+00 -3.5202265e-01 2.6018314e+01 
1.0713462e+00 -4.0118793e-01 2.6015373e+01 
2.8876385e-01 5.8110052e-01 2.5902157e+01 
-2.7830809e-01 9.3411702e-01 2.5877064e+01 
-1.0001899e-01 8.6220115e-01 2.5861006e+01 
2.7105975e-01 2.2323692e-01 2.5865555e+01 
-4.3624464e-01 9.6356434e-01 2.5835350e+01 
8.9213490e-01 -1.6110024e-01 2.5882744e+01 
8.1448412e-01 -2.7315322e-01 2.5876150e+01 
-1.6581504e-01 7.1300554e-01 2.5783684e+01 
1.2297354e-01 7.3352635e-01 2.5782572e+01 
9.1857478e-02 1.9807923e-01 2.5792797e+01 
9.6916616e-02 4.7587264e-01 2.5775398e+01 
-3.9072260e-01 7.4925959e-01 2.5760557e+01 
-2.8402740e-01 5.8656186e-01 2.5761385e+01 
1.3064911e+00 -4.8642832e-01 2.5894878e+01 
4.6366635e-01 3.6039087e-01 2.5778534e+01 
-1.9530901e-01 9.0438288e-01 2.5691673e+01 
-3.2688275e-01 9.5311737e-01 2.5682167e+01 
5.1140231e-01 -9.0978369e-02 2.5734697e+01 
-1.5842753e-02 8.2425350e-01 2.5684608e+01 
-2.5731909e-01 8.1392759e-01 2.5657417e+01 
1.1144999e+00 -3.6256930e-01 2.5760511e+01 
1.0846525e+00 -4.1270837e-01 2.5757517e+01 
2.9793707e-01 5.8134574e-01 2.5657654e+01 
-4.2276010e-01 8.1128871e-01 2.5617182e+01 
-1.5007241e-01 4.1484904e-01 2.5620539e+01 
6.7298967e-01 8.6406760e-02 2.5656591e+01 
-1.3830587e-01 6.3763213e-01 2.5596842e+01 
-3.3901390e-01 6.6507798e-01 2.5586027e+01 
8.6569726e-01 -3.0677098e-01 2.5645704e+01 
9.0627831e-01 -1.7028388e-01 2.5625042e+01 
1.2464868e-01 4.2990488e-01 2.5548470e+01 
4.4732559e-01 3.9441061e-01 2.5558329e+01 
1.3084073e-01 7.3546368e-01 2.5537355e+01 
-2.9240540e-01 9.4239253e-01 2.5522419e+01 
-1.0860350e-01 8.7195939e-01 2.5515211e+01 
1.3205827e+00 -4.9754715e-01 2.5636986e+01 
-4.3622711e-01 9.6345913e-01 2.5493315e+01 
3.3684921e-02 6.7089283e-01 2.5447630e+01 
4.8708490e-01 6.0164575e-02 2.5479635e+01 
-3.9163044e-01 7.4615908e-01 2.5410664e+01 
-2.8514028e-01 5.8223075e-01 2.5411503e+01 
1.0978202e-01 1.7663378e-01 2.5430470e+01 
3.0728817e-01 5.8164227e-01 2.5411814e+01 
-1.5764359e-01 7.2405994e-01 2.5395899e+01 
1.1284045e+00 -3.7314516e-01 2.5502703e+01 
1.0979689e+00 -4.2426926e-01 2.5499655e+01 
-9.7625308e-02 4.7964746e-01 2.5390701e+01 
-3.4130183e-01 9.5973837e-01 2.5371740e+01 
-2.0625919e-01 9.1303748e-01 2.5344992e+01 
-1.9163402e-02 8.3365595e-01 2.5339607e+01 
-2.1934478e-01 8.1873488e-01 2.5313488e+01 
1.2966751e-01 5.2273071e-01 2.5314676e+01 
9.2040020e-01 -1.7947446e-01 2.5367338e+01 
1.3884151e-01 7.3750818e-01 2.5290779e+01 
8.3872229e-01 -2.9775149e-01 2.5360508e+01 
-4.2385453e-01 8.0919540e-01 2.5265425e+01 
4.8428404e-01 3.5594565e-01 2.5287054e+01 
-2.5432475e-02 6.6181970e-01 2.5256655e+01 
1.3346740e+00 -5.0874281e-01 2.5379089e+01 
-1.4953135e-01 4.0672645e-01 2.5246956e+01 
-3.3992207e-01 6.6141605e-01 2.5236139e+01 
5.3315711e-01 -1.1618143e-01 2.5219145e+01 
4.6722818e-02 8.0228227e-01 2.5160946e+01 
-1.3148317e-01 8.8733512e-01 2.5155209e+01 
3.1679428e-01 5.8196253e-01 2.5164593e+01 
2.4960044e-01 3.0993918e-01 2.5163851e+01 
1.1422745e+00 -3.8378605e-01 2.5244890e+01 
1.1112736e+00 -4.3590119e-01 2.5241791e+01 
-4.3620890e-01 9.6334964e-01 2.5126238e+01 
6.9687933e-01 7.6411784e-02 2.5164145e+01 
4.6682912e-01 1.2332336e-01 2.5131161e+01 
-1.5252009e-01 7.0514834e-01 2.5088938e+01 
2.5932666e-02 4.8821580e-01 2.5071918e+01 
-3.9261198e-01 7.4303389e-01 2.5060772e+01 
-2.8631356e-01 5.7782245e-01 2.5061621e+01 
8.9030993e-01 -3.3121610e-01 2.5130041e+01 
4.6806583e-01 3.9075050e-01 2.5064344e+01 
1.4695430e-01 7.3963547e-01 2.5042803e+01 
9.3446350e-01 -1.8870376e-01 2.5109627e+01 
1.2971939e-01 1.5320358e-01 2.5044216e+01 
-3.4843694e-02 8.4887153e-01 2.4985176e+01 
1.3487382e+00 -5.2005452e-01 2.5121189e+01 
-2.1857768e-01 9.2204487e-01 2.4979441e+01 
-4.2504504e-01 8.0705172e-01 2.4903091e+01 
3.2643169e-01 5.8227789e-01 2.4915953e+01 
-3.4089670e-01 6.5770185e-01 2.4886251e+01 
1.1560798e+00 -3.9452788e-01 2.4987074e+01 
1.1245449e+00 -4.4763494e-01 2.4983921e+01 
-2.8251103e-01 9.4489884e-01 2.4856009e+01 
-2.7490309e-01 7.7744645e-01 2.4855497e+01 
-1.4905299e-01 3.9790201e-01 2.4848263e+01 
-1.6041538e-01 6.7460060e-01 2.4827200e+01 
-1.2010363e-01 8.8845259e-01 2.4809408e+01 
1.5515682e-01 7.4182034e-01 2.4793385e+01 
1.2754457e-01 4.7536302e-01 2.4785896e+01 
9.4843447e-01 -1.9800664e-01 2.4851913e+01 
8.6289597e-01 -3.2256979e-01 2.4844847e+01 
5.0548148e-01 3.5111398e-01 2.4789984e+01 
-4.3619052e-01 9.6323878e-01 2.4731316e+01 
1.3627490e+00 -5.3152144e-01 2.4863287e+01 
-3.9366445e-01 7.3988622e-01 2.4710878e+01 
-2.8754294e-01 5.7333553e-01 2.4711739e+01 
-1.1402205e-01 5.0520664e-01 2.4701906e+01 
4.3320306e-02 6.6644222e-01 2.4676466e+01 
3.3617583e-01 5.8255899e-01 2.4665848e+01 
2.6651463e-01 3.0601683e-01 2.4665064e+01 
-2.2879772e-02 8.5051239e-01 2.4639374e+01 
-2.0774060e-01 9.2257261e-01 2.4633642e+01 
-1.5891434e-01 6.8672967e-01 2.4631214e+01 
1.1697904e+00 -4.0540656e-01 2.4729254e+01 
7.2148091e-01 6.5562256e-02 2.4666039e+01 
1.1377605e+00 -4.5950145e-01 2.4726048e+01 
1.5199605e-01 1.2750229e-01 2.4631496e+01 
4.8610348e-01 1.1481635e-01 2.4631742e+01 
-2.4751604e-01 5.1336414e-01 2.4575996e+01 
6.3526124e-02 3.4479991e-01 2.4574110e+01 
-4.3418509e-01 8.2895190e-01 2.4535500e+01 
4.8928919e-01 3.8665271e-01 2.4564617e+01 
-3.4193608e-01 6.5393472e-01 2.4536366e+01 
1.6342594e-01 7.4403667e-01 2.4542480e+01 
-2.4523810e-01 7.7817446e-01 2.4526678e+01 
9.6227950e-01 -2.0741798e-01 2.4594196e+01 
-5.9486885e-02 5.2679992e-01 2.4500977e+01 
-2.7599669e-01 9.4620019e-01 2.4484343e+01 
9.1723830e-01 -3.5846764e-01 2.4562807e+01 
-4.1606661e-02 6.9522703e-01 2.4470106e+01 
1.3766795e+00 -5.4318279e-01 2.4605379e+01 
-1.0863136e-01 8.8968474e-01 2.4463606e+01 
-1.4864548e-01 3.8827658e-01 2.4421755e+01 
3.4600121e-01 5.8277494e-01 2.4414238e+01 
5.6558031e-01 -1.5462944e-01 2.4445782e+01 
-3.9478514e-01 7.3671842e-01 2.4360987e+01 
-2.8882435e-01 5.6876850e-01 2.4361856e+01 
1.1833764e+00 -4.1645804e-01 2.4471432e+01 
1.1508987e+00 -4.7153181e-01 2.4468172e+01 
3.2361761e-01 2.0876677e-01 2.4371609e+01 
-4.3617269e-01 9.6313089e-01 2.4305307e+01 
9.3357757e-02 4.3855366e-01 2.4307116e+01 
-1.0856807e-02 8.5222811e-01 2.4293570e+01 
-1.9679391e-01 9.2325199e-01 2.4287842e+01 
1.7173770e-01 7.4625748e-01 2.4290047e+01 
9.3549335e-01 -3.7310633e-01 2.4351677e+01 
5.2703583e-01 3.4562436e-01 2.4286982e+01 
9.7596508e-01 -2.1697260e-01 2.4336475e+01 
-1.8163908e-01 6.1090010e-01 2.4232897e+01 
1.3905033e+00 -5.5507779e-01 2.4347469e+01 
-4.3506420e-01 8.2650179e-01 2.4185602e+01 
-3.4306940e-01 6.5016359e-01 2.4186478e+01 
-2.4845314e-01 5.0663304e-01 2.4189276e+01 
1.7242669e-01 1.0246351e-01 2.4189453e+01 
-2.3345521e-01 7.9644889e-01 2.4145380e+01 
3.5588127e-01 5.8289391e-01 2.4161077e+01 
-9.7102925e-02 8.9097506e-01 2.4117804e+01 
-2.8618124e-01 9.5247030e-01 2.4112078e+01 
7.4660242e-01 5.3486150e-02 2.4161930e+01 
1.1968080e+00 -4.2771831e-01 2.4213604e+01 
1.1639371e+00 -4.8375735e-01 2.4210293e+01 
-4.4372863e-01 8.6927235e-01 2.4086615e+01 
-6.9847234e-02 5.0936329e-01 2.4088274e+01 
4.2755231e-01 9.8032072e-02 2.4083548e+01 
5.1076472e-01 3.8183898e-01 2.4058802e+01 
1.8006720e-01 7.4845469e-01 2.4036039e+01 
2.3090947e-01 3.8083962e-01 2.4035076e+01 
-3.9597130e-01 7.3353273e-01 2.4011095e+01 
1.0208715e+00 -2.5947654e-01 2.4097763e+01 
-2.9015371e-01 5.6411982e-01 2.4011974e+01 
8.9877617e-01 -3.6058235e-01 2.4071331e+01 
-1.4831699e-01 3.7773156e-01 2.3964315e+01 
1.4041938e+00 -5.6724554e-01 2.4089556e+01 
1.1777524e-03 8.5395509e-01 2.3947765e+01 
-1.8576664e-01 9.2402911e-01 2.3942041e+01 
1.9993514e-02 6.0524905e-01 2.3916544e+01 
-1.5107048e-01 6.5433919e-01 2.3895418e+01 
3.6578834e-01 5.8288282e-01 2.3906321e+01 
5.5878145e-01 4.2177007e-02 2.3917683e+01 
-4.3615657e-01 9.6303278e-01 2.3844452e+01 
1.2100552e+00 -4.3922335e-01 2.3955776e+01 
-2.0636275e-01 8.4623170e-01 2.3840210e+01 
1.1768535e+00 -4.9620944e-01 2.3952410e+01 
-3.4421411e-01 6.4625907e-01 2.3836592e+01 
-2.3394276e-01 4.7898826e-01 2.3837477e+01 
6.0179651e-01 -1.9231014e-01 2.3846535e+01 
1.8838860e-01 7.5059909e-01 2.3780413e+01 
-8.5557222e-02 8.9226520e-01 2.3772001e+01 
-2.7571943e-01 9.5241851e-01 2.3766279e+01 
2.2788553e-01 3.5390794e-01 2.3770271e+01 
5.4870635e-01 3.3918405e-01 2.3777699e+01 
1.0027245e+00 -2.3665108e-01 2.3821022e+01 
-2.0844403e-01 4.4314638e-01 2.3734058e+01 
9.1057336e-01 -3.7355119e-01 2.3813488e+01 
-9.3247399e-02 5.9253353e-01 2.3731306e+01 
-2.9838687e-01 7.0972192e-01 2.3707844e+01 
1.4177243e+00 -5.7972527e-01 2.3831642e+01 
6.3218981e-02 4.1443121e-01 2.3686550e+01 
1.6249090e-01 9.7729638e-02 2.3693274e+01 
-3.9722016e-01 7.3033136e-01 2.3661201e+01 
-2.9152718e-01 5.5938798e-01 2.3662092e+01 
-2.9525042e-01 8.0875707e-01 2.3651398e+01 
3.7569368e-01 5.8270705e-01 2.3649923e+01 
-6.9468550e-02 7.5398582e-01 2.3629875e+01 
3.9623889e-01 6.9858223e-02 2.3641613e+01 
1.3174531e-02 8.5562801e-01 2.3601961e+01 
-1.7464200e-01 9.2483169e-01 2.3596239e+01 
-3.1725270e-01 9.6531439e-01 2.3594360e+01 
7.7169997e-01 4.0270124e-02 2.3649773e+01 
-1.4570718e-01 4.8425460e-01 2.3595953e+01 
1.2230884e+00 -4.5100921e-01 2.3697945e+01 
1.1896259e+00 -5.0891972e-01 2.3694527e+01 
-4.2992577e-01 7.9870135e-01 2.3529604e+01 
-1.9997215e-01 6.2317657e-01 2.3523697e+01 
-6.3139990e-02 5.8372766e-01 2.3520248e+01 
1.9667500e-01 7.5266039e-01 2.3523121e+01 
1.6624303e-01 4.7443873e-01 2.3516146e+01 
5.5914897e-01 3.3611736e-01 2.3519278e+01 
-3.4542122e-01 6.4230412e-01 2.3486704e+01 
1.0157791e+00 -2.4689476e-01 2.3563292e+01 
9.2240751e-01 -3.8678396e-01 2.3555637e+01 
-1.4807540e-01 3.6612409e-01 2.3472351e+01 
1.4310681e+00 -5.9255612e-01 2.3573725e+01 
-7.4035265e-02 8.9349538e-01 2.3426199e+01 
-2.6517528e-01 9.5250219e-01 2.3420479e+01 
-1.3454060e-01 5.1806498e-01 2.3422226e+01 
8.1647541e-03 5.9235734e-01 2.3400799e+01 
3.8456711e-01 5.8344334e-01 2.3392609e+01 
-1.5451930e-01 6.6814625e-01 2.3373964e+01 
-4.3614382e-01 9.6295410e-01 2.3344353e+01 
1.2358807e+00 -4.6311447e-01 2.3440117e+01 
1.2022352e+00 -5.2192134e-01 2.3436646e+01 
-3.9852902e-01 7.2711676e-01 2.3311310e+01 
-2.9294094e-01 5.5457139e-01 2.3312212e+01 
5.7172388e-01 1.9018061e-02 2.3315908e+01 
2.0485058e-01 7.5459611e-01 2.3265636e+01 
2.5082180e-02 8.5717988e-01 2.3256155e+01 
-1.6360164e-01 9.2564642e-01 2.3250439e+01 
-7.1642073e-03 4.8468655e-01 2.3249645e+01 
3.1863886e-01 3.1374043e-01 2.3252092e+01 
6.2756938e-01 2.4583663e-01 2.3266068e+01 
-2.0980699e-01 4.3305919e-01 2.3226789e+01 
-1.4077917e-01 5.5993181e-01 2.3222059e+01 
9.5778292e-01 -1.7893748e-01 2.3289881e+01 
9.3385100e-01 -4.0008569e-01 2.3297794e+01 
1.7500494e-01 7.7011727e-02 2.3225325e+01 
1.4441985e+00 -6.0577703e-01 2.3315813e+01 
-3.4668890e-01 6.3829809e-01 2.3136818e+01 
-2.3713215e-01 4.6749803e-01 2.3137724e+01 
-4.3152186e-01 7.9637957e-01 2.3124594e+01 
6.1182618e-01 -2.1638471e-01 2.3178371e+01 
3.9287126e-01 5.8445048e-01 2.3135420e+01 
-6.3495096e-03 6.7578328e-01 2.3107079e+01 
-2.5457039e-01 9.5267439e-01 2.3074680e+01 
-2.5628528e-01 7.9227519e-01 2.3068398e+01 
1.2484025e+00 -4.7557521e-01 2.3182295e+01 
-4.5586441e-02 8.8860887e-01 2.3067474e+01 
1.2146595e+00 -5.3524601e-01 2.3178772e+01 
-1.6895874e-01 6.0108680e-01 2.3032368e+01 
2.1286802e-01 7.5637209e-01 2.3008587e+01 
1.8173611e-01 4.7699839e-01 2.3002199e+01 
-1.4793548e-01 3.5433850e-01 2.2984871e+01 
9.8626524e-01 -4.3398294e-01 2.3067280e+01 
5.7552999e-01 3.3521768e-01 2.3004547e+01 
1.0408664e+00 -2.6814613e-01 2.3047848e+01 
-3.9989513e-01 7.2389120e-01 2.2961418e+01 
-2.9439127e-01 5.4966831e-01 2.2962330e+01 
-1.0743711e-01 7.4133164e-01 2.2961330e+01 
1.4570885e+00 -6.1942685e-01 2.3057913e+01 
3.6847550e-02 8.5854203e-01 2.2910349e+01 
-1.5253583e-01 9.2636704e-01 2.2904636e+01 
-4.3613726e-01 9.6291220e-01 2.2869068e+01 
4.0097639e-01 5.8522815e-01 2.2878660e+01 
-1.6183111e-01 6.4027888e-01 2.2840807e+01 
8.3154505e-01 -1.3106268e-02 2.2879782e+01 
1.2606207e+00 -4.8842454e-01 2.2924484e+01 
1.2268718e+00 -5.4892385e-01 2.2920908e+01 
-1.8446313e-01 7.7629572e-01 2.2790325e+01 
-4.3907222e-01 8.1690568e-01 2.2786013e+01 
-3.4801528e-01 6.3424057e-01 2.2786930e+01 
-2.5268874e-01 4.8136452e-01 2.2775160e+01 
-3.0062303e-01 8.8309532e-01 2.2767788e+01 
7.1154088e-02 7.2758186e-01 2.2752258e+01 
2.2070104e-01 7.5795960e-01 2.2751963e+01 
-5.1236734e-02 8.9552933e-01 2.2734591e+01 
-2.1555893e-01 9.4573909e-01 2.2732042e+01 
1.7614010e-01 6.3932076e-02 2.2753904e+01 
1.0885768e+00 -3.1821969e-01 2.2810249e+01 
5.8323014e-01 3.3457989e-01 2.2748106e+01 
2.2033721e-01 4.8522109e-01 2.2719118e+01 
9.5656645e-01 -4.2755568e-01 2.2782143e+01 
-4.4636738e-01 8.6382169e-01 2.2673042e+01 
-6.6677995e-02 4.8771414e-01 2.2671301e+01 
1.4697115e+00 -6.3354462e-01 2.2800022e+01 
-1.0161169e-01 7.4092072e-01 2.2628426e+01 
-4.0131572e-01 7.2065717e-01 2.2611526e+01 
-2.9587463e-01 5.4467720e-01 2.2612450e+01 
4.0885398e-01 5.8574641e-01 2.2622322e+01 
-2.9838842e-01 9.6712524e-01 2.2593084e+01 
5.1952165e-02 8.5774004e-01 2.2589359e+01 
-1.4153282e-01 9.2694670e-01 2.2558832e+01 
1.2725059e+00 -5.0169855e-01 2.2666685e+01 
1.2388499e+00 -5.6298697e-01 2.2663059e+01 
8.2192063e-02 6.3679022e-01 2.2537073e+01 
-1.4788100e-01 3.4305662e-01 2.2529221e+01 
1.5390737e-01 3.4120721e-01 2.2525459e+01 
-2.6473522e-01 7.9333586e-01 2.2509607e+01 
2.2832358e-01 7.5933033e-01 2.2495754e+01 
6.3914853e-01 -2.5248030e-01 2.2526598e+01 
1.0645641e+00 -2.9085338e-01 2.2532454e+01 
5.6601447e-01 3.7448242e-01 2.2466833e+01 
-3.4939861e-01 6.3013101e-01 2.2437042e+01 
9.6769488e-01 -4.4171372e-01 2.2524338e+01 
-2.4040547e-01 4.5555547e-01 2.2437973e+01 
-4.3613696e-01 9.6290725e-01 2.2425562e+01 
-9.1069914e-02 4.9052998e-01 2.2428955e+01 
-2.4341207e-02 8.9037091e-01 2.2405663e+01 
1.4820411e+00 -6.4816940e-01 2.2542149e+01 
-2.3328896e-01 9.5303684e-01 2.2383078e+01 
4.9850650e-02 6.8486083e-01 2.2385979e+01 
8.2985610e-02 3.6375886e-01 2.2390316e+01 
4.1647583e-01 5.8597583e-01 2.2366392e+01 
5.0914043e-01 9.6598506e-02 2.2379913e+01 
-1.7962964e-01 7.5445992e-01 2.2329187e+01 
-2.1230143e-01 4.1453946e-01 2.2332998e+01 
8.1250501e-01 2.5738591e-02 2.2360891e+01 
1.2840284e+00 -5.1543313e-01 2.2408903e+01 
1.5797876e-01 6.5152809e-02 2.2312883e+01 
1.2505710e+00 -5.7746744e-01 2.2405224e+01 
3.7257722e-01 3.4613991e-01 2.2298029e+01 
-4.0278804e-01 7.1741700e-01 2.2261635e+01 
-2.9738742e-01 5.3959626e-01 2.2262569e+01 
2.3570985e-01 7.6045609e-01 2.2239950e+01 
2.0313439e-01 4.7977558e-01 2.2234659e+01 
-2.9209971e-01 9.6790689e-01 2.2213917e+01 
5.9730936e-02 8.6041653e-01 2.2218735e+01 
-1.3063399e-01 9.2732209e-01 2.2213030e+01 
1.0832694e+00 -4.3575281e-01 2.2307604e+01 
5.9780991e-01 3.3232075e-01 2.2236454e+01 
1.1019239e+00 -3.3191875e-01 2.2294102e+01 
-9.3932450e-02 4.7926459e-01 2.2208994e+01 
9.7859806e-01 -4.5616063e-01 2.2266548e+01 
-2.5242317e-01 8.0114681e-01 2.2152523e+01 
1.4940504e+00 -6.6334003e-01 2.2284288e+01 
-4.3543553e-01 7.9038322e-01 2.2139345e+01 
-1.4788583e-01 3.3224261e-01 2.2102230e+01 
4.2381400e-01 5.8588719e-01 2.2110863e+01 
-1.4212787e-01 5.9571332e-01 2.2089695e+01 
-3.5087785e-01 6.2603843e-01 2.2087158e+01 
-2.2267738e-01 9.5309228e-01 2.2037275e+01 
1.2951587e+00 -5.2966428e-01 2.2151136e+01 
-1.2851686e-02 8.9093757e-01 2.2032290e+01 
1.2620124e+00 -5.9239745e-01 2.2147408e+01 
4.1810915e-01 1.3616847e-01 2.2057636e+01 
-4.3614247e-01 9.6293676e-01 2.2010637e+01 
2.0310132e-02 6.3638371e-01 2.2016994e+01 
2.4283424e-01 7.6130891e-01 2.1984539e+01 
-1.6685547e-01 7.6085204e-01 2.1974276e+01 
-1.0547961e-01 4.8539984e-01 2.1978287e+01 
2.9016879e-01 3.8043994e-01 2.1969250e+01 
1.0865676e+00 -3.1524867e-01 2.2017122e+01 
5.8024764e-01 3.7198228e-01 2.1956024e+01 
-4.0430930e-01 7.1417326e-01 2.1911743e+01 
-2.9892626e-01 5.3442389e-01 2.1912689e+01 
1.0413698e+00 -4.9809125e-01 2.1989975e+01 
1.5057127e+00 -6.7909551e-01 2.2026449e+01 
1.3863043e-01 6.7842267e-02 2.1899126e+01 
7.0735089e-02 8.6078596e-01 2.1872927e+01 
-1.1988241e-01 9.2742884e-01 2.1867226e+01 
-2.1379176e-01 4.0464112e-01 2.1863569e+01 
-2.8585750e-01 9.6850449e-01 2.1845623e+01 
4.3084079e-01 5.8545154e-01 2.1855721e+01 
-2.6106396e-01 7.7683234e-01 2.1810215e+01 
6.6884559e-01 -2.9214478e-01 2.1867998e+01 
-7.6991372e-02 7.3870611e-01 2.1808268e+01 
8.2531685e-01 1.8792452e-02 2.1850712e+01 
1.3058676e+00 -5.4442787e-01 2.1893393e+01 
1.2731515e+00 -6.0780925e-01 2.1889612e+01 
-4.3698540e-01 7.8825051e-01 2.1768602e+01 
-9.6749604e-02 4.7273734e-01 2.1768021e+01 
2.1693960e-01 5.0129414e-01 2.1769346e+01 
-3.5237288e-01 6.2182987e-01 2.1737272e+01 
-2.4371085e-01 4.4315106e-01 2.1738224e+01 
2.4967134e-01 7.6186115e-01 2.1729511e+01 
5.5944417e-02 3.1136617e-01 2.1729153e+01 
4.6182632e-01 -1.3081034e-02 2.1751770e+01 
-1.9534585e-01 6.1952955e-01 2.1715893e+01 
-1.8352816e-02 8.9655662e-01 2.1697172e+01 
6.1109078e-01 3.2854882e-01 2.1726374e+01 
-2.1213324e-01 9.5297527e-01 2.1691473e+01 
-1.4793044e-01 3.2186428e-01 2.1701136e+01 
1.1210045e+00 -3.5549039e-01 2.1779757e+01 
1.0414850e+00 -5.0627244e-01 2.1778305e+01 
8.3986390e-01 -2.6955211e-01 2.1706156e+01 
-1.4898176e-01 4.6201319e-01 2.1642305e+01 
1.9838403e-03 5.9389740e-01 2.1640362e+01 
-1.5940449e-01 7.6673335e-01 2.1632872e+01 
1.5173699e-01 6.9466817e-01 2.1632185e+01 
1.5170017e+00 -6.9547462e-01 2.1768631e+01 
-4.3615335e-01 9.6299797e-01 2.1621508e+01 
4.3752876e-01 5.8464009e-01 2.1600956e+01 
-4.0587670e-01 7.1092844e-01 2.1561852e+01 
3.7099719e-01 2.7928784e-01 2.1584969e+01 
-3.0048773e-01 5.2915817e-01 2.1562807e+01 
-1.0932295e-01 9.2720139e-01 2.1521421e+01 
9.7006880e-02 8.5414809e-01 2.1523987e+01 
1.3161252e+00 -5.5975986e-01 2.1635672e+01 
1.2839656e+00 -6.2373519e-01 2.1631840e+01 
-2.6763592e-02 3.8016731e-01 2.1511560e+01 
-2.7967614e-01 9.6889901e-01 2.1487162e+01 
-2.1486934e-01 3.9654028e-01 2.1493952e+01 
1.2109644e-01 6.9820583e-02 2.1510019e+01 
2.4433587e-01 5.4729736e-01 2.1497692e+01 
-1.4057279e-01 5.2920449e-01 2.1477669e+01 
2.5619593e-01 7.6208532e-01 2.1474859e+01 
-2.3173857e-01 8.0511796e-01 2.1448841e+01 
8.8193938e-02 6.8626797e-01 2.1443497e+01 
5.9306389e-01 3.6786088e-01 2.1446745e+01 
1.1066173e+00 -3.4160993e-01 2.1501881e+01 
1.0100448e+00 -5.0161999e-01 2.1493307e+01 
-4.4372052e-01 8.0780911e-01 2.1386425e+01 
-3.5391736e-01 6.1756444e-01 2.1387386e+01 
-2.4535972e-01 4.3677238e-01 2.1388350e+01 
1.5278907e+00 -7.1251613e-01 2.1510839e+01 
5.8062953e-01 7.9423517e-02 2.1389944e+01 
-7.9403007e-03 8.9609581e-01 2.1351366e+01 
-2.0169666e-01 9.5261621e-01 2.1345671e+01 
1.4391521e-01 8.3463824e-01 2.1350418e+01 
4.4385064e-01 5.8342439e-01 2.1346561e+01 
3.5953066e-01 2.9113644e-01 2.1338017e+01 
-1.4800036e-01 3.1189254e-01 2.1323515e+01 
6.8816745e-01 -3.2225883e-01 2.1352577e+01 
8.3647645e-01 9.8734014e-03 2.1342043e+01 
1.9914594e-02 7.2542882e-01 2.1290937e+01 
-1.4933188e-01 4.4933021e-01 2.1286671e+01 
-1.5904021e-01 6.4454901e-01 2.1275549e+01 
1.3259025e+00 -5.7569599e-01 2.1377979e+01 
-4.3616906e-01 9.6308804e-01 2.1255741e+01 
1.2944318e+00 -6.4020753e-01 2.1374094e+01 
3.2184053e-02 5.4843181e-01 2.1241823e+01 
-4.0748739e-01 7.0768493e-01 2.1211960e+01 
2.6238298e-01 7.6195413e-01 2.1220570e+01 
-3.0206853e-01 5.2379757e-01 2.1212927e+01 
6.2282950e-01 3.2302499e-01 2.1217787e+01 
9.1574498e-02 8.6002499e-01 2.1181314e+01 
-9.9002019e-02 9.2657334e-01 2.1175615e+01 
1.1381383e+00 -3.8118750e-01 2.1265795e+01 
2.4909584e-01 3.8944480e-01 2.1166290e+01 
1.0200671e+00 -5.1757365e-01 2.1235615e+01 
-2.7689194e-02 3.7243414e-01 2.1152544e+01 
-2.7357048e-01 9.6907115e-01 2.1137617e+01 
-2.1593888e-01 3.8857442e-01 2.1135538e+01 
1.0517369e-01 7.1202673e-02 2.1143290e+01 
-1.4184456e-01 5.2203256e-01 2.1124771e+01 
8.7092763e-01 -2.3375440e-01 2.1181112e+01 
1.5383530e+00 -7.3025870e-01 2.1253078e+01 
-2.2284205e-01 8.0364978e-01 2.1101675e+01 
4.2753366e-01 1.9431849e-01 2.1109146e+01 
4.4977942e-01 5.8177620e-01 2.1092525e+01 
-2.7496316e-02 7.3404753e-01 2.1068436e+01 
-4.4495863e-01 8.0564117e-01 2.1036528e+01 
-3.5550952e-01 6.1324179e-01 2.1037500e+01 
-2.4699768e-01 4.3027398e-01 2.1038473e+01 
1.3351700e+00 -5.9227210e-01 2.1120317e+01 
-1.9141197e-01 9.5194662e-01 2.0999865e+01 
1.3045274e+00 -6.5725875e-01 2.1116383e+01 
1.7442552e-02 8.8973927e-01 2.0998123e+01 
6.9572031e-02 5.3489226e-01 2.0989380e+01 
-1.5882133e-01 6.3274711e-01 2.0976168e+01 
-1.4808477e-01 3.0230099e-01 2.0967239e+01 
2.6820764e-01 7.6144046e-01 2.0966637e+01 
5.9925258e-01 3.7043491e-01 2.0944019e+01 
-4.3618917e-01 9.6320415e-01 2.0911194e+01 
4.2646182e-01 -1.6136467e-01 2.0946617e+01 
1.1244549e+00 -3.7021464e-01 2.0986753e+01 
-4.3695487e-02 7.3857224e-01 2.0889277e+01 
-1.2485617e-01 4.3922937e-01 2.0873203e+01 
-4.0913871e-01 7.0444590e-01 2.0862068e+01 
-3.0366522e-01 5.1833981e-01 2.0863047e+01 
1.0736346e+00 -5.5761588e-01 2.0953684e+01 
1.5483621e+00 -7.4874091e-01 2.0995350e+01 
1.0129121e-01 8.5874587e-01 2.0835497e+01 
1.1565192e-01 6.2219632e-01 2.0836901e+01 
-8.8963352e-02 9.2547607e-01 2.0829811e+01 
4.5528829e-01 5.7966733e-01 2.0838840e+01 
5.7865632e-01 1.2020637e-01 2.0854660e+01 
3.8004988e-01 3.1601369e-01 2.0838881e+01 
-2.6755062e-01 9.6899819e-01 2.0796185e+01 
8.4571469e-01 -1.2655586e-03 2.0834805e+01 
9.0684421e-02 7.2082408e-02 2.0796942e+01 
7.0689762e-01 -3.5354176e-01 2.0837379e+01 
7.4978687e-02 2.6838586e-01 2.0779127e+01 
-1.7389153e-01 6.0056323e-01 2.0760435e+01 
-2.1481620e-01 8.0050093e-01 2.0757299e+01 
1.3438988e+00 -6.0952377e-01 2.0862692e+01 
1.3142296e+00 -6.7492121e-01 2.0858706e+01 
-2.5973955e-01 4.4203356e-01 2.0732300e+01 
6.0826308e-01 3.5874212e-01 2.0736141e+01 
2.7364519e-01 7.6051748e-01 2.0713047e+01 
-4.4622058e-01 8.0352336e-01 2.0686630e+01 
-3.5714787e-01 6.0886180e-01 2.0687614e+01 
1.1530677e+00 -4.0927979e-01 2.0752228e+01 
1.1743792e-02 8.9356130e-01 2.0659754e+01 
-5.5439647e-02 4.4553176e-01 2.0662544e+01 
-1.8130149e-01 9.5089173e-01 2.0654064e+01 
1.0392001e+00 -5.5077648e-01 2.0720335e+01 
-1.4817570e-01 2.9306549e-01 2.0630428e+01 
8.7772375e-01 -2.6996937e-01 2.0664320e+01 
1.5578916e+00 -7.6800114e-01 2.0737659e+01 
-4.3621323e-01 9.6334362e-01 2.0585985e+01 
1.0892357e-01 6.7789757e-01 2.0584387e+01 
4.6035051e-01 5.7707006e-01 2.0585497e+01 
4.4056544e-01 1.6404283e-01 2.0586306e+01 
-2.1746127e-01 7.8847879e-01 2.0540789e+01 
-4.1082728e-01 7.0121300e-01 2.0512177e+01 
-3.0527514e-01 5.1278412e-01 2.0513166e+01 
-1.1367336e-01 4.1783738e-01 2.0513512e+01 
1.3520594e+00 -6.2748671e-01 2.0605108e+01 
-7.9315141e-02 9.2385912e-01 2.0484051e+01 
1.1357240e-01 8.5547972e-01 2.0486074e+01 
-2.7429935e-01 9.7143084e-01 2.0478277e+01 
1.3235157e+00 -6.9322735e-01 2.0601072e+01 
6.7979330e-01 -6.9134519e-02 2.0523468e+01 
2.7867109e-01 7.5915843e-01 2.0459797e+01 
7.7472992e-02 7.2536573e-02 2.0469202e+01 
4.0860522e-01 3.1253839e-01 2.0448980e+01 
6.3721949e-01 3.1057772e-01 2.0457539e+01 
1.9148830e-01 5.3541362e-01 2.0417765e+01 
-1.6329384e-01 5.9675598e-01 2.0400784e+01 
1.1398237e+00 -4.0133965e-01 2.0471781e+01 
4.3501243e-02 7.2365981e-01 2.0375418e+01 
-1.2449975e-01 7.6569617e-01 2.0370703e+01 
-2.5524074e-01 4.2510256e-01 2.0353039e+01 
-4.4750309e-01 8.0145997e-01 2.0336733e+01 
-3.5883075e-01 6.0442430e-01 2.0337729e+01 
6.8893060e-02 3.1636515e-01 2.0346495e+01 
1.5669149e+00 -7.8807777e-01 2.0480015e+01 
1.6635504e-01 8.3193207e-01 2.0321981e+01 
4.6493959e-01 5.7395655e-01 2.0332485e+01 
3.4015292e-01 -1.2266003e-01 2.0347374e+01 
1.7440440e-02 8.9257699e-01 2.0313181e+01 
-1.7044787e-01 9.4914442e-01 2.0309052e+01 
-1.4826725e-01 2.8416392e-01 2.0311415e+01 
7.7974260e-01 -4.1955212e-01 2.0350901e+01 
-4.3624076e-01 9.6350390e-01 2.0278444e+01 
-8.5327111e-02 4.5761713e-01 2.0270025e+01 
1.0786980e+00 -5.9072167e-01 2.0331797e+01 
1.3596230e+00 -6.4619631e-01 2.0347572e+01 
1.0850284e-01 6.8086576e-01 2.0229319e+01 
1.3323627e+00 -7.1220952e-01 2.0343485e+01 
8.8103348e-01 -5.6263316e-02 2.0253229e+01 
2.8326094e-01 7.5733668e-01 2.0206875e+01 
6.4071971e-01 3.0577934e-01 2.0204794e+01 
2.7015465e-01 5.3653103e-01 2.0182861e+01 
-4.1255134e-01 6.9799107e-01 2.0162285e+01 
-3.0689400e-01 5.0712663e-01 2.0163286e+01 
-2.2547956e-01 3.7557510e-01 2.0162199e+01 
-2.1056305e-01 7.6521617e-01 2.0149813e+01 
1.1716884e-01 8.5478872e-01 2.0143982e+01 
6.5403394e-02 7.2629087e-02 2.0158501e+01 
-2.6772985e-01 9.7062832e-01 2.0135506e+01 
-7.2397456e-02 9.2235523e-01 2.0136660e+01 
1.0593969e-01 5.1278764e-01 2.0142483e+01 
-3.2430455e-02 3.0376086e-01 2.0143396e+01 
8.6053604e-01 -2.7407122e-01 2.0192961e+01 
4.7143191e-01 -1.6411826e-02 2.0161274e+01 
1.1465027e+00 -4.1793349e-01 2.0214365e+01 
4.0336415e-01 2.7982268e-01 2.0146860e+01 
-1.3523503e-01 5.0901634e-01 2.0101166e+01 
1.5754056e+00 -8.0900896e-01 2.0222420e+01 
-3.9342426e-02 7.1561766e-01 2.0067490e+01 
4.7885042e-01 5.5856913e-01 2.0067650e+01 
1.8324709e-01 6.8797272e-01 2.0039152e+01 
-1.4835514e-01 2.7557606e-01 2.0008718e+01 
-4.3627146e-01 9.6368271e-01 1.9987085e+01 
-4.4880557e-01 7.9947251e-01 1.9986837e+01 
-3.6052498e-01 5.9987158e-01 1.9987823e+01 
-2.5178304e-01 4.1004223e-01 1.9988852e+01 
-1.1861062e-01 7.8551000e-01 1.9974295e+01 
3.0539822e-02 8.8804722e-01 1.9965939e+01 
-1.7032045e-01 9.4946414e-01 1.9961510e+01 
1.3564174e+00 -6.5675545e-01 2.0078459e+01 
2.3779629e-01 -6.3996337e-02 1.9986444e+01 
2.8739047e-01 7.5502592e-01 1.9954273e+01 
6.6872239e-01 -3.6327547e-01 1.9990561e+01 
1.3795766e+00 -7.5034302e-01 2.0055918e+01 
2.5002432e-01 4.4503087e-01 1.9941771e+01 
1.1625607e+00 -6.5056807e-01 2.0029062e+01 
7.3755074e-01 1.4134088e-01 1.9960075e+01 
8.9212400e-01 -5.0446004e-01 1.9988586e+01 
6.1270571e-01 3.5798699e-01 1.9932873e+01 
4.3127501e-01 -2.0043986e-01 1.9941919e+01 
1.0405973e+00 -2.9185715e-01 1.9965523e+01 
-2.1475564e-01 6.4139009e-01 1.9887465e+01 
-8.2925044e-02 4.5026886e-01 1.9887905e+01 
8.7443106e-02 1.9464739e-01 1.9893499e+01 
1.2033317e+00 -4.9658248e-01 1.9963303e+01 
8.8804615e-01 -7.3169075e-02 1.9916960e+01 
4.6980089e-01 4.9499284e-02 1.9866415e+01 
1.5833374e+00 -8.3083272e-01 1.9964880e+01 
-4.1434243e-01 6.9485146e-01 1.9812338e+01 
-3.0838552e-01 5.0112844e-01 1.9813454e+01 
1.2274954e-01 8.5220063e-01 1.9810675e+01 
-6.5982208e-02 9.2022872e-01 1.9793997e+01 
-2.5847661e-01 9.6888524e-01 1.9783554e+01 
8.2095616e-02 4.6646722e-02 1.9780952e+01 
-2.2452755e-02 7.3328257e-01 1.9745621e+01 
-2.0222475e-01 7.9676932e-01 1.9735716e+01 
5.0444132e-01 5.2637285e-01 1.9752819e+01 
-4.3630487e-01 9.6387786e-01 1.9710590e+01 
-1.4843628e-01 2.6728317e-01 1.9721014e+01 
2.9103553e-01 7.5219983e-01 1.9701984e+01 
-1.1398302e-01 5.2194762e-01 1.9682028e+01 
3.4729189e-01 -1.5129532e-01 1.9692007e+01 
6.7457676e-01 2.4057169e-01 1.9679026e+01 
1.2989104e+00 -7.3406148e-01 1.9762402e+01 
5.6224054e-01 -3.0243948e-01 1.9693220e+01 
1.3379772e+00 -6.5662599e-01 1.9756552e+01 
-4.5074120e-01 8.0186814e-01 1.9637669e+01 
-1.6944061e-01 9.4906127e-01 1.9637554e+01 
-3.6172074e-01 5.9425253e-01 1.9637114e+01 
3.9957315e-02 8.8386196e-01 1.9637186e+01 
8.1757593e-01 2.0976353e-02 1.9681660e+01 
2.4134642e-01 1.2512091e-01 1.9647942e+01 
7.8030008e-01 -4.5013359e-01 1.9693365e+01 
9.6696168e-01 -1.9707491e-01 1.9682886e+01 
1.0057108e+00 -5.8551508e-01 1.9692179e+01 
3.8229179e-01 3.0212006e-01 1.9620434e+01 
1.1227746e+00 -4.1051885e-01 1.9681826e+01 
1.1694919e-01 3.4838653e-01 1.9586370e+01 
5.6305718e-01 8.5890805e-03 1.9610790e+01 
1.5906839e+00 -8.5358679e-01 1.9707405e+01 
1.3348021e-01 6.4040405e-01 1.9531313e+01 
-1.9824466e-01 7.8674847e-01 1.9514732e+01 
6.9270319e-01 -1.2633054e-01 1.9523785e+01 
-4.3634039e-01 9.6408558e-01 1.9450001e+01 
-2.3592304e-01 9.6387261e-01 1.9450001e+01 
-4.2463070e-01 7.0964962e-01 1.9450001e+01 
-6.5511674e-02 9.1913807e-01 1.9450001e+01 
-3.0025965e-01 4.7739249e-01 1.9450001e+01 
1.0854198e-01 8.5657305e-01 1.9450001e+01 
-1.4850780e-01 2.5935298e-01 1.9450001e+01 
2.9417217e-01 7.4883229e-01 1.9450001e+01 
4.7236624e-01 5.6405288e-01 1.9450001e+01 
3.5470523e-02 7.5160414e-02 1.9450001e+01 
6.1596322e-01 3.4868097e-01 1.9450001e+01 
2.4147438e-01 -8.5796505e-02 1.9450001e+01 
7.4389935e-01 1.2008426e-01 1.9450001e+01 
4.5607662e-01 -2.3717199e-01 1.9450001e+01 
8.9495158e-01 -9.7793102e-02 1.9450001e+01 
6.7160630e-01 -3.8931057e-01 1.9450001e+01 
-2.6901769e-02 7.3026776e-01 1.9387890e+01 
1.0445476e+00 -3.1835750e-01 1.9450001e+01 
8.9297742e-01 -5.3279239e-01 1.9450001e+01 
1.2074330e+00 -5.2774358e-01 1.9450001e+01 
1.1209859e+00 -6.6345030e-01 1.9450001e+01 
2.7519548e-01 1.6599070e-01 1.9360455e+01 
4.4330835e-02 4.8970491e-01 1.9335384e+01 
1.3858019e+00 -7.2239888e-01 1.9450001e+01 
1.3546358e+00 -7.8164214e-01 1.9450001e+01 
1.7297025e-01 7.1148169e-01 1.9307173e+01 
1.5974191e+00 -8.7730879e-01 1.9450001e+01 
4.2584488e-01 2.3851909e-01 1.9302954e+01 
-1.6925177e-01 9.4814903e-01 1.9264093e+01 
4.3567467e-02 8.8052303e-01 1.9265169e+01 
5.6317532e-01 -2.6350317e-03 1.9295975e+01 
7.5970165e-02 3.2318270e-01 1.9262569e+01 
-3.9094490e-01 6.3917726e-01 1.9245922e+01 
-2.8353742e-01 4.4255671e-01 1.9242529e+01 
-1.1545796e-01 7.5564510e-01 1.9209530e+01 
5.5271947e-01 4.5388293e-01 1.9223362e+01 
-4.3637866e-01 9.6430963e-01 1.9196945e+01 
6.7822695e-01 2.2399507e-01 1.9220976e+01 
2.9680768e-01 7.4487114e-01 1.9196104e+01 
1.3774857e-01 -1.7281236e-02 1.9208668e+01 
-1.4857334e-01 2.5169963e-01 1.9191999e+01 
-1.8424043e-01 6.2530565e-01 1.9183369e+01 
3.5010543e-01 -1.7192033e-01 1.9207993e+01 
8.2059252e-01 7.0590927e-04 1.9218342e+01 
5.6478286e-01 -3.2518044e-01 1.9206781e+01 
9.6986270e-01 -2.2107942e-01 1.9217113e+01 
7.8196764e-01 -4.7551155e-01 1.9206635e+01 
1.1254965e+00 -4.3863171e-01 1.9218174e+01 
1.0062858e+00 -6.1391789e-01 1.9207823e+01 
1.2945882e+00 -6.4468700e-01 1.9219156e+01 
-6.8202958e-02 9.1824502e-01 1.9106003e+01 
1.2363877e+00 -7.4085897e-01 1.9208752e+01 
7.1324456e-01 -2.3569149e-01 1.9145615e+01 
-2.5700530e-01 9.6794480e-01 1.9087278e+01 
1.2592989e-01 8.4650034e-01 1.9088648e+01 
1.5311281e-01 5.7701951e-01 1.9089331e+01 
-4.4057330e-01 7.4350470e-01 1.9072693e+01 
-3.4050038e-01 5.4153234e-01 1.9069307e+01 
-2.2712316e-01 3.4749466e-01 1.9065920e+01 
-4.1116223e-02 3.8644445e-01 1.9060772e+01 
3.5905186e-02 1.7877935e-01 1.9065666e+01 
3.0636421e-01 4.3964687e-01 1.9061373e+01 
-2.0517318e-01 7.9371804e-01 1.9042015e+01 
1.6035221e+00 -9.0202457e-01 1.9192547e+01 
-2.4286482e-02 7.2745043e-01 1.9041584e+01 
-1.3385849e-01 5.3292370e-01 1.9003942e+01 
4.7207749e-01 1.1289171e-01 1.9022863e+01 
-1.7175651e-01 9.4749326e-01 1.8938490e+01 
-4.3642244e-01 9.6456605e-01 1.8930866e+01 
2.9894596e-01 7.4036044e-01 1.8941904e+01 
8.9546585e-01 -1.1902045e-01 1.8987825e+01 
1.3690710e+00 -8.1827497e-01 1.9056273e+01 
4.0141333e-02 8.7902039e-01 1.8932400e+01 
-1.4865573e-01 2.4396646e-01 1.8934002e+01 
6.1852717e-01 3.3338615e-01 1.8945351e+01 
2.4769345e-01 1.4529568e-01 1.8925911e+01 
7.4443173e-01 1.0053715e-01 1.8939928e+01 
-3.9693651e-01 6.4289796e-01 1.8896078e+01 
-2.8933248e-01 4.4338197e-01 1.8892696e+01 
6.0387172e-02 6.6346490e-01 1.8890228e+01 
2.4381174e-01 -1.0767405e-01 1.8913557e+01 
4.5792967e-01 -2.6100132e-01 1.8911793e+01 
1.0466133e+00 -3.4962094e-01 1.8934483e+01 
7.6795578e-02 3.1351602e-01 1.8862282e+01 
6.7347670e-01 -4.1648692e-01 1.8909628e+01 
1.2098469e+00 -5.6359416e-01 1.8936703e+01 
-1.8868530e-01 6.2729174e-01 1.8833565e+01 
1.1209179e+00 -6.9843197e-01 1.8913609e+01 
4.8354682e-01 5.4009169e-01 1.8814243e+01 
3.2909878e-02 5.5664390e-02 1.8803911e+01 
1.6089762e+00 -9.2764461e-01 1.8935143e+01 
-2.6749504e-01 9.6982366e-01 1.8764494e+01 
-7.6621093e-02 9.1851431e-01 1.8763340e+01 
1.0851058e-01 8.5012901e-01 1.8756016e+01 
2.4091960e-01 4.7983795e-01 1.8762993e+01 
5.7742256e-01 -6.7872614e-02 1.8764923e+01 
-4.4464570e-01 7.4936253e-01 1.8722839e+01 
-3.4634423e-01 5.4384112e-01 1.8719471e+01 
-1.4531444e-01 4.3423399e-01 1.8712357e+01 
-2.1480721e-01 7.8668118e-01 1.8704870e+01 
8.6002117e-01 -5.4963529e-01 1.8779303e+01 
-4.2916059e-02 7.3167592e-01 1.8701944e+01 
1.3907874e+00 -7.7563810e-01 1.8803308e+01 
3.0062357e-01 7.3533535e-01 1.8687393e+01 
1.3747650e+00 -8.4174770e-01 1.8798920e+01 
-1.4877851e-01 2.3617947e-01 1.8676006e+01 
1.1374604e-01 6.5950447e-01 1.8668165e+01 
6.5422553e-01 2.5317377e-01 1.8686857e+01 
-4.3647176e-01 9.6485513e-01 1.8650648e+01 
-1.9127847e-01 6.2860674e-01 1.8601278e+01 
2.4565154e-01 2.0614260e-01 1.8615839e+01 
-1.7281298e-01 9.4589180e-01 1.8590946e+01 
9.4640739e-03 8.8684458e-01 1.8586819e+01 
1.8977101e-01 8.0980152e-01 1.8585285e+01 
1.1703944e+00 -5.3306741e-01 1.8670841e+01 
8.8992578e-01 -1.3034080e-01 1.8629265e+01 
-4.0290859e-01 6.4682752e-01 1.8546278e+01 
4.8479286e-01 5.3228253e-01 1.8559650e+01 
-2.9529351e-01 4.4459224e-01 1.8542826e+01 
7.6135218e-02 3.3148384e-01 1.8541662e+01 
3.2989256e-02 4.6651341e-02 1.8545961e+01 
1.6137702e+00 -9.5406497e-01 1.8677774e+01 
6.0777813e-01 -3.8694301e-01 1.8551321e+01 
1.5805006e-01 5.2446133e-01 1.8502392e+01 
-2.2062080e-01 7.8836417e-01 1.8479218e+01 
-4.9500685e-02 7.3294097e-01 1.8475500e+01 
3.0891761e-01 -1.7160109e-01 1.8492443e+01 
-2.7368060e-01 9.7056419e-01 1.8421721e+01 
3.0187729e-01 7.2983140e-01 1.8432564e+01 
1.3934882e+00 -7.9993880e-01 1.8546040e+01 
-8.5322917e-02 9.1829818e-01 1.8415947e+01 
1.3798544e+00 -8.6583477e-01 1.8541599e+01 
9.7626895e-02 8.4996641e-01 1.8413273e+01 
-1.4896521e-01 2.2836466e-01 1.8418011e+01 
6.5437460e-01 2.4210569e-01 1.8432203e+01 
-4.4741565e-01 7.5153112e-01 1.8372261e+01 
-3.5283038e-01 5.4740644e-01 1.8370417e+01 
-4.3652654e-01 9.6517640e-01 1.8355045e+01 
2.9932377e-01 9.7176567e-02 1.8373861e+01 
-1.1417974e-01 5.3423774e-01 1.8325285e+01 
3.1615853e-02 7.0962983e-01 1.8311049e+01 
1.1069092e+00 -7.2604960e-01 1.8403778e+01 
-1.3947509e-01 7.5785285e-01 1.8302042e+01 
5.4645765e-01 -1.4233711e-01 1.8340607e+01 
1.1210145e+00 -4.9044237e-01 1.8384716e+01 
4.8558274e-01 5.2395093e-01 1.8304733e+01 
7.6785371e-02 3.2314405e-01 1.8283627e+01 
3.2957990e-02 3.7587799e-02 1.8288013e+01 
1.6178925e+00 -9.8118174e-01 1.8420441e+01 
-1.9245678e-01 9.4903862e-01 1.8264681e+01 
1.7253046e-01 8.1362426e-01 1.8265518e+01 
-3.0002943e-01 6.9441891e-01 1.8248400e+01 
3.2291384e-03 8.8493311e-01 1.8241650e+01 
-4.1478616e-01 6.6339707e-01 1.8209858e+01 
-4.5787108e-01 8.2641095e-01 1.8204990e+01 
7.8646737e-01 -5.3022486e-01 1.8263979e+01 
-3.0798596e-01 4.5815653e-01 1.8190960e+01 
1.0843053e-01 6.4631456e-01 1.8176386e+01 
3.0274418e-01 7.2388434e-01 1.8177406e+01 
1.3954841e+00 -8.2480967e-01 1.8288797e+01 
1.3843193e+00 -8.9045554e-01 1.8284307e+01 
-1.4923938e-01 2.2054805e-01 1.8160015e+01 
6.5402538e-01 2.3048444e-01 1.8177223e+01 
2.8089842e-01 -1.6516905e-01 1.8157846e+01 
-5.9347074e-02 7.0963413e-01 1.8105679e+01 
-2.9946434e-01 6.9641727e-01 1.8098801e+01 
-2.7679285e-01 9.7035325e-01 1.8083733e+01 
-9.1671906e-02 9.1687924e-01 1.8069988e+01 
1.1722566e+00 -5.7668662e-01 1.8156570e+01 
1.2972690e-01 8.3040631e-01 1.8062698e+01 
-4.1886792e-02 4.7581524e-01 1.8060505e+01 
-4.5629629e-01 7.9011464e-01 1.8045124e+01 
1.1120490e+00 -7.4796832e-01 1.8146542e+01 
-4.3658656e-01 9.6552849e-01 1.8042664e+01 
8.6130232e-01 -1.2147804e-01 1.8091469e+01 
3.7899113e-01 2.1336238e-01 1.8059183e+01 
4.8595646e-01 5.1513988e-01 1.8049484e+01 
5.1847690e-01 -3.4380719e-01 1.8078615e+01 
-3.7193617e-01 5.7551020e-01 1.8026230e+01 
3.2783408e-02 2.8503712e-02 1.8030066e+01 
1.6213316e+00 -1.0088915e+00 1.8163128e+01 
-3.1680045e-01 8.2483345e-01 1.8003746e+01 
5.0781381e-01 -2.7889336e-02 1.8036976e+01 
-2.6184839e-01 3.7171879e-01 1.8007339e+01 
2.2934175e-01 4.9145401e-01 1.7976837e+01 
-1.3036472e-01 7.5234127e-01 1.7962780e+01 
3.5522632e-02 6.9098824e-01 1.7955286e+01 
-3.6105368e-01 7.0297068e-01 1.7936541e+01 
6.3111848e-01 2.6734117e-01 1.7947437e+01 
-4.5752802e-01 8.5482562e-01 1.7915304e+01 
3.0326149e-01 7.1753001e-01 1.7921913e+01 
1.3967835e+00 -8.5015810e-01 1.8031572e+01 
-1.7258476e-01 5.9603029e-01 1.7906546e+01 
-1.8721488e-01 9.4495630e-01 1.7898327e+01 
1.3881398e+00 -9.1552931e-01 1.8027035e+01 
-3.8771864e-03 8.8280725e-01 1.7895729e+01 
-3.2422322e-01 9.8469412e-01 1.7890434e+01 
-1.4962454e-01 2.1275564e-01 1.7902020e+01 
1.7361070e-01 8.0600524e-01 1.7893135e+01 
1.3832305e-01 2.4760316e-01 1.7895519e+01 
2.8055072e-01 -1.7584862e-01 1.7899956e+01 
-4.3291202e-01 6.9698268e-01 1.7861494e+01 
-3.2860312e-01 4.8731947e-01 1.7842607e+01 
-1.2470555e-01 3.7528026e-01 1.7830799e+01 
-2.9041794e-01 8.4084064e-01 1.7820810e+01 
1.1721426e+00 -5.9912670e-01 1.7899462e+01 
4.8595405e-01 5.0589252e-01 1.7793894e+01 
1.1589143e+00 -7.9810345e-01 1.7865021e+01 
3.2432884e-02 1.9429000e-02 1.7772116e+01 
1.6240758e+00 -1.0370907e+00 1.7905830e+01 
5.8888376e-01 -2.0731890e-01 1.7777750e+01 
-2.8287873e-01 9.7097760e-01 1.7726665e+01 
-9.7897381e-02 9.1506439e-01 1.7724068e+01 
-1.7502259e-01 5.8178204e-01 1.7725416e+01 
9.1268674e-02 8.4094799e-01 1.7722334e+01 
-4.3665132e-01 9.6590865e-01 1.7711935e+01 
1.0271267e-01 3.4185219e-01 1.7722038e+01 
7.9802519e-01 -5.6906927e-01 1.7749643e+01 
-3.9257556e-01 6.0722989e-01 1.7677872e+01 
-6.2236656e-02 7.3686939e-01 1.7675369e+01 
-2.3794188e-01 7.8827059e-01 1.7667744e+01 
1.2100364e-01 5.9874105e-01 1.7673985e+01 
3.0346680e-01 7.1080452e-01 1.7666073e+01 
-2.8366774e-01 3.9925915e-01 1.7658991e+01 
1.3973953e+00 -8.7589151e-01 1.7774359e+01 
1.3912965e+00 -9.4097495e-01 1.7769768e+01 
6.5200371e-01 2.0578262e-01 1.7666248e+01 
-1.5014426e-01 2.0501342e-01 1.7644024e+01 
2.5157928e-01 1.3925077e-01 1.7627544e+01 
-9.8233052e-02 5.1389968e-01 1.7598848e+01 
2.4025667e-01 -1.5775169e-01 1.7616447e+01 
-1.2838327e-02 8.8146603e-01 1.7578905e+01 
1.6187520e-01 8.0532843e-01 1.7576088e+01 
-1.9253783e-01 9.4363767e-01 1.7552408e+01 
-3.2210571e-01 9.8340118e-01 1.7545786e+01 
1.1205800e+00 -7.9271340e-01 1.7632105e+01 
1.1871257e+00 -6.4447290e-01 1.7623100e+01 
1.8990610e-02 6.9939792e-01 1.7525953e+01 
4.8561588e-01 4.9625236e-01 1.7537952e+01 
-4.4771045e-01 7.3255968e-01 1.7513126e+01 
3.1874005e-02 1.0393456e-02 1.7514164e+01 
-3.0041334e-01 8.3054608e-01 1.7493652e+01 
1.6261134e+00 -1.0656763e+00 1.7648535e+01 
-3.4928289e-01 5.1768494e-01 1.7494253e+01 
-3.6981046e-02 3.4423590e-01 1.7498293e+01 
8.8645929e-01 -2.0330246e-01 1.7530107e+01 
-2.3491472e-01 3.1287527e-01 1.7475380e+01 
5.8863485e-01 -4.2626470e-01 1.7511839e+01 
4.9392042e-01 -4.6397548e-02 1.7465767e+01 
9.2293739e-02 8.3455777e-01 1.7419924e+01 
6.2879956e-01 2.4283411e-01 1.7435801e+01 
3.2204050e-01 2.8706342e-01 1.7423721e+01 
3.0339786e-01 7.0374435e-01 1.7409876e+01 
-8.3776593e-02 9.0583837e-01 1.7395308e+01 
1.3973277e+00 -9.0191746e-01 1.7517141e+01 
1.3937700e+00 -9.6671134e-01 1.7512503e+01 
-2.6402199e-01 9.6301603e-01 1.7376829e+01 
-1.5082207e-01 1.9734742e-01 1.7386024e+01 
-4.3672004e-01 9.6631223e-01 1.7361090e+01 
2.7902368e-01 -1.9725604e-01 1.7384169e+01 
-5.2094430e-02 7.1745497e-01 1.7350859e+01 
9.9339135e-02 4.4148827e-01 1.7350744e+01 
-4.1300774e-01 6.4036477e-01 1.7329508e+01 
-2.1751046e-01 7.7995276e-01 1.7328436e+01 
-3.0513942e-01 4.2821240e-01 1.7310640e+01 
1.0285522e+00 -7.5147784e-01 1.7393873e+01 
1.1699740e+00 -6.4487362e-01 1.7385246e+01 
8.5107155e-02 2.0438889e-01 1.7300470e+01 
4.8498240e-01 4.8626307e-01 1.7281651e+01 
1.9005951e-01 7.8251618e-01 1.7253597e+01 
3.1074338e-02 1.4269060e-03 1.7256210e+01 
1.6274327e+00 -1.0945451e+00 1.7391235e+01 
1.8326242e-02 8.6286265e-01 1.7233149e+01 
-1.5919301e-01 9.3001962e-01 1.7213852e+01 
-3.0546820e-01 9.7701693e-01 1.7194567e+01 
-4.5783028e-01 7.7022421e-01 1.7164755e+01 
1.2232769e-01 6.3416547e-01 1.7171392e+01 
-2.7776092e-01 8.1431365e-01 1.7149199e+01 
-3.7012398e-01 5.4937351e-01 1.7145893e+01 
-1.0654089e-01 6.6968906e-01 1.7145903e+01 
3.0309278e-01 6.9638610e-01 1.7153315e+01 
1.3965890e+00 -9.2814374e-01 1.7259914e+01 
1.3955411e+00 -9.9265701e-01 1.7255224e+01 
6.4850652e-01 1.7947267e-01 1.7153852e+01 
2.7269736e-01 4.7753325e-01 1.7134218e+01 
-2.5820583e-01 3.3978793e-01 1.7127033e+01 
-1.5168153e-01 1.8978366e-01 1.7128023e+01 
3.9088094e-01 2.1395570e-01 1.7135214e+01 
5.8330411e-01 -2.3071633e-01 1.7126722e+01 
-3.4468096e-02 4.2887491e-01 1.7089016e+01 
1.3998817e-01 8.0492151e-01 1.7079750e+01 
-1.5812784e-01 5.3514045e-01 1.7073950e+01 
3.7105790e-01 -2.7974534e-01 1.7105051e+01 
-5.5475704e-02 8.9000279e-01 1.7052330e+01 
-2.3424897e-01 9.5156443e-01 1.7032932e+01 
1.1265181e+00 -8.3823365e-01 1.7117641e+01 
1.1833304e+00 -6.9053924e-01 1.7109123e+01 
-2.1459824e-01 7.6160407e-01 1.7011215e+01 
4.8409441e-01 4.7596869e-01 1.7024979e+01 
-4.3679151e-01 9.6673203e-01 1.6988129e+01 
-4.3187603e-01 6.7518282e-01 1.6981140e+01 
3.0001597e-02 -7.4409046e-03 1.6998255e+01 
1.6280217e+00 -1.1235943e+00 1.7133921e+01 
8.5480839e-01 -1.9523226e-01 1.7026827e+01 
-6.1022561e-02 6.5575773e-01 1.6974817e+01 
-5.3712618e-02 3.8182464e-01 1.6974880e+01 
5.3605032e-01 -4.6124794e-02 1.7001423e+01 
-3.2648274e-01 4.5850953e-01 1.6962286e+01 
1.2927610e-01 5.9062868e-01 1.6953733e+01 
8.1115860e-01 -6.2817222e-01 1.6978168e+01 
-8.9205451e-02 5.6404102e-01 1.6905434e+01 
2.4645787e-01 3.5733512e-01 1.6909061e+01 
6.2517762e-01 2.1690506e-01 1.6922707e+01 
4.4174060e-02 8.4500825e-01 1.6889734e+01 
3.0258995e-01 6.8876666e-01 1.6896374e+01 
1.3951877e+00 -9.5447803e-01 1.7002666e+01 
-1.2988886e-01 9.1580790e-01 1.6870478e+01 
1.3965906e+00 -1.0187302e+00 1.6997927e+01 
-1.5274616e-01 1.8234815e-01 1.6870020e+01 
1.3874888e-01 2.1245371e-01 1.6863209e+01 
-1.0764927e-01 6.9038969e-01 1.6845755e+01 
-2.8783169e-01 9.6880418e-01 1.6834223e+01 
2.7612785e-01 -2.1850422e-01 1.6868370e+01 
-2.0256019e-01 5.3291285e-01 1.6836710e+01 
-4.6255082e-01 8.0952454e-01 1.6816380e+01 
-2.5485584e-01 8.0134702e-01 1.6799015e+01 
-3.9111778e-01 5.8249879e-01 1.6797531e+01 
1.1694088e+00 -8.8626850e-01 1.6887478e+01 
-2.8092378e-01 3.6835927e-01 1.6778683e+01 
1.1375467e+00 -6.5559793e-01 1.6847607e+01 
4.8299289e-01 4.6541369e-01 1.6767923e+01 
1.4139903e-01 7.9564148e-01 1.6727413e+01 
2.8623572e-02 -1.6180266e-02 1.6740295e+01 
1.6278684e+00 -1.1527206e+00 1.6876579e+01 
3.3497068e-01 3.9087135e-02 1.6737770e+01 
-2.9214829e-02 8.7347442e-01 1.6707939e+01 
-3.9185640e-01 8.9176631e-01 1.6695120e+01 
-2.0503689e-01 9.3963802e-01 1.6688808e+01 
5.8182245e-01 -4.6426848e-01 1.6738356e+01 
1.4971831e-02 3.3151788e-01 1.6667629e+01 
5.2892470e-01 -2.0796601e-01 1.6696070e+01 
-4.4774055e-01 7.1185970e-01 1.6632769e+01 
9.9828750e-02 5.6075341e-01 1.6638996e+01 
3.0192801e-01 6.8092322e-01 1.6639048e+01 
1.3931320e+00 -9.8082805e-01 1.6745388e+01 
-2.8921452e-01 8.1734282e-01 1.6616304e+01 
-3.4784564e-01 4.9014795e-01 1.6613926e+01 
6.4388329e-01 1.5196580e-01 1.6639954e+01 
1.3968998e+00 -1.0448489e+00 1.6740595e+01 
2.3496738e-01 -1.9703755e-01 1.6636385e+01 
-1.5403953e-01 1.7506690e-01 1.6612011e+01 
-8.2523979e-02 7.1493942e-01 1.6601477e+01 
-4.3686390e-01 9.6715730e-01 1.6590769e+01 
8.2240745e-02 8.2033437e-01 1.6557865e+01 
-9.6747071e-02 4.6837851e-01 1.6551439e+01 
-1.0287139e-01 9.0082860e-01 1.6526194e+01 
9.2360836e-01 -3.5076231e-01 1.6587862e+01 
1.1622456e+00 -7.1439350e-01 1.6613773e+01 
-2.7966830e-01 9.6381015e-01 1.6507074e+01 
1.1296334e+00 -8.8404614e-01 1.6603069e+01 
4.8171911e-01 4.5464280e-01 1.6510475e+01 
-3.5757142e-01 8.3940500e-01 1.6466625e+01 
2.6908124e-02 -2.4761500e-02 1.6482332e+01 
1.6269605e+00 -1.1818210e+00 1.6619200e+01 
-4.1191077e-01 6.1711293e-01 1.6449163e+01 
8.3110780e-03 6.6892064e-01 1.6439690e+01 
-3.0331004e-01 3.9848483e-01 1.6430328e+01 
-4.6389812e-01 8.0241638e-01 1.6424702e+01 
5.9855384e-01 -2.8453192e-01 1.6470955e+01 
2.5020105e-01 2.3493169e-01 1.6435263e+01 
-3.5376245e-01 9.8701501e-01 1.6393230e+01 
1.6358943e-01 7.7486163e-01 1.6382910e+01 
-1.9631881e-01 5.9531730e-01 1.6377920e+01 
3.0114606e-01 6.7289329e-01 1.6381321e+01 
-1.4015473e-01 7.4431270e-01 1.6366745e+01 
-3.8602431e-03 8.5600287e-01 1.6363693e+01 
1.3904300e+00 -1.0071015e+00 1.6488066e+01 
1.3964498e+00 -1.0709308e+00 1.6483223e+01 
-1.5558521e-01 1.6796598e-01 1.6354000e+01 
6.6615230e-01 7.8123122e-02 1.6370955e+01 
8.7088722e-01 -7.1290845e-01 1.6409397e+01 
-2.1347301e-01 9.3902951e-01 1.6328743e+01 
2.7154797e-01 -2.3932303e-01 1.6352560e+01 
1.3359971e-01 5.4029024e-01 1.6301403e+01 
-4.5927471e-01 7.5041950e-01 1.6284393e+01 
-3.6927468e-01 5.2322841e-01 1.6265564e+01 
1.1364950e+00 -7.0697355e-01 1.6354996e+01 
1.1300627e+00 -9.0690905e-01 1.6345718e+01 
-2.5595459e-01 3.0843544e-01 1.6246737e+01 
4.8031461e-01 4.4370124e-01 1.6252625e+01 
-3.4087259e-01 8.8341153e-01 1.6232502e+01 
-3.3179946e-02 3.2123002e-01 1.6228230e+01 
-2.9403672e-01 7.8568274e-01 1.6213198e+01 
2.4823200e-02 -3.3154964e-02 1.6224367e+01 
1.6252859e+00 -1.2107924e+00 1.6361774e+01 
-7.6339126e-02 8.8461602e-01 1.6181908e+01 
1.0218242e-01 8.0183077e-01 1.6184933e+01 
-4.3693450e-01 9.6757245e-01 1.6166414e+01 
-2.5043681e-01 9.5032620e-01 1.6162689e+01 
5.1413488e-01 -1.0771186e-01 1.6193550e+01 
-2.0738775e-01 6.1524522e-01 1.6149040e+01 
2.2794183e-01 3.6185598e-01 1.6131004e+01 
3.0028340e-01 6.6471469e-01 1.6123184e+01 
5.1439273e-01 -4.4317609e-01 1.6163147e+01 
1.3870901e+00 -1.0332062e+00 1.6230692e+01 
-4.3138459e-01 6.5334815e-01 1.6100792e+01 
6.3848817e-01 1.2368150e-01 1.6124464e+01 
1.3952217e+00 -1.0968935e+00 1.6225798e+01 
-1.5740673e-01 1.6107139e-01 1.6095985e+01 
-3.2553771e-01 4.3009233e-01 1.6081970e+01 
-1.3221768e-01 7.3274976e-01 1.6070871e+01 
2.6853701e-01 -2.4949430e-01 1.6094650e+01 
8.8554978e-01 -3.3275533e-01 1.6110348e+01 
-2.8644681e-01 8.0138373e-01 1.6044674e+01 
2.0549417e-02 8.3775872e-01 1.6019342e+01 
1.7353316e-01 7.5886095e-01 1.6009773e+01 
1.1544217e+00 -7.6038069e-01 1.6099239e+01 
-1.4886466e-01 9.1186833e-01 1.6000126e+01 
2.8442556e-02 2.0631200e-01 1.6002359e+01 
1.1297029e+00 -9.2966062e-01 1.6088308e+01 
4.7882137e-01 4.3263465e-01 1.5994357e+01 
-2.9736608e-01 9.6854478e-01 1.5971931e+01 
-1.7859070e-01 4.9203536e-01 1.5975164e+01 
3.5897195e-02 6.6445273e-01 1.5963552e+01 
2.2336820e-02 -4.1331042e-02 1.5966396e+01 
1.6228321e+00 -1.2395314e+00 1.6104294e+01 
-4.6547127e-01 7.9059279e-01 1.5936012e+01 
-3.9072114e-01 5.5786020e-01 1.5917197e+01 
3.0862418e-01 8.9981787e-02 1.5933476e+01 
-2.7972493e-01 3.3828688e-01 1.5898382e+01 
2.9937980e-01 6.5642565e-01 1.5864628e+01 
1.1472266e-01 7.8727835e-01 1.5856775e+01 
-1.7446162e-01 6.8343866e-01 1.5850747e+01 
1.3831204e+00 -1.0590497e+00 1.5973258e+01 
-5.0819717e-02 8.6754966e-01 1.5837561e+01 
1.3931969e+00 -1.1226540e+00 1.5968312e+01 
6.5659165e-01 5.7628747e-02 1.5866073e+01 
-1.5952766e-01 1.5440920e-01 1.5837967e+01 
-2.2176482e-01 9.3719620e-01 1.5818347e+01 
1.1445129e-01 4.3122628e-01 1.5825402e+01 
8.7637508e-01 -7.5655460e-01 1.5886567e+01 
2.6498571e-01 -2.5945628e-01 1.5836735e+01 
-8.4779315e-02 3.4041643e-01 1.5808855e+01 
1.1267848e+00 -7.4923384e-01 1.5852716e+01 
-4.4812000e-01 6.9130176e-01 1.5752417e+01 
4.4315159e-02 6.5475929e-01 1.5749763e+01 
-3.4770566e-01 4.6315399e-01 1.5733608e+01 
5.3970978e-02 1.3818122e-01 1.5742350e+01 
1.1285274e+00 -9.5223862e-01 1.5830832e+01 
4.7728154e-01 4.2148915e-01 1.5735664e+01 
-4.3699959e-01 9.6795517e-01 1.5712078e+01 
-2.3045832e-01 2.4895443e-01 1.5714801e+01 
1.8412359e-01 7.4360877e-01 1.5702891e+01 
2.9284540e-01 4.4001099e-01 1.5701527e+01 
1.9417074e-02 -4.9260147e-02 1.5708423e+01 
1.6195863e+00 -1.2679343e+00 1.5846745e+01 
4.4193488e-02 8.1882399e-01 1.5674994e+01 
-2.5314525e-01 6.8383676e-01 1.5666942e+01 
-1.2215457e-01 8.9626729e-01 1.5655782e+01 
5.6531763e-01 -5.1352179e-01 1.5706993e+01 
-2.9355907e-01 9.6514887e-01 1.5636570e+01 
3.8615373e-01 1.5548550e-01 1.5649662e+01 
-3.8385710e-01 8.4824699e-01 1.5617616e+01 
1.0621969e-01 5.9001374e-01 1.5616378e+01 
-1.0372468e-01 7.3396140e-01 1.5604271e+01 
2.9847535e-01 6.4806461e-01 1.5605638e+01 
1.3785295e+00 -1.0845397e+00 1.5715752e+01 
6.1164085e-02 3.0980992e-01 1.5592854e+01 
1.3903568e+00 -1.1481289e+00 1.5710754e+01 
6.3268036e-01 9.5049009e-02 1.5607296e+01 
-1.6197157e-01 1.4800543e-01 1.5579944e+01 
-4.1186136e-01 5.9406406e-01 1.5568826e+01 
8.8089675e-01 -3.7404719e-01 1.5624308e+01 
-1.1014346e-01 4.7145745e-01 1.5552116e+01 
2.6085934e-01 -2.6917911e-01 1.5578817e+01 
-3.0315858e-01 3.6978927e-01 1.5550025e+01 
-4.6722025e-01 7.9053265e-01 1.5532338e+01 
1.3650000e-01 7.6663476e-01 1.5512424e+01 
-3.5847428e-01 9.8523861e-01 1.5503307e+01 
-2.7477348e-01 7.4396527e-01 1.5503197e+01 
1.1713309e+00 -8.4181428e-01 1.5593399e+01 
-2.6070083e-02 8.4971285e-01 1.5493214e+01 
1.1265091e+00 -9.7458035e-01 1.5573278e+01 
-2.7438980e-02 6.3577199e-01 1.5463322e+01 
4.7573778e-01 4.1031143e-01 1.5476534e+01 
-2.2760706e-01 9.3595022e-01 1.5436339e+01 
1.6032120e-02 -5.6912716e-02 1.5450446e+01 
2.4932756e-01 4.6663558e-01 1.5440974e+01 
1.6155362e+00 -1.2958976e+00 1.5589123e+01 
3.5297540e-01 -5.6456500e-03 1.5439643e+01 
-4.6083120e-01 7.3091680e-01 1.5404037e+01 
5.6421989e-01 -2.8115252e-01 1.5444899e+01 
-3.6981553e-01 4.9773604e-01 1.5385242e+01 
8.1825972e-01 -7.4504465e-01 1.5434031e+01 
2.9761061e-01 6.3967055e-01 1.5346203e+01 
1.3733258e+00 -1.1095833e+00 1.5458166e+01 
6.7155488e-02 7.9932123e-01 1.5330643e+01 
1.3866829e+00 -1.1732347e+00 1.5453117e+01 
6.2970066e-01 8.0818959e-02 1.5347911e+01 
-2.3671228e-01 7.6606846e-01 1.5311933e+01 
-1.6476201e-01 1.4188616e-01 1.5321918e+01 
-1.0722505e-01 8.8457084e-01 1.5297688e+01 
2.5608411e-01 -2.7860162e-01 1.5320873e+01 
2.3290901e-01 1.9164035e-01 1.5266263e+01 
-2.5774530e-01 9.4648093e-01 1.5243493e+01 
1.1638430e+00 -1.0246648e+00 1.5342744e+01 
1.1392322e+00 -8.2720268e-01 1.5326898e+01 
-4.3705371e-01 9.6827382e-01 1.5224325e+01 
1.6993374e-01 5.1149338e-01 1.5231561e+01 
-4.3180862e-01 6.3183635e-01 1.5220451e+01 
-8.6183520e-04 6.5371680e-01 1.5220146e+01 
4.7413272e-01 3.9930865e-01 1.5217034e+01 
-1.1267290e-01 7.9109234e-01 1.5193165e+01 
5.0309384e-01 -4.9027678e-01 1.5242542e+01 
-1.8774281e-01 6.2182903e-01 1.5192114e+01 
1.2131685e-02 -6.4239830e-02 1.5192478e+01 
1.6106687e+00 -1.3233168e+00 1.5331416e+01 
-3.0931067e-01 3.6862016e-01 1.5174415e+01 
1.5747994e-01 7.4521875e-01 1.5168070e+01 
3.4972879e-01 -1.5338599e-02 1.5181494e+01 
-2.0091641e-03 8.3124977e-01 1.5148864e+01 
-1.6658716e-01 9.0854812e-01 1.5129660e+01 
-2.7338436e-01 8.2051158e-01 1.5120619e+01 
-2.8775656e-01 9.5955110e-01 1.5101163e+01 
8.3308792e-01 -3.3781424e-01 1.5137883e+01 
2.9682696e-01 6.3128799e-01 1.5086476e+01 
-1.6729695e-01 4.8341668e-01 1.5075784e+01 
1.3675342e+00 -1.1341040e+00 1.5200503e+01 
2.2009950e-02 3.2083866e-01 1.5075192e+01 
1.3821729e+00 -1.1978977e+00 1.5195403e+01 
6.2656391e-01 6.7180477e-02 1.5088032e+01 
-1.6792218e-01 1.3607800e-01 1.5063915e+01 
-3.9176998e-01 5.3393173e-01 1.5036872e+01 
2.5061396e-01 -2.8768069e-01 1.5062953e+01 
3.0521843e-01 3.8338867e-01 1.5042355e+01 
-4.6686521e-01 7.5427562e-01 1.5021172e+01 
-2.8089213e-01 3.0991268e-01 1.5018091e+01 
-3.3736002e-01 8.4849560e-01 1.5005038e+01 
1.3568535e-01 5.7095701e-01 1.5000425e+01 
8.9526571e-02 7.7936918e-01 1.4986291e+01 
1.1333442e+00 -8.4855199e-01 1.5069283e+01 
-7.1039289e-02 8.6251509e-01 1.4967088e+01 
-3.4714329e-01 9.8218000e-01 1.4960450e+01 
1.1198897e+00 -1.0183430e+00 1.5057896e+01 
-2.3737414e-01 9.3574136e-01 1.4947886e+01 
4.7237295e-01 3.8876620e-01 1.4957434e+01 
-2.2975573e-01 6.1258245e-01 1.4920455e+01 
-5.9128504e-02 6.7859548e-01 1.4921160e+01 
7.6855193e-03 -7.1211502e-02 1.4934546e+01 
1.6049714e+00 -1.3500855e+00 1.5073637e+01 
-2.1757613e-01 7.7228868e-01 1.4910197e+01 
3.4584898e-01 -2.4795977e-02 1.4923381e+01 
5.5347955e-01 -3.0358553e-01 1.4927353e+01 
-4.4246086e-01 6.5084559e-01 1.4870395e+01 
-3.3932489e-01 8.7928396e-01 1.4849665e+01 
-3.4942979e-01 4.3747497e-01 1.4853298e+01 
8.1396765e-01 -7.8242087e-01 1.4918606e+01 
1.7766170e-01 7.2302699e-01 1.4823714e+01 
2.9616645e-01 6.2296909e-01 1.4826840e+01 
1.3611654e+00 -1.1580096e+00 1.4942776e+01 
-1.5320788e-01 4.8590538e-01 1.4810863e+01 
2.1454575e-02 8.1229997e-01 1.4804514e+01 
1.3768108e+00 -1.2220333e+00 1.4937624e+01 
6.2321407e-01 5.4579273e-02 1.4828577e+01 
-1.7147520e-01 1.3060744e-01 1.4805960e+01 
-1.4017172e-01 8.9276445e-01 1.4785314e+01 
1.2467210e-01 1.4749560e-01 1.4798326e+01 
2.4444747e-01 -2.9641101e-01 1.4805103e+01 
-3.0656508e-01 9.6705753e-01 1.4766114e+01 
2.5571583e-02 6.2874395e-01 1.4758168e+01 
-4.3708694e-01 9.6846980e-01 1.4752132e+01 
-1.2516357e-01 7.0937365e-01 1.4738659e+01 
-3.5398668e-01 7.6878375e-01 1.4721320e+01 
1.1552285e+00 -1.0685762e+00 1.4827239e+01 
4.7894806e-01 -5.0220823e-01 1.4741555e+01 
-4.1327086e-01 5.7176346e-01 1.4688498e+01 
1.1596775e+00 -9.1968250e-01 1.4786227e+01 
4.7074258e-01 3.7837458e-01 1.4697922e+01 
-3.0448279e-01 3.4151718e-01 1.4680147e+01 
2.0862576e-01 5.7962495e-01 1.4678875e+01 
3.8384132e-02 4.0350980e-01 1.4664308e+01 
2.6815643e-03 -7.7817224e-02 1.4676662e+01 
1.5984322e+00 -1.3760971e+00 1.4815801e+01 
3.3576795e-01 -6.7050435e-02 1.4671866e+01 
1.1139119e-01 7.5905490e-01 1.4641937e+01 
-4.6454869e-02 8.4470254e-01 1.4622739e+01 
8.9077479e-01 -4.9102193e-01 1.4680184e+01 
-1.9280958e-01 5.0147331e-01 1.4614559e+01 
-2.0977083e-01 9.2145497e-01 1.4603541e+01 
-3.3153003e-01 9.7662944e-01 1.4570190e+01 
6.1157978e-01 6.7498952e-02 1.4591021e+01 
2.9566967e-01 6.1475348e-01 1.4567291e+01 
-1.9037357e-01 7.3870105e-01 1.4556052e+01 
1.3542123e+00 -1.1811886e+00 1.4684988e+01 
1.3705611e+00 -1.2455441e+00 1.4679785e+01 
-1.7544435e-01 1.2550026e-01 1.4548053e+01 
-3.2961124e-01 8.2637054e-01 1.4532889e+01 
3.5901457e-02 6.1752498e-01 1.4532392e+01 
1.2089598e-01 1.4031935e-01 1.4540283e+01 
-4.6410590e-01 7.1794683e-01 1.4518614e+01 
2.3755652e-01 -3.0476934e-01 1.4547301e+01 
-3.7226900e-01 4.7364321e-01 1.4504929e+01 
1.8791378e-01 3.2981592e-01 1.4512667e+01 
1.9706813e-01 7.0008737e-01 1.4479358e+01 
1.1609153e+00 -9.4626862e-01 1.4574931e+01 
4.4421341e-02 7.9299754e-01 1.4460161e+01 
-1.1442842e-01 8.7627608e-01 1.4440967e+01 
1.1096842e+00 -1.0604633e+00 1.4542295e+01 
-2.7884921e-01 9.5136505e-01 1.4421771e+01 
4.6928474e-01 3.6818153e-01 1.4438496e+01 
-1.0550422e-01 3.5833931e-01 1.4424253e+01 
-2.9113228e-03 -8.4027812e-02 1.4418827e+01 
1.5910381e+00 -1.4012464e+00 1.4557902e+01 
-2.5848700e-02 6.5031976e-01 1.4348859e+01 
-2.7212211e-01 7.8379703e-01 1.4337504e+01 
-4.4104505e-01 6.3116628e-01 1.4330693e+01 
8.0596203e-01 -8.1847066e-01 1.4403049e+01 
-3.2972383e-01 3.7768844e-01 1.4321366e+01 
-4.3709773e-01 9.6853393e-01 1.4307393e+01 
6.3891351e-01 -2.8611219e-02 1.4333509e+01 
2.9537714e-01 6.0668069e-01 1.4307827e+01 
1.3466841e+00 -1.2035477e+00 1.4427135e+01 
1.3277957e-01 7.3836511e-01 1.4297582e+01 
1.3634061e+00 -1.2683455e+00 1.4421882e+01 
-1.7985290e-01 1.2078229e-01 1.4290194e+01 
-2.2387043e-02 8.2648307e-01 1.4278388e+01 
1.1658327e-01 1.3342936e-01 1.4282277e+01 
-1.8277803e-01 9.0655816e-01 1.4259195e+01 
2.2990321e-01 -3.1272325e-01 1.4289547e+01 
-1.6811252e-01 7.2405535e-01 1.4211874e+01 
3.0328512e-01 1.6331172e-01 1.4228312e+01 
-1.6698034e-01 4.7278798e-01 1.4204618e+01 
1.1429195e+00 -1.1104907e+00 1.4311510e+01 
1.1139276e+00 -9.0913379e-01 1.4296124e+01 
2.4339069e-01 5.0448495e-01 1.4203111e+01 
-4.7159278e-01 7.5391001e-01 1.4175302e+01 
4.7746009e-01 -5.3771698e-01 1.4211351e+01 
4.6804249e-01 3.5823464e-01 1.4179152e+01 
-3.9474836e-01 5.1143527e-01 1.4156555e+01 
7.2300121e-02 3.5067528e-01 1.4159969e+01 
-9.1241840e-03 -8.9814149e-02 1.4161039e+01 
1.5827767e+00 -1.4254283e+00 1.4299937e+01 
-2.8535068e-01 2.8414932e-01 1.4137811e+01 
2.1578607e-01 6.7653239e-01 1.4134999e+01 
3.3027017e-01 -5.1486567e-02 1.4149285e+01 
6.6999622e-02 7.7347124e-01 1.4115808e+01 
-8.9243576e-02 8.5927391e-01 1.4096618e+01 
-2.6124218e-01 9.4061387e-01 1.4092851e+01 
1.2225804e-01 5.5263114e-01 1.4054463e+01 
2.9532933e-01 5.9879011e-01 1.4048443e+01 
1.3385907e+00 -1.2249943e+00 1.4169216e+01 
1.3553277e+00 -1.2903521e+00 1.4163911e+01 
-1.8472412e-01 1.1647928e-01 1.4032383e+01 
6.1432260e-01 1.8191630e-02 1.4050725e+01 
2.5957242e-01 3.9396989e-01 1.4018848e+01 
8.4634966e-01 -4.6852788e-01 1.4061485e+01 
-5.9860498e-03 6.3259155e-01 1.4004549e+01 
2.2144981e-01 -3.2024029e-01 1.4031841e+01 
-4.9819529e-02 4.0268633e-01 1.3999243e+01 
-1.9944543e-01 7.3634368e-01 1.3986938e+01 
-3.4719691e-01 4.0056127e-01 1.3982096e+01 
9.2123158e-02 1.4723510e-01 1.3984679e+01 
-4.5284608e-01 6.5578663e-01 1.3968193e+01 
1.5372093e-01 7.1728909e-01 1.3953225e+01 
1.1068659e+00 -9.2775559e-01 1.4038267e+01 
1.2748209e-03 8.0800664e-01 1.3934036e+01 
1.0956001e+00 -1.1003604e+00 1.4026424e+01 
-1.7472638e-01 8.9971501e-01 1.3913497e+01 
4.6705875e-01 3.4858161e-01 1.3919888e+01 
-4.3708688e-01 9.6847099e-01 1.3887550e+01 
-1.5987959e-02 -9.5147155e-02 1.3903300e+01 
1.5736350e+00 -1.4485371e+00 1.4041904e+01 
-2.9418281e-01 6.9507390e-01 1.3867282e+01 
9.0846278e-02 5.3437543e-01 1.3842031e+01 
-6.8973839e-02 6.6629565e-01 1.3822162e+01 
7.9384726e-01 -8.5274220e-01 1.3887201e+01 
-4.7293293e-01 7.4544221e-01 1.3808571e+01 
-4.1659331e-01 5.5087721e-01 1.3808178e+01 
-3.1107169e-01 3.1900397e-01 1.3789448e+01 
1.3299420e+00 -1.2454352e+00 1.3911227e+01 
2.9556668e-01 5.9112114e-01 1.3789137e+01 
1.3463088e+00 -1.3114781e+00 1.3905870e+01 
8.9305706e-02 7.5384325e-01 1.3771453e+01 
-1.9008122e-01 1.1261698e-01 1.3774620e+01 
6.3061547e-01 -4.7180947e-02 1.3795012e+01 
-6.4498030e-02 8.4193754e-01 1.3752267e+01 
2.4289560e-01 1.2994128e-02 1.3765415e+01 
2.1215867e-01 -3.2728818e-01 1.3774183e+01 
-2.2421812e-01 9.2106360e-01 1.3733082e+01 
-4.6873474e-01 8.5886407e-01 1.3712041e+01 
-1.9830948e-01 5.7942361e-01 1.3714610e+01 
-3.0153254e-01 7.8242695e-01 1.3703809e+01 
1.0718384e+00 -9.0127075e-01 1.3788536e+01 
1.1266781e+00 -1.1498339e+00 1.3795504e+01 
-3.4434897e-01 9.7743464e-01 1.3665575e+01 
4.5333901e-01 -5.5303437e-01 1.3703171e+01 
-4.6569043e-01 6.9392210e-01 1.3643351e+01 
4.6637630e-01 3.3927006e-01 1.3660701e+01 
-1.3217612e-01 6.9917375e-01 1.3640168e+01 
4.6900649e-02 1.8800487e-01 1.3639596e+01 
-2.3533484e-02 -9.9997811e-02 1.3645610e+01 
1.5636004e+00 -1.4704670e+00 1.3783801e+01 
-3.6799935e-01 4.3051696e-01 1.3609793e+01 
1.7424937e-01 6.9584459e-01 1.3608868e+01 
-3.7769738e-01 8.3585364e-01 1.3586616e+01 
2.4648892e-02 7.8941560e-01 1.3589684e+01 
1.4973086e-01 3.8483772e-01 1.3590763e+01 
-3.0580577e-01 6.6992956e-01 1.3581012e+01 
-1.3055615e-01 8.7490153e-01 1.3570499e+01 
-2.9094264e-01 9.5382565e-01 1.3551317e+01 
2.0972269e-02 6.0810131e-01 1.3542573e+01 
1.3207482e+00 -1.2647774e+00 1.3653169e+01 
2.9612947e-01 5.8371311e-01 1.3529907e+01 
1.3363316e+00 -1.3316380e+00 1.3647760e+01 
-1.9594736e-01 1.0922109e-01 1.3516908e+01 
6.0971338e-01 -4.0323525e-03 1.3532552e+01 
-4.3705547e-01 9.6828729e-01 1.3490353e+01 
8.3652753e-01 -4.9750012e-01 1.3544726e+01 
2.0199226e-01 -3.3383468e-01 1.3516576e+01 
-1.5986684e-01 7.1079451e-01 1.3462194e+01 
-4.3711239e-01 5.9181511e-01 1.3459797e+01 
-3.3640110e-01 3.5547149e-01 1.3441081e+01 
1.0920643e+00 -9.6219587e-01 1.3522342e+01 
1.1145120e-01 7.3421210e-01 1.3427097e+01 
-6.7209810e-02 3.7790835e-01 1.3421897e+01 
-4.0071294e-02 8.2443833e-01 1.3407915e+01 
1.0774420e+00 -1.1375159e+00 1.3510271e+01 
-1.9723412e-01 9.0638292e-01 1.3388735e+01 
-2.1134290e-01 5.4278934e-01 1.3385677e+01 
4.6603793e-01 3.3034760e-01 1.3401587e+01 
1.6549182e-01 5.0476974e-01 1.3381678e+01 
-3.1791478e-02 -1.0433714e-01 1.3387971e+01 
1.5526603e+00 -1.4911116e+00 1.3525629e+01 
-3.1777310e-01 8.3616096e-01 1.3352032e+01 
-3.2176930e-01 9.6859372e-01 1.3350237e+01 
1.7737916e-01 2.1293494e-01 1.3351708e+01 
-4.7531435e-01 7.3679423e-01 1.3294961e+01 
-1.0996536e-01 6.8332571e-01 1.3295577e+01 
7.7736270e-01 -8.8487720e-01 1.3371052e+01 
-3.8535097e-01 4.5597905e-01 1.3274569e+01 
1.3110198e+00 -1.2829278e+00 1.3395042e+01 
2.9705799e-01 5.7660538e-01 1.3270750e+01 
1.9441311e-01 6.7406803e-01 1.3264508e+01 
1.3253790e+00 -1.3507451e+00 1.3389584e+01 
-1.7956576e-01 3.3065331e-01 1.3255570e+01 
-2.0234570e-01 1.0631732e-01 1.3259246e+01 
6.2631857e-01 -6.9389045e-02 1.3277392e+01 
4.7859546e-02 7.7084464e-01 1.3245329e+01 
2.2802582e-01 -6.8888138e-04 1.3249828e+01 
1.9091317e-01 -3.3984753e-01 1.3259018e+01 
-1.0508458e-01 8.5857791e-01 1.3226150e+01 
-2.6400864e-01 9.3769556e-01 1.3206971e+01 
3.9817676e-02 5.9040606e-01 1.3197306e+01 
1.0573726e+00 -9.3346387e-01 1.3272229e+01 
1.1063197e+00 -1.1860611e+00 1.3279217e+01 
1.8741484e-01 3.5368782e-01 1.3175085e+01 
-2.4937472e-01 7.5633901e-01 1.3159042e+01 
4.3067506e-01 -5.7183570e-01 1.3188737e+01 
4.6608624e-01 3.2186198e-01 1.3142548e+01 
-4.3700475e-01 9.6798998e-01 1.3113811e+01 
-4.5525008e-01 6.3406593e-01 1.3111395e+01 
-4.0792562e-02 -1.0813622e-01 1.3130382e+01 
1.5408019e+00 -1.5103647e+00 1.3267389e+01 
2.6093462e-01 8.3138973e-02 1.3106348e+01 
1.3349690e-01 7.1458882e-01 1.3082740e+01 
-3.4344840e-01 3.5415450e-01 1.3080933e+01 
-8.1251711e-02 4.1417411e-01 1.3077597e+01 
-1.5835032e-02 8.0693716e-01 1.3063562e+01 
-1.7066416e-01 8.9138329e-01 1.3044387e+01 
-1.8718151e-02 6.2612730e-01 1.3016360e+01 
1.3007677e+00 -1.2997931e+00 1.3136851e+01 
2.9839247e-01 5.6983709e-01 1.3011665e+01 
-3.0513042e-01 9.5955002e-01 1.2996790e+01 
1.3134340e+00 -1.3687133e+00 1.3131341e+01 
1.1010987e-01 5.2931899e-01 1.2997187e+01 
-2.0929933e-01 1.0393129e-01 1.3001636e+01 
6.0661882e-01 -2.4195135e-02 1.3014673e+01 
8.5946806e-02 1.0402728e-01 1.2992767e+01 
-3.0130395e-01 8.0012667e-01 1.2969798e+01 
1.7888413e-01 -3.4529471e-01 1.3001513e+01 
2.1499537e-01 3.4540004e-01 1.2980677e+01 
8.2803971e-01 -5.2445322e-01 1.3028271e+01 
-4.7951660e-01 7.7992523e-01 1.2946485e+01 
-4.2231765e-01 5.3210276e-01 1.2927900e+01 
2.1431424e-01 6.5207255e-01 1.2920148e+01 
1.0765678e+00 -9.9236852e-01 1.3006145e+01 
-3.2097343e-01 2.9873022e-01 1.2909169e+01 
7.1037114e-02 7.5242150e-01 1.2900973e+01 
1.0550202e+00 -1.1714077e+00 1.2993847e+01 
-7.9851381e-02 8.4218603e-01 1.2881799e+01 
4.6656382e-01 3.1386089e-01 1.2883579e+01 
-2.3696025e-01 9.2261899e-01 1.2862625e+01 
-5.0567221e-02 -1.1136619e-01 1.2872847e+01 
-2.0299853e-01 4.9703079e-01 1.2854340e+01 
1.5280126e+00 -1.5281192e+00 1.3009088e+01 
2.8896475e-01 -8.8859849e-02 1.2859762e+01 
4.7561729e-01 -3.8106626e-01 1.2857332e+01 
1.2822258e-01 4.8673731e-01 1.2802726e+01 
7.5625610e-01 -9.1451651e-01 1.2854616e+01 
-1.7809452e-01 6.8599164e-01 1.2769717e+01 
-4.6979380e-01 6.7697662e-01 1.2763021e+01 
-4.3693596e-01 9.6758664e-01 1.2756157e+01 
1.2900029e+00 -1.3152807e+00 1.2878600e+01 
-2.9873726e-01 7.8008473e-01 1.2747007e+01 
3.0017307e-01 5.6344748e-01 1.2752650e+01 
-3.8552719e-01 4.3304145e-01 1.2744390e+01 
1.3004798e+00 -1.3854553e+00 1.2873038e+01 
1.5549916e-01 6.9497883e-01 1.2738380e+01 
-2.1683127e-01 1.0208861e-01 1.2744080e+01 
6.2425303e-01 -9.0864800e-02 1.2760456e+01 
7.7801317e-02 9.9303842e-02 1.2734965e+01 
8.3449688e-03 7.8958195e-01 1.2719209e+01 
3.3872890e-01 3.0232005e-02 1.2736526e+01 
1.6586800e-01 -3.5014415e-01 1.2744060e+01 
-1.4442287e-01 8.7617397e-01 1.2700037e+01 
-1.8449791e-01 3.0186704e-01 1.2701662e+01 
-3.0187547e-01 9.5698327e-01 1.2680866e+01 
2.3293649e-03 6.0938323e-01 1.2671435e+01 
1.0477016e+00 -9.6979421e-01 1.2757165e+01 
2.7370933e-01 3.5006428e-01 1.2676649e+01 
1.0816654e+00 -1.2186236e+00 1.2762673e+01 
4.0433380e-01 -5.8916676e-01 1.2673455e+01 
4.6751311e-01 3.0639210e-01 1.2624680e+01 
1.6022690e-02 3.7641975e-01 1.2612455e+01 
-4.7869799e-01 8.1924951e-01 1.2597287e+01 
-6.1145820e-02 -1.1399825e-01 1.2615365e+01 
1.5142803e+00 -1.5442685e+00 1.2750729e+01 
-2.0527570e-01 5.1785111e-01 1.2591031e+01 
1.8143070e-01 5.5241060e-01 1.2595220e+01 
-4.4317263e-01 5.7523400e-01 1.2580170e+01 
2.7807450e-01 -9.5036693e-02 1.2601944e+01 
-1.1019305e-01 7.3877567e-01 1.2562892e+01 
9.4317704e-02 7.3426688e-01 1.2556616e+01 
-3.3900502e-01 3.1886992e-01 1.2557942e+01 
1.2787373e+00 -1.3292973e+00 1.2620296e+01 
3.0243993e-01 5.5747569e-01 1.2493704e+01 
-2.8811598e-01 9.4900405e-01 1.2482662e+01 
1.2865001e+00 -1.4008845e+00 1.2614684e+01 
-2.2496454e-01 1.0081484e-01 1.2486578e+01 
6.0531628e-01 -4.1561890e-02 1.2497073e+01 
1.5182780e-01 -3.5436389e-01 1.2486663e+01 
8.2515007e-01 -5.5734259e-01 1.2514465e+01 
5.1610828e-03 5.5814916e-01 1.2457284e+01 
-2.0373285e-02 8.0523312e-01 1.2437137e+01 
-4.7757077e-01 7.0301610e-01 1.2423616e+01 
-4.3685043e-01 9.6708477e-01 1.2415818e+01 
-1.0289153e-01 2.6436400e-01 1.2417974e+01 
-4.0274033e-01 4.5877570e-01 1.2403889e+01 
1.0852610e+00 -1.0584584e+00 1.2495218e+01 
-3.5954741e-01 8.1047982e-01 1.2389076e+01 
-3.2164350e-01 2.7267921e-01 1.2388545e+01 
2.3018686e-01 6.3164425e-01 1.2379828e+01 
1.0281512e+00 -1.2015097e+00 1.2477190e+01 
-1.6280395e-01 8.8453740e-01 1.2362038e+01 
4.6897659e-01 2.9950342e-01 1.2365848e+01 
-7.2558597e-02 -1.1600365e-01 1.2357941e+01 
-2.2399248e-01 4.3274549e-01 1.2341999e+01 
1.4995925e+00 -1.5587053e+00 1.2492321e+01 
9.6703462e-02 7.3105508e-01 1.2314382e+01 
1.2733641e-01 3.0902180e-01 1.2319661e+01 
-3.0816835e-01 9.5933527e-01 1.2287584e+01 
8.7770864e-02 5.4840654e-01 1.2294169e+01 
7.3028398e-01 -9.4130027e-01 1.2337939e+01 
-2.0394553e-01 7.2978890e-01 1.2256146e+01 
-4.8244226e-01 7.9784238e-01 1.2248699e+01 
-3.7349308e-01 3.7998748e-01 1.2248074e+01 
-4.5796156e-01 6.0754001e-01 1.2244059e+01 
-4.1221783e-02 8.1693637e-01 1.2239321e+01 
1.2669824e+00 -1.3417503e+00 1.2361948e+01 
-7.8369919e-03 4.0730500e-01 1.2238102e+01 
3.0523306e-01 5.5196083e-01 1.2234826e+01 
1.2714790e+00 -1.4149135e+00 1.2356285e+01 
-2.3372206e-01 1.0013551e-01 1.2229136e+01 
-2.0746611e-01 2.7058166e-01 1.2220011e+01 
6.0548884e-01 -4.9170893e-02 1.2238376e+01 
2.0821612e-01 6.4949894e-01 1.2191381e+01 
3.2230711e-01 7.7513851e-02 1.2200251e+01 
-3.1157303e-01 7.3287445e-01 1.2178113e+01 
1.0040576e-01 -3.2199886e-01 1.2203581e+01 
2.0162862e-02 1.7489009e-01 1.2181428e+01 
-1.8417470e-01 8.9497584e-01 1.2164399e+01 
1.0525843e+00 -1.0282480e+00 1.2231432e+01 
-9.0353720e-02 6.6492939e-01 1.2133118e+01 
-2.1807240e-01 4.7415379e-01 1.2126554e+01 
7.6256543e-02 7.4362546e-01 1.2116471e+01 
1.6766743e-01 4.9492988e-01 1.2114861e+01 
3.3054292e-01 3.5314083e-01 1.2112931e+01 
-4.3674943e-01 9.6649182e-01 1.2091389e+01 
4.7099650e-01 2.9324275e-01 1.2107084e+01 
3.8419643e-01 -3.7941349e-01 1.2125445e+01 
-8.4835634e-02 -1.1735373e-01 1.2100575e+01 
1.4839376e+00 -1.5713227e+00 1.2233875e+01 
-3.2605740e-01 2.6387706e-01 1.2076897e+01 
-4.8353019e-01 7.2964847e-01 1.2068616e+01 
-4.2077598e-01 4.8907673e-01 1.2069620e+01 
-2.2374906e-01 7.3990333e-01 1.2058296e+01 
2.2572052e-01 -1.0887859e-01 1.2081300e+01 
4.0287158e-01 -6.3958752e-01 1.2100692e+01 
-6.2014125e-02 8.2877678e-01 1.2041521e+01 
1.0678079e+00 -1.2702026e+00 1.2149069e+01 
1.8823517e-02 5.9465879e-01 1.2010375e+01 
-7.6366164e-02 2.8022614e-01 1.1999454e+01 
1.8916599e-01 6.6416407e-01 1.1993564e+01 
1.2547506e+00 -1.3525473e+00 1.2103568e+01 
-3.3225805e-01 7.3669118e-01 1.1973907e+01 
-2.0560715e-01 9.0532041e-01 1.1966599e+01 
3.0859244e-01 5.4694194e-01 1.1976015e+01 
1.2554008e+00 -1.4274551e+00 1.2097856e+01 
-2.4312671e-01 1.0007604e-01 1.1971752e+01 
8.5824579e-01 -6.6428977e-01 1.2022017e+01 
-2.5082573e-01 5.3413796e-01 1.1951968e+01 
1.2052803e-01 -3.6078674e-01 1.1972044e+01 
-4.8240688e-01 8.1432790e-01 1.1918587e+01 
5.6001946e-02 7.5646204e-01 1.1918639e+01 
-4.6942967e-01 6.3494289e-01 1.1913647e+01 
-3.8588190e-01 3.9134338e-01 1.1915720e+01 
1.6739134e-01 3.5034838e-01 1.1921924e+01 
1.0779656e+00 -1.0970501e+00 1.1961975e+01 
-2.4337895e-01 7.5002611e-01 1.1860259e+01 
6.1628836e-01 -9.0332001e-02 1.1890501e+01 
-8.2724065e-02 8.4066689e-01 1.1843717e+01 
-7.6726131e-02 2.6591611e-01 1.1841522e+01 
4.7361520e-01 2.8765807e-01 1.1848389e+01 
-9.8006859e-02 -1.1801988e-01 1.1843272e+01 
1.4673036e+00 -1.5820138e+00 1.1975403e+01 
3.2670915e-01 -1.1904577e-02 1.1834226e+01 
4.5572821e-04 6.0710853e-01 1.1812131e+01 
3.8780844e-01 -2.4742889e-01 1.1823841e+01 
1.6999674e-01 6.7857552e-01 1.1795753e+01 
-4.3663409e-01 9.6581483e-01 1.1781609e+01 
-2.2692995e-01 9.1565365e-01 1.1768798e+01 
-4.3469650e-01 5.1077086e-01 1.1739749e+01 
-1.2931679e-01 6.8820071e-01 1.1737127e+01 
-3.4154946e-01 2.7691117e-01 1.1741836e+01 
-4.8713863e-01 7.5794119e-01 1.1733777e+01 
1.2420541e+00 -1.3615960e+00 1.1845170e+01 
3.5937652e-02 7.6950157e-01 1.1720832e+01 
4.2846537e-01 -6.9923151e-01 1.1761827e+01 
1.2382505e+00 -1.4384220e+00 1.1839408e+01 
3.1255800e-01 5.4245794e-01 1.1717272e+01 
-2.5320125e-01 1.0066186e-01 1.1714434e+01 
6.4499480e-01 -9.1744953e-01 1.1768546e+01 
9.0730816e-01 -1.1648057e+00 1.1785751e+01 
-2.1130466e-01 4.4757602e-01 1.1677816e+01 
-2.6306832e-01 7.6037151e-01 1.1661976e+01 
-1.0336136e-01 8.5253704e-01 1.1645912e+01 
7.4519664e-01 -4.2368335e-01 1.1690743e+01 
5.5872023e-01 9.6872456e-02 1.1654709e+01 
8.6851364e-01 -7.0803988e-01 1.1687174e+01 
1.3785416e-01 -4.0553355e-01 1.1650260e+01 
1.0848269e-01 4.5572725e-01 1.1621511e+01 
1.5081076e-01 6.9288313e-01 1.1597945e+01 
9.8933470e-01 -9.6103287e-01 1.1668949e+01 
6.3609439e-01 -1.5555641e-01 1.1613204e+01 
-1.7689562e-01 2.2465055e-01 1.1580134e+01 
-2.4799094e-01 9.2629439e-01 1.1570996e+01 
-3.7680843e-01 3.4845668e-01 1.1572700e+01 
1.4496795e+00 -1.5906719e+00 1.1716921e+01 
1.0354440e-04 -1.1341533e-02 1.1573478e+01 
-4.7570992e-01 6.4296210e-01 1.1551521e+01 
-1.8008466e-01 6.9035500e-01 1.1546929e+01 
1.1204661e+00 -1.1983905e+00 1.1652870e+01 
2.9890034e-01 9.7799167e-02 1.1558789e+01 
3.9291227e-01 -9.6889652e-02 1.1558012e+01 
1.6034322e-02 7.8269434e-01 1.1523026e+01 
1.4280531e-02 5.9877366e-01 1.1505935e+01 
-4.3650565e-01 9.6506053e-01 1.1485345e+01 
3.5634094e-01 -3.2225284e-01 1.1500633e+01 
-2.8305587e-01 7.7126431e-01 1.1463570e+01 
3.1716958e-01 5.3854787e-01 1.1458597e+01 
-1.2396174e-01 8.6432779e-01 1.1448109e+01 
-2.6396841e-01 1.0191827e-01 1.1457181e+01 
2.1236716e-02 2.4853738e-01 1.1427737e+01 
-4.7771908e-02 -2.1244784e-01 1.1432858e+01 
1.2599494e-01 -4.1101530e-01 1.1440997e+01 
3.1335357e-01 -6.1041462e-01 1.1450569e+01 
5.1070267e-01 -8.1545979e-01 1.1461475e+01 
1.1553886e+00 -1.4039037e+00 1.1520743e+01 
1.3169727e-01 7.0721960e-01 1.1400137e+01 
2.9218513e-01 3.5036397e-01 1.1406528e+01 
-1.7296295e-01 4.9568379e-01 1.1396297e+01 
-4.8946527e-01 7.6523620e-01 1.1388591e+01 
-4.4102395e-01 5.0985140e-01 1.1388962e+01 
5.1507294e-01 2.0772985e-01 1.1403035e+01 
6.0319847e-01 -4.2916339e-02 1.1410690e+01 
6.9106740e-01 -3.0491889e-01 1.1419376e+01 
7.1302778e-01 -1.0173684e+00 1.1454381e+01 
-2.6865423e-01 9.3745703e-01 1.1373195e+01 
1.2798485e-01 4.9390945e-01 1.1380757e+01 
8.0459011e-01 -5.6844205e-01 1.1426432e+01 
-6.6135906e-02 7.0858783e-01 1.1355700e+01 
9.1463917e-01 -1.2071242e+00 1.1444681e+01 
9.1684037e-01 -8.3159316e-01 1.1417349e+01 
2.5796312e-01 6.0520214e-01 1.1324526e+01 
4.4076419e-01 -2.4267262e-01 1.1347119e+01 
1.0407975e+00 -1.0776430e+00 1.1409377e+01 
1.4310544e+00 -1.5971906e+00 1.1458447e+01 
1.1745355e+00 -1.3078183e+00 1.1402334e+01 
3.2713646e-01 1.2130059e-01 1.1271873e+01 
1.1407913e-01 -7.6720431e-02 1.1269252e+01 
5.9234458e-01 -6.5709096e-01 1.1278890e+01 
-4.3636206e-01 9.6423221e-01 1.1200000e+01 
-2.0572466e-01 9.0637535e-01 1.1200000e+01 
-4.8339441e-01 6.6078055e-01 1.1200000e+01 
-2.2417400e-02 8.0815083e-01 1.1200000e+01 
-3.9584818e-01 3.7146023e-01 1.1200000e+01 
1.5315689e-01 6.9351727e-01 1.1200000e+01 
3.2246676e-01 5.3525066e-01 1.1200000e+01 
-2.7545080e-01 1.0387052e-01 1.1200000e+01 
4.5846364e-01 3.2290107e-01 1.1200000e+01 
-1.4087093e-01 -1.0833271e-01 1.1200000e+01 
5.6579435e-01 8.5317343e-02 1.1200000e+01 
1.8477246e-02 -3.1142232e-01 1.1200000e+01 
6.4328587e-01 -1.7421484e-01 1.1200000e+01 
1.9690479e-01 -5.1062858e-01 1.1200000e+01 
7.4650526e-01 -4.3656185e-01 1.1200000e+01 
3.8613102e-01 -7.1419615e-01 1.1200000e+01 
-1.9560584e-01 7.0468944e-01 1.1134577e+01 
8.5753947e-01 -7.0566481e-01 1.1200000e+01 
5.8796662e-01 -9.2225361e-01 1.1200000e+01 
1.7575455e-01 3.2869652e-01 1.1136566e+01 
9.7245401e-01 -9.6031582e-01 1.1200000e+01 
7.9062802e-01 -1.1185732e+00 1.1200000e+01 
1.0974306e+00 -1.1987169e+00 1.1200000e+01 
9.9241376e-01 -1.3004321e+00 1.1200000e+01 
5.3024005e-02 5.7224816e-01 1.1085897e+01 
2.6795256e-01 -2.6140812e-01 1.1104345e+01 
1.2383145e+00 -1.4172381e+00 1.1200000e+01 
1.1980911e+00 -1.4632738e+00 1.1200000e+01 
1.4114177e+00 -1.6014645e+00 1.1200000e+01 
3.6826873e-01 1.3688477e-02 1.1065382e+01 
2.1208461e-01 6.4986551e-01 1.1042459e+01 
-1.2828793e-01 2.4649641e-01 1.1043783e+01 
4.4216421e-01 -2.4189423e-01 1.1050699e+01 
-2.7247071e-01 9.4008541e-01 1.1013877e+01 
-1.1185475e-01 8.6016059e-01 1.1013837e+01 
-4.5046005e-01 5.1607043e-01 1.1011039e+01 
6.7715861e-02 7.5361812e-01 1.1012318e+01 
-4.9234396e-01 7.6329440e-01 1.1007397e+01 
-3.6394876e-01 2.7670237e-01 1.1011428e+01 
6.4940035e-01 -7.8816670e-01 1.1053640e+01 
-1.0252687e-01 6.5472519e-01 1.0986630e+01 
5.2035671e-01 2.0590802e-01 1.0996965e+01 
-2.4511008e-01 7.3491734e-01 1.0965466e+01 
6.0763830e-01 -4.4854056e-02 1.0989310e+01 
6.9263721e-01 -3.0751863e-01 1.0980624e+01 
3.2843089e-01 5.3261274e-01 1.0943420e+01 
-2.8765514e-01 1.0653379e-01 1.0943059e+01 
8.6395390e-02 -4.1188291e-01 1.0959003e+01 
8.0159968e-01 -5.7201338e-01 1.0973569e+01 
-4.3620345e-01 9.6328586e-01 1.0912019e+01 
9.0856141e-01 -8.3549184e-01 1.0982653e+01 
2.6773971e-01 -6.1427432e-01 1.0949431e+01 
-3.5343415e-01 7.9590082e-01 1.0901624e+01 
1.0265691e+00 -1.0816268e+00 1.0990623e+01 
1.1539102e+00 -1.3115852e+00 1.0997667e+01 
4.6041489e-01 -8.2151818e-01 1.0938526e+01 
-1.2634234e-01 -1.5496553e-01 1.0890891e+01 
6.6260767e-01 -1.0240377e+00 1.0945621e+01 
8.6524326e-01 -1.2129753e+00 1.0955320e+01 
1.5491711e-01 6.9619536e-01 1.0856554e+01 
-2.6287124e-03 7.9979050e-01 1.0837053e+01 
-1.5568444e-01 8.8399374e-01 1.0834160e+01 
-4.8439527e-01 6.3897687e-01 1.0834063e+01 
-4.1505566e-01 3.9693645e-01 1.0836300e+01 
-2.1431731e-01 4.7528037e-01 1.0832105e+01 
1.7473961e-01 4.9155462e-01 1.0825747e+01 
-3.0184138e-01 9.5519644e-01 1.0806196e+01 
3.4609509e-01 2.5784469e-01 1.0822451e+01 
1.3907744e+00 -1.6034179e+00 1.0941692e+01 
-1.4248597e-02 6.1238313e-01 1.0782758e+01 
-1.5220626e-01 7.0714188e-01 1.0774961e+01 
-2.9281059e-01 7.9045337e-01 1.0766896e+01 
1.1220515e+00 -1.4323334e+00 1.0885547e+01 
4.6776271e-01 -3.8514861e-01 1.0800927e+01 
3.9069012e-01 -1.0031610e-01 1.0784259e+01 
5.6655556e-01 -6.6440094e-01 1.0800409e+01 
5.6970030e-01 9.2737161e-02 1.0745295e+01 
-7.3749353e-03 3.4272701e-01 1.0725983e+01 
9.6866745e-01 -9.7627032e-01 1.0789349e+01 
6.4554584e-01 -1.6556464e-01 1.0727811e+01 
8.0429375e-02 -5.2924015e-02 1.0701966e+01 
3.3508834e-01 5.3059572e-01 1.0686852e+01 
-3.0057424e-01 1.0989453e-01 1.0686161e+01 
7.4826874e-02 7.5359136e-01 1.0665436e+01 
-7.5178623e-02 8.4352595e-01 1.0662636e+01 
2.1717830e-01 6.5152174e-01 1.0667990e+01 
7.4421054e-01 -4.3051550e-01 1.0709261e+01 
-2.3151712e-01 9.2070389e-01 1.0659767e+01 
-4.9514797e-01 7.6207316e-01 1.0658118e+01 
-4.5786527e-01 5.1663250e-01 1.0660254e+01 
-3.7884614e-01 2.8476551e-01 1.0662377e+01 
-2.8479042e-02 -3.0301914e-01 1.0678803e+01 
8.5592526e-01 -7.1632469e-01 1.0712831e+01 
1.0818013e+00 -1.2069122e+00 1.0747135e+01 
1.4103369e-01 -5.0470626e-01 1.0660059e+01 
-4.3601641e-01 9.6218735e-01 1.0611157e+01 
-2.4626116e-01 4.5995566e-01 1.0595297e+01 
3.2309538e-01 -7.1019906e-01 1.0638179e+01 
-1.4385711e-01 2.5221160e-01 1.0583987e+01 
7.3940027e-01 -1.1292776e+00 1.0651805e+01 
9.4195461e-01 -1.3078843e+00 1.0670615e+01 
5.3371519e-01 -9.3187761e-01 1.0631460e+01 
-1.6963862e-01 -1.2201349e-01 1.0569201e+01 
2.0968537e-01 -2.4326652e-01 1.0573832e+01 
-8.6832335e-03 6.1379558e-01 1.0545935e+01 
4.9590066e-01 2.7330220e-01 1.0560711e+01 
-2.8825921e-01 7.8213406e-01 1.0539293e+01 
1.3691442e+00 -1.6030979e+00 1.0683448e+01 
1.7680784e-01 4.7756433e-01 1.0544557e+01 
-6.0598601e-02 7.3180713e-02 1.0514411e+01 
4.0590642e-03 8.0048066e-01 1.0491113e+01 
-1.4948367e-01 8.8370252e-01 1.0488247e+01 
-4.8963404e-01 6.4026183e-01 1.0484254e+01 
-4.2589879e-01 4.0016329e-01 1.0486393e+01 
1.6264772e-01 6.9690740e-01 1.0482800e+01 
-2.9108432e-01 9.5061767e-01 1.0473876e+01 
-4.8864546e-01 8.2117540e-01 1.0471625e+01 
1.9592251e-01 1.6991749e-01 1.0478845e+01 
-5.0459072e-02 3.8088334e-01 1.0463988e+01 
5.3317499e-01 -3.4144053e-01 1.0493754e+01 
1.1223180e+00 -1.4564800e+00 1.0560860e+01 
1.1721078e+00 -1.3778954e+00 1.0553770e+01 
9.8679167e-01 -1.0296589e+00 1.0513500e+01 
3.4241664e-01 5.2917963e-01 1.0430299e+01 
-3.1418461e-01 1.1392994e-01 1.0429308e+01 
6.0627621e-01 -5.9804386e-03 1.0434591e+01 
-2.0405807e-01 4.9496889e-01 1.0407965e+01 
-1.4234819e-03 -3.6180213e-01 1.0430250e+01 
-2.1469830e-01 7.4364811e-01 1.0373330e+01 
6.9403686e-02 5.8007914e-01 1.0374705e+01 
2.8130776e-01 -4.6679693e-01 1.0392269e+01 
7.5592613e-01 -4.5367852e-01 1.0387915e+01 
8.2026996e-02 7.5497860e-01 1.0319549e+01 
2.2468729e-01 6.5272796e-01 1.0322414e+01 
-6.8484202e-02 8.4421271e-01 1.0316724e+01 
-2.2540458e-01 9.1978282e-01 1.0313860e+01 
8.7339765e-01 -1.2740629e+00 1.0410577e+01 
-4.9800843e-01 7.6275808e-01 1.0308248e+01 
-4.6622705e-01 5.1941997e-01 1.0310396e+01 
-3.9276105e-01 2.8890631e-01 1.0312543e+01 
-4.3580070e-01 9.6092021e-01 1.0296348e+01 
1.7043735e-01 4.3776587e-01 1.0305046e+01 
-1.6500531e-01 2.4894071e-01 1.0296141e+01 
5.0267494e-01 2.7236614e-01 1.0304246e+01 
-1.9700445e-01 -1.0640979e-01 1.0301372e+01 
1.3465618e+00 -1.6005799e+00 1.0425287e+01 
2.5646466e-01 -6.7580140e-01 1.0311630e+01 
-7.0441119e-02 6.6750234e-01 1.0256505e+01 
-3.0357063e-01 6.6528237e-01 1.0237481e+01 
2.0245793e-01 -1.7674407e-01 1.0258663e+01 
5.2248931e-01 -9.6465749e-01 1.0251548e+01 
1.1568943e+00 -1.3752400e+00 1.0295738e+01 
-4.9923245e-02 -3.2539237e-01 1.0200959e+01 
1.1125000e+00 -1.4673275e+00 1.0289690e+01 
3.5039335e-01 5.2834451e-01 1.0173761e+01 
-3.2846275e-01 1.1861722e-01 1.0172503e+01 
2.1610047e-01 2.4257317e-01 1.0168056e+01 
3.8396064e-02 -4.2611089e-02 1.0169852e+01 
3.2949436e-02 4.7966546e-01 1.0155889e+01 
6.3021910e-01 -7.2194405e-02 1.0178760e+01 
1.5878049e-01 7.0688194e-01 1.0148026e+01 
1.1324463e-02 8.0207634e-01 1.0145179e+01 
-1.4295419e-01 8.8406783e-01 1.0142379e+01 
-3.0067918e-01 9.5541686e-01 1.0139524e+01 
-1.6371216e-01 4.5627066e-01 1.0138090e+01 
-4.9522230e-01 6.4235795e-01 1.0134391e+01 
-4.9045056e-01 8.2144779e-01 1.0132753e+01 
-4.3744072e-01 4.0413824e-01 1.0136547e+01 
9.5456904e-01 -9.7252202e-01 1.0199534e+01 
-2.8426567e-01 7.7951670e-01 1.0082590e+01 
-1.3673209e-01 7.0759237e-01 1.0082199e+01 
2.4860924e-01 4.8230401e-01 1.0074249e+01 
8.4858042e-01 -1.2770463e+00 1.0152571e+01 
2.5555322e-01 -2.4648367e-01 1.0068137e+01 
5.1010448e-01 2.7216801e-01 1.0047800e+01 
-2.1671665e-01 -1.0196337e-01 1.0044638e+01 
1.3230617e+00 -1.5959395e+00 1.0167228e+01 
7.7529657e-01 -4.9444857e-01 1.0053959e+01 
-1.4490202e-01 1.4239864e-01 9.9987736e+00 
4.8943095e-02 3.5870633e-01 9.9883900e+00 
-4.0904790e-01 3.0070582e-01 9.9843559e+00 
9.0018660e-02 7.5726742e-01 9.9736443e+00 
-6.1381206e-02 8.4570044e-01 9.9708223e+00 
2.3321448e-01 6.5493131e-01 9.9765034e+00 
-2.1906915e-01 9.1937536e-01 9.9679976e+00 
-4.3555352e-01 9.5946836e-01 9.9664049e+00 
-5.0098658e-01 7.6369864e-01 9.9583778e+00 
-4.7507864e-01 5.2287483e-01 9.9605427e+00 
-3.3994365e-01 5.6409836e-01 9.9357939e+00 
1.1413107e+00 -1.3707447e+00 1.0037815e+01 
2.9841021e-01 3.2440054e-01 9.9331694e+00 
1.3600083e-01 8.5861042e-02 9.9341335e+00 
1.0878718e+00 -1.4659765e+00 1.0031720e+01 
7.3592268e-02 5.8125567e-01 9.9117661e+00 
-3.4338519e-01 1.2393358e-01 9.9157457e+00 
3.5899600e-01 5.2807033e-01 9.9172440e+00 
3.8402972e-01 4.8806913e-02 9.9218016e+00 
6.3670993e-01 -7.1439907e-02 9.9224195e+00 
-5.1149085e-02 -3.5621014e-01 9.9168987e+00 
1.8192485e-01 4.9728128e-01 9.8894911e+00 
-2.0265424e-01 3.5994744e-01 9.8637590e+00 
-1.3053843e-01 7.0796174e-01 9.8550396e+00 
-2.7754515e-01 7.7832437e-01 9.8514147e+00 
9.8303294e-01 -1.0519426e+00 9.9082813e+00 
-7.4596074e-03 3.7070429e-01 9.8193989e+00 
-4.4922754e-01 4.1004151e-01 9.8115168e+00 
5.4513413e-01 -1.0309246e+00 9.8719616e+00 
8.2289559e-01 -1.2789456e+00 9.8946905e+00 
1.9204082e-02 8.0450314e-01 9.7992983e+00 
1.6744575e-01 7.0970887e-01 9.8021431e+00 
-1.3603751e-01 8.8504672e-01 9.7964554e+00 
-2.9463685e-01 9.5363247e-01 9.7936516e+00 
-4.9349558e-01 8.1685472e-01 9.7925329e+00 
2.7867436e-01 6.2057191e-01 9.7974482e+00 
-5.0084835e-01 6.4313847e-01 9.7871237e+00 
5.1816636e-01 2.7268142e-01 9.7913733e+00 
-2.3727283e-01 -9.6850000e-02 9.7879543e+00 
1.2986784e+00 -1.5892532e+00 9.9092836e+00 
4.2188305e-01 -2.8818470e-01 9.7896080e+00 
8.9280501e-02 -1.2662265e-01 9.7687483e+00 
-3.0042642e-01 5.5915475e-01 9.7335529e+00 
1.4164896e-01 5.5337936e-01 9.7377548e+00 
-3.5287723e-01 7.2765809e-01 9.7281885e+00 
2.1860358e-01 -4.3708253e-01 9.7557497e+00 
2.5578412e-01 3.0533549e-01 9.7133455e+00 
-1.9745693e-01 7.4357146e-01 9.6811943e+00 
1.1253717e+00 -1.3644751e+00 9.7800140e+00 
1.0622923e+00 -1.4629973e+00 9.7738733e+00 
-3.5892850e-01 1.2985624e-01 9.6590395e+00 
3.6820215e-01 5.2833700e-01 9.6607466e+00 
-7.7569559e-02 -3.5237771e-01 9.6602974e+00 
-8.3727315e-02 8.0361292e-02 9.6449223e+00 
-5.0603712e-01 7.4087399e-01 9.6307497e+00 
6.3270003e-01 -2.6355918e-02 9.6575518e+00 
-4.8018867e-01 5.0998074e-01 9.6291933e+00 
9.8678872e-02 7.6047069e-01 9.6277618e+00 
-3.1401148e-01 3.4692428e-01 9.6283598e+00 
-5.3711213e-02 8.4787005e-01 9.6249208e+00 
2.4262543e-01 6.5814412e-01 9.6306047e+00 
-2.1246788e-01 9.1946226e-01 9.6220818e+00 
-4.3527189e-01 9.5781380e-01 9.6200094e+00 
-2.6482046e-01 5.4668939e-01 9.5961075e+00 
7.9971343e-01 -5.4669142e-01 9.6291952e+00 
1.4809167e-01 -6.4046282e-01 9.6155968e+00 
9.7580832e-01 -1.0465014e+00 9.6506310e+00 
-5.2700765e-02 6.7107117e-01 9.5636206e+00 
7.9592752e-01 -1.2794187e+00 9.6369343e+00 
1.0328476e-01 5.7234484e-01 9.5279045e+00 
1.2734462e+00 -1.5805972e+00 9.6514692e+00 
-2.5863928e-01 -9.1094904e-02 9.5313215e+00 
5.2683794e-01 2.7387998e-01 9.5349684e+00 
-2.6815328e-01 7.7732509e-01 9.5055304e+00 
-5.0521606e-01 6.3083124e-01 9.4550381e+00 
-4.5785189e-01 3.9868823e-01 9.4554968e+00 
2.7687740e-02 8.0771762e-01 9.4533844e+00 
-1.2872757e-01 8.8661897e-01 9.4505472e+00 
-4.9754891e-01 8.0915153e-01 9.4478903e+00 
-2.8841469e-01 9.5214778e-01 9.4477081e+00 
1.9110993e-01 7.0373958e-01 9.4460230e+00 
1.1090925e+00 -1.3564972e+00 9.5223484e+00 
1.0357988e+00 -1.4584466e+00 9.5161610e+00 
-1.2192728e-01 2.0958273e-01 9.4057989e+00 
-3.7506929e-01 1.3636246e-01 9.4023838e+00 
3.7798938e-01 5.2912450e-01 9.4042721e+00 
-3.4811148e-01 7.1900129e-01 9.3849535e+00 
2.6802167e-01 2.3138267e-01 9.3973475e+00 
6.5161610e-01 -6.7353278e-02 9.4098053e+00 
-1.0497146e-01 -3.4788960e-01 9.4037485e+00 
2.6658010e-01 -5.0594610e-01 9.4066162e+00 
-2.9148772e-01 4.3810922e-01 9.3407087e+00 
1.1786608e-01 -1.2966305e-01 9.3563738e+00 
-1.8792231e-01 7.4423981e-01 9.3351355e+00 
-4.5800216e-02 6.7250550e-01 9.3366003e+00 
9.4948822e-01 -9.8836333e-01 9.3882580e+00 
7.6822096e-01 -1.2789141e+00 9.3793287e+00 
-4.8810059e-01 5.0436205e-01 9.2881088e+00 
-4.3243411e-01 2.8402200e-01 9.2892475e+00 
-5.1019770e-01 7.3821408e-01 9.2779684e+00 
1.0802168e-01 7.6451516e-01 9.2818460e+00 
-4.5580804e-02 8.5074252e-01 9.2790098e+00 
-2.0555407e-01 9.2002243e-01 9.2761745e+00 
2.5815895e-01 6.5819556e-01 9.2782669e+00 
4.8963958e-01 -1.0387117e+00 9.3388395e+00 
1.2473996e+00 -1.5700480e+00 9.3937960e+00 
-2.8078249e-01 -8.4723234e-02 9.2747402e+00 
5.3609639e-01 2.7573743e-01 9.2785873e+00 
-4.3495238e-01 9.5593679e-01 9.2556868e+00 
-4.1755326e-02 4.5135471e-01 9.2352867e+00 
9.3880393e-02 5.8597875e-01 9.2162657e+00 
-2.6056272e-01 3.1429091e-01 9.1734829e+00 
4.1232476e-01 -1.9540328e-01 9.1938658e+00 
-1.1122337e-01 7.1134639e-01 9.1627703e+00 
2.3728316e-01 3.2373977e-01 9.1722260e+00 
-2.5822443e-01 7.7669036e-01 9.1596966e+00 
1.0924883e+00 -1.3468766e+00 9.2648268e+00 
1.0084282e+00 -1.4523816e+00 9.2585945e+00 
-3.9178419e-01 1.4342952e-01 9.1457796e+00 
3.8833520e-01 5.3041273e-01 9.1478214e+00 
-2.3429358e-02 1.6330582e-01 9.1463003e+00 
-1.2195729e-01 8.3756842e-02 9.1305380e+00 
6.4940518e-01 -2.1957723e-02 9.1469393e+00 
-5.1023871e-01 6.1497682e-01 9.1083241e+00 
3.6723234e-02 8.1169760e-01 9.1074715e+00 
1.8710338e-01 7.1809340e-01 9.1103039e+00 
-1.2104975e-01 8.8877779e-01 9.1046381e+00 
-2.8202495e-01 9.5100069e-01 9.1018038e+00 
-1.6320670e-01 -3.0242404e-01 9.1214838e+00 
-2.6718250e-01 5.5357784e-01 9.0989389e+00 
-4.6030825e-01 3.5683566e-01 9.0983553e+00 
-5.0173581e-01 8.0270898e-01 9.0884829e+00 
8.0803865e-01 -5.4432118e-01 9.1267891e+00 
9.6165925e-01 -1.0313355e+00 9.1357632e+00 
7.3927337e-01 -1.2770365e+00 9.1218653e+00 
2.8626457e-01 4.9412069e-01 9.0361595e+00 
1.2205725e+00 -1.5576820e+00 9.1362715e+00 
-3.0366915e-01 -7.7760108e-02 9.0182104e+00 
5.4591900e-01 2.7822751e-01 9.0222301e+00 
8.9340076e-02 -4.0768924e-01 9.0254860e+00 
-1.7783689e-01 7.4539250e-01 8.9890938e+00 
9.9522248e-02 5.7235891e-01 8.9917288e+00 
-3.8291094e-01 8.1744242e-01 8.9814987e+00 
8.1994951e-02 -6.4441770e-01 9.0199261e+00 
1.2108257e-01 3.5583904e-01 8.9843884e+00 
-1.1544083e-02 -1.2288015e-01 8.9932880e+00 
-2.5796673e-01 3.7313464e-01 8.9637537e+00 
-4.9631399e-01 4.9409160e-01 8.9385614e+00 
1.1798970e-01 7.6937097e-01 8.9359293e+00 
-3.6997564e-02 8.5428458e-01 8.9330988e+00 
-1.9836514e-01 9.2106760e-01 8.9302673e+00 
-5.1556134e-01 7.2552896e-01 8.9286518e+00 
2.7833381e-01 6.5549785e-01 8.9361753e+00 
2.1098655e-01 1.0405134e-01 8.9367847e+00 
-3.3831710e-01 5.8316857e-01 8.9207945e+00 
3.3951709e-01 3.4253466e-01 8.9277334e+00 
1.0755749e+00 -1.3356798e+00 9.0074577e+00 
9.8021752e-01 -1.4448594e+00 9.0011806e+00 
-4.0904990e-01 1.5103471e-01 8.8892279e+00 
3.9921719e-01 5.3218174e-01 8.8913965e+00 
-4.3459129e-01 9.5381546e-01 8.8717823e+00 
-1.6255043e-01 -3.3705169e-01 8.8908062e+00 
6.6892749e-01 -6.0052466e-02 8.8972883e+00 
-1.4213079e-01 8.6018130e-02 8.8734007e+00 
-9.6682012e-02 3.9130130e-01 8.8579569e+00 
2.3405799e-01 5.0085992e-01 8.8556948e+00 
5.8151168e-01 -4.4527912e-01 8.8763237e+00 
-1.0064393e-01 7.1388501e-01 8.8166733e+00 
-2.4781279e-01 7.7644581e-01 8.8138924e+00 
9.3684685e-01 -9.6710074e-01 8.8563414e+00 
7.0970172e-01 -1.2742751e+00 8.8645697e+00 
4.3037844e-01 -1.2650566e-01 8.7956905e+00 
-4.7903636e-01 3.7906823e-01 8.7687998e+00 
-2.5624356e-01 5.5068243e-01 8.7627573e+00 
4.6285801e-02 8.1640494e-01 8.7615576e+00 
1.9798943e-01 7.2356910e-01 8.7643862e+00 
-1.1301611e-01 8.9150751e-01 8.7587290e+00 
3.3621466e-01 6.1028630e-01 8.7672138e+00 
-5.1674736e-01 6.0401762e-01 8.7588806e+00 
-2.7546144e-01 9.5021588e-01 8.7559004e+00 
1.1929990e+00 -1.5435756e+00 8.8789034e+00 
3.9786130e-02 -2.0565841e-01 8.7730522e+00 
-3.2726622e-01 -7.0230559e-02 8.7617321e+00 
3.4655103e-01 4.4023934e-01 8.7588854e+00 
5.5628294e-01 2.8132406e-01 8.7658987e+00 
1.7792396e-01 3.0889133e-01 8.7564507e+00 
4.2654303e-01 -1.0394922e+00 8.8102951e+00 
-5.0659478e-01 7.9540640e-01 8.7209902e+00 
4.3153241e-02 6.3888371e-01 8.6984682e+00 
-3.5904813e-01 6.9391853e-01 8.6759434e+00 
-1.5660766e-01 1.8931584e-01 8.6841078e+00 
1.0583682e+00 -1.3229727e+00 8.7502480e+00 
9.5120317e-01 -1.4359376e+00 8.7439260e+00 
-1.7453872e-01 7.3886186e-01 8.6368856e+00 
-4.2684314e-01 1.5915540e-01 8.6327276e+00 
4.1061294e-01 5.3441143e-01 8.6349964e+00 
1.9271940e-01 5.1449734e-01 8.6236410e+00 
-1.3443705e-01 4.9413812e-01 8.6038780e+00 
6.6271383e-01 1.0023672e-02 8.6199551e+00 
-2.2106238e-01 -2.8972939e-01 8.6086388e+00 
-5.0609976e-01 4.8574665e-01 8.5891190e+00 
1.2855226e-01 7.7499187e-01 8.5900145e+00 
-2.7979759e-02 8.5846740e-01 8.5871878e+00 
2.9156241e-01 6.6021949e-01 8.5922842e+00 
-5.2150267e-01 7.1332443e-01 8.5791912e+00 
-2.0293278e-01 9.2680115e-01 8.5651779e+00 
-3.4845272e-01 2.6506442e-01 8.5374575e+00 
-2.0731302e-02 6.8123597e-01 8.5243654e+00 
6.7894369e-01 -1.2702109e+00 8.6074266e+00 
9.5451957e-01 -1.0339602e+00 8.6007423e+00 
-3.4053621e-01 6.0918862e-01 8.5148849e+00 
1.1647127e+00 -1.5278051e+00 8.6216974e+00 
3.2584947e-01 3.2342792e-01 8.5119686e+00 
-3.5154083e-01 -6.2159576e-02 8.5053062e+00 
5.6716549e-01 2.8500089e-01 8.5095940e+00 
-2.6485610e-01 8.0363870e-01 8.4889936e+00 
2.8776488e-01 -1.6253668e-01 8.5097017e+00 
5.7049954e-01 -2.4264346e-01 8.5184412e+00 
4.1834536e-01 2.0718055e-02 8.5040760e+00 
2.4242148e-02 -4.0471587e-01 8.5104084e+00 
-1.1677969e-01 3.3303791e-01 8.4762630e+00 
1.2649661e-02 -6.3567626e-01 8.5072861e+00 
8.0152732e-01 -4.6984339e-01 8.5170498e+00 
-4.3418452e-01 9.5142555e-01 8.4664383e+00 
7.0344543e-01 -7.7642304e-01 8.5222340e+00 
-6.4137720e-02 -1.1807974e-01 8.4792786e+00 
1.6382842e-01 5.2238417e-01 8.4426498e+00 
3.7444898e-01 -5.1724184e-01 8.4674902e+00 
7.2131880e-02 9.7722352e-02 8.4398079e+00 
-4.9282119e-01 3.7294137e-01 8.4193668e+00 
5.6350082e-02 8.2180130e-01 8.4156446e+00 
2.0952582e-01 7.2983551e-01 8.4184675e+00 
-1.0463587e-01 8.9478934e-01 8.4128199e+00 
-5.2434504e-01 5.9404379e-01 8.4094305e+00 
-2.2802094e-01 1.1440862e-01 8.4105759e+00 
1.0408843e+00 -1.3088216e+00 8.4932013e+00 
-2.4716572e-01 9.4305587e-01 8.3844423e+00 
9.2142171e-01 -1.4256743e+00 8.4868355e+00 
6.7391664e-01 3.5032355e-03 8.4099483e+00 
-4.4514069e-01 1.6776896e-01 8.3762789e+00 
4.2250007e-01 5.3708184e-01 8.3786240e+00 
-2.2355090e-01 -3.2390666e-01 8.3780718e+00 
-8.6261213e-02 7.1858788e-01 8.3504505e+00 
-5.1188838e-01 7.8860885e-01 8.3444719e+00 
-3.1850341e-01 3.0644551e-01 8.3356838e+00 
-2.8428924e-01 8.1682116e-01 8.2883368e+00 
-3.9191428e-01 6.9271439e-01 8.2707815e+00 
7.3420680e-01 -1.0808843e+00 8.3436756e+00 
9.2505962e-01 -9.4006109e-01 8.3232698e+00 
1.1357471e+00 -1.5104461e+00 8.3646564e+00 
-4.7946897e-01 2.6325303e-01 8.2496252e+00 
1.6424718e-01 4.5093688e-01 8.2484865e+00 
1.3967291e-01 7.8133523e-01 8.2440977e+00 
-1.8546598e-02 8.6326158e-01 8.2412767e+00 
2.9426879e-01 6.7510945e-01 8.2472029e+00 
-3.2295382e-01 9.6276450e-01 8.2387924e+00 
-1.7891942e-01 9.2326796e-01 8.2389822e+00 
6.8333805e-01 -1.2915653e+00 8.3259964e+00 
-5.1734257e-01 4.7846311e-01 8.2396803e+00 
-3.7646037e-01 -5.3572066e-02 8.2489309e+00 
5.7854390e-01 2.8923202e-01 8.2533159e+00 
-5.2811903e-01 7.0190322e-01 8.2297335e+00 
-8.4440924e-02 2.4004152e-01 8.2135372e+00 
1.7245214e-01 5.9017521e-01 8.2088995e+00 
4.5595393e-01 -1.4345273e-01 8.2235098e+00 
4.7444712e-02 -2.6702589e-01 8.2119379e+00 
-1.5138048e-01 7.5163144e-01 8.1771002e+00 
8.2322821e-02 -4.5833343e-01 8.1924286e+00 
3.4050396e-01 -1.0276321e+00 8.2121439e+00 
2.8307733e-01 3.1882936e-01 8.1523495e+00 
1.0231395e+00 -1.2932925e+00 8.2363205e+00 
-3.3154118e-01 3.0351427e-01 8.1419649e+00 
8.9090908e-01 -1.4141275e+00 8.2299109e+00 
-4.6391937e-01 1.7685279e-01 8.1198816e+00 
4.3485621e-01 5.4017287e-01 8.1222773e+00 
6.9899029e-01 -4.3689050e-02 8.1287117e+00 
-2.8207582e-01 -2.7485129e-01 8.0959997e+00 
6.6888630e-02 8.2784891e-01 8.0697308e+00 
2.2166969e-01 7.3684537e-01 8.0725498e+00 
-9.5920794e-02 8.9860374e-01 8.0669117e+00 
-5.0827509e-01 3.6783126e-01 8.0699396e+00 
-2.6177463e-01 9.4979984e-01 8.0640936e+00 
-2.6008067e-01 1.0648855e-01 8.0735512e+00 
6.4851981e-01 -7.8412604e-01 8.1195183e+00 
-2.2329505e-01 5.5398512e-01 8.0623665e+00 
-5.3312832e-01 5.8507669e-01 8.0599842e+00 
-4.3372753e-01 9.4874060e-01 8.0375557e+00 
-5.2321082e-01 7.5747585e-01 8.0115471e+00 
6.1542207e-01 -1.2593727e+00 8.0936594e+00 
9.3992329e-01 -1.0089635e+00 8.0873823e+00 
-2.2297658e-01 7.7804589e-01 8.0044756e+00 
-7.4452601e-02 7.2240442e-01 8.0041332e+00 
-3.6136040e-01 4.9387503e-01 8.0044289e+00 
1.1061351e+00 -1.4915744e+00 8.1077843e+00 
2.9145613e-01 5.4180735e-01 7.9911699e+00 
-1.4475222e-01 3.0959821e-01 7.9872270e+00 
-4.0199244e-01 -4.4492871e-02 7.9926066e+00 
5.9039557e-01 2.9399142e-01 7.9970646e+00 
-4.4554096e-02 -3.9991465e-01 7.9958663e+00 
4.2122194e-01 4.1943295e-03 7.9894333e+00 
-4.0596098e-01 6.3826919e-01 7.9660654e+00 
-6.0304228e-02 -6.2474984e-01 7.9948549e+00 
8.1381553e-01 -4.5454866e-01 8.0049200e+00 
1.2712544e-01 5.9239823e-01 7.9573908e+00 
2.4754658e-01 9.2291780e-02 7.9672699e+00 
-1.1973523e-01 -1.1169641e-01 7.9654584e+00 
-3.7964118e-01 2.5338769e-01 7.9495854e+00 
1.5088497e-01 3.5651553e-01 7.9499626e+00 
-5.2943951e-01 4.7433874e-01 7.9119034e+00 
5.9337515e-01 -2.8124234e-01 7.9350963e+00 
3.1885532e-01 6.7319053e-01 7.9025068e+00 
1.5131791e-01 7.8835660e-01 7.8981819e+00 
-8.7160785e-03 8.6863595e-01 7.8953657e+00 
-1.7518273e-01 9.2704153e-01 7.8925495e+00 
2.2552247e-01 -2.0591891e-01 7.9121666e+00 
1.0051506e+00 -1.2764516e+00 7.9796081e+00 
-5.3552258e-01 6.9132280e-01 7.8802786e+00 
3.8341039e-01 3.4040910e-01 7.8882704e+00 
8.5970104e-01 -1.4013554e+00 7.9731536e+00 
6.9574314e-01 1.5768368e-02 7.8976002e+00 
4.9275979e-01 -9.7176802e-01 7.9227891e+00 
-3.0898604e-01 9.6096373e-01 7.8590283e+00 
-4.8315606e-01 1.8638438e-01 7.8635340e+00 
4.4765896e-01 5.4366452e-01 7.8659582e+00 
-4.9943817e-01 8.3642977e-01 7.8501806e+00 
-1.4142630e-01 5.3929780e-02 7.8569007e+00 
-2.8764284e-01 -3.0866376e-01 7.8655424e+00 
7.9938918e-01 -1.1371707e+00 7.9150081e+00 
3.6245189e-03 6.9095856e-01 7.8316150e+00 
-2.7118653e-01 8.1543225e-01 7.8216276e+00 
2.7262101e-01 5.1138359e-01 7.8215570e+00 
-3.8272721e-01 7.3143405e-01 7.8033528e+00 
-1.8499297e-01 6.2829256e-01 7.7926941e+00 
-3.6069176e-01 4.7666100e-01 7.7924647e+00 
3.7011921e-01 -6.0834247e-01 7.8187809e+00 
-5.2156681e-01 3.4795368e-01 7.7541862e+00 
2.6617838e-02 4.7605127e-01 7.7479396e+00 
1.0759100e+00 -1.4712652e+00 7.8510790e+00 
9.2050636e-01 -9.3755817e-01 7.8052182e+00 
6.1837429e-01 -1.2768204e+00 7.8125854e+00 
-4.2810482e-01 -3.4946758e-02 7.7363319e+00 
-3.2274339e-01 2.7786177e-01 7.7291865e+00 
-5.4223609e-01 5.5960876e-01 7.7243195e+00 
6.0269767e-01 2.9925314e-01 7.7408409e+00 
7.7874847e-02 8.3450913e-01 7.7238169e+00 
-2.3321724e-01 9.4464725e-01 7.7203956e+00 
2.3437987e-01 7.4455059e-01 7.7266312e+00 
-8.6880401e-02 9.0292883e-01 7.7210031e+00 
3.7676823e-01 6.3152111e-01 7.7294450e+00 
6.8377519e-01 -1.0141695e+00 7.7711883e+00 
-5.2346951e-01 7.7285844e-01 7.7002845e+00 
2.1143490e-01 2.9213715e-01 7.6986165e+00 
-1.6941430e-02 -2.6417714e-01 7.6993732e+00 
5.0960374e-01 -2.4504393e-01 7.6993718e+00 
2.2323951e-02 1.4287442e-01 7.6546044e+00 
-3.6662865e-01 6.4430964e-01 7.6424637e+00 
2.7235264e-01 -1.0232878e+00 7.6989808e+00 
9.8693442e-01 -1.2583646e+00 7.7230625e+00 
-2.2330627e-01 7.9383880e-01 7.6247430e+00 
2.8360736e-01 5.1642221e-01 7.6298990e+00 
8.2783300e-01 -1.3874161e+00 7.7165642e+00 
1.5041521e-01 6.0225070e-01 7.6098685e+00 
1.2673241e-02 6.9417721e-01 7.6060653e+00 
-5.0282770e-01 1.9634119e-01 7.6072359e+00 
4.6088600e-01 5.4753679e-01 7.6096663e+00 
7.2146952e-01 -2.9509978e-02 7.6164637e+00 
-4.3321538e-01 9.4573146e-01 7.5827551e+00 
-2.5264931e-01 1.0216228e-01 7.5883284e+00 
4.8183149e-01 5.2806005e-02 7.5911026e+00 
-3.4592840e-01 -2.5799733e-01 7.5835619e+00 
-5.4104578e-01 4.3653059e-01 7.5634985e+00 
3.9862400e-01 3.4875602e-01 7.5741296e+00 
3.3413815e-01 6.8013424e-01 7.5586872e+00 
1.6345270e-01 7.9601187e-01 7.5522661e+00 
1.4922245e-03 8.7455940e-01 7.5494542e+00 
-1.6693050e-01 9.2994499e-01 7.5466428e+00 
-2.5112793e-01 4.1790581e-01 7.5499916e+00 
-3.6611035e-02 4.7160843e-01 7.5450315e+00 
-5.4659653e-01 6.4959574e-01 7.5386319e+00 
5.4869848e-01 -1.2446201e+00 7.5805616e+00 
9.2926389e-01 -1.0015907e+00 7.5693898e+00 
1.0451040e+00 -1.4495933e+00 7.5945411e+00 
1.7908058e-01 3.6828938e-01 7.4863286e+00 
-4.5476553e-01 -2.4958432e-02 7.4801064e+00 
6.1542767e-01 3.0499130e-01 7.4846439e+00 
7.2676587e-01 -8.0385220e-01 7.5210009e+00 
-1.1670247e-01 -3.9342350e-01 7.4818807e+00 
-1.3650212e-01 -6.1185795e-01 7.4826269e+00 
5.3048933e-01 -3.3436474e-01 7.4757018e+00 
3.5349858e-01 5.1740575e-01 7.4480901e+00 
-4.0129086e-01 8.1215405e-01 7.4368324e+00 
-1.7806332e-01 -1.0389993e-01 7.4518371e+00 
-5.3058509e-02 7.2935098e-01 7.4325395e+00 
-2.0207873e-01 7.7973253e-01 7.4308438e+00 
-3.7547913e-01 6.2480003e-01 7.4250269e+00 
8.5236454e-01 -5.5639571e-01 7.4669466e+00 
7.9164788e-02 6.4549094e-01 7.4078040e+00 
7.1264839e-01 -1.0984622e+00 7.4615078e+00 
-2.4944128e-01 6.6993284e-01 7.3856726e+00 
1.6057475e-01 -2.1289384e-01 7.3987231e+00 
-5.5380940e-01 5.2561247e-01 7.3774667e+00 
8.9281425e-02 8.4174323e-01 7.3779035e+00 
9.6850806e-01 -1.2390971e+00 7.4666829e+00 
-7.7527374e-02 9.0774226e-01 7.3750939e+00 
-2.4729325e-01 9.5099175e-01 7.3722849e+00 
7.9534000e-01 -1.3723683e+00 7.4601407e+00 
2.7162221e-01 7.3732501e-01 7.3722682e+00 
-5.3776461e-01 7.3724139e-01 7.3526134e+00 
7.2574705e-01 5.8612502e-03 7.3801708e+00 
-5.2291125e-01 2.0670080e-01 7.3509855e+00 
4.7451502e-01 5.5176979e-01 7.3534012e+00 
-3.7361547e-01 3.4685251e-01 7.3389816e+00 
-3.5450119e-01 -2.9153112e-01 7.3532109e+00 
-1.1654796e-01 1.7053550e-01 7.3315358e+00 
-3.5986084e-01 9.5996910e-01 7.3130751e+00 
-7.3609702e-02 5.2244449e-01 7.3110704e+00 
-4.8852953e-01 8.6421120e-01 7.3003173e+00 
-3.0513451e-01 8.3745331e-01 7.2920294e+00 
-3.8737705e-01 7.5585496e-01 7.2678695e+00 
-1.2924121e-01 7.4511421e-01 7.2671618e+00 
9.1525537e-01 -9.3899792e-01 7.3388429e+00 
2.5973171e-02 7.0016855e-01 7.2600379e+00 
2.2025937e-01 5.9376210e-01 7.2632217e+00 
2.8885719e-01 -6.5830284e-01 7.2759099e+00 
1.0137495e+00 -1.4266331e+00 7.3381686e+00 
5.5055904e-01 -1.2583108e+00 7.2998376e+00 
4.6081394e-01 -1.9988894e-01 7.2420793e+00 
-5.5641353e-01 4.0619594e-01 7.2162991e+00 
-4.8194274e-01 -1.4552530e-02 7.2239275e+00 
6.2856281e-01 3.1118006e-01 7.2284737e+00 
3.4073550e-01 2.0778476e-01 7.2180400e+00 
-2.8585461e-01 9.5893598e-01 7.2023616e+00 
1.7604274e-01 8.0425704e-01 7.2063498e+00 
1.2058165e-02 8.8099986e-01 7.2035432e+00 
-1.5842530e-01 9.3328327e-01 7.2007360e+00 
4.0580630e-01 -1.0115606e+00 7.2617369e+00 
-5.5863327e-01 6.1447096e-01 7.1914349e+00 
3.5057119e-01 6.8910593e-01 7.1850028e+00 
-5.1258945e-01 8.1875181e-01 7.1665721e+00 
-8.4272422e-02 -2.6004890e-01 7.1870441e+00 
-2.0228083e-01 5.6368965e-01 7.1605220e+00 
-2.5541466e-01 8.1212306e-01 7.1411824e+00 
-3.9199868e-01 5.0551659e-01 7.1353583e+00 
2.0102927e-01 -1.0162532e+00 7.1864786e+00 
7.1135253e-02 4.1218650e-01 7.1344824e+00 
9.4988883e-01 -1.2187147e+00 7.2104664e+00 
6.9348520e-01 -1.0717376e+00 7.1897454e+00 
7.6225686e-01 -1.3562703e+00 7.2038803e+00 
-4.3264273e-01 9.4236666e-01 7.0993304e+00 
-5.4338372e-01 2.1744075e-01 7.0947814e+00 
4.8852378e-01 5.5634350e-01 7.0971618e+00 
1.0391018e-01 6.6693157e-01 7.0876465e+00 
7.4567044e-01 -1.3006292e-02 7.1043239e+00 
-3.0095136e-01 1.1054754e-01 7.0746088e+00 
2.4555756e-01 5.8451164e-01 7.0701022e+00 
-3.9444903e-01 7.3988676e-01 7.0548887e+00 
-4.1230625e-01 -2.3937394e-01 7.0713162e+00 
1.0108073e-01 8.4951216e-01 7.0319896e+00 
2.6133385e-01 7.6185656e-01 7.0347939e+00 
-6.7874767e-02 9.1302037e-01 7.0291853e+00 
-5.6839561e-01 4.9428639e-01 7.0302691e+00 
-2.3974381e-01 9.5220256e-01 7.0263805e+00 
-5.5241352e-01 7.0156497e-01 7.0053954e+00 
3.9512897e-01 6.6252863e-01 7.0042286e+00 
4.7925016e-01 -1.2264115e+00 7.0681190e+00 
3.8955411e-01 3.6604202e-01 6.9976149e+00 
9.1332269e-01 -9.6656466e-01 7.0571423e+00 
9.8187858e-01 -1.4024585e+00 7.0819573e+00 
-3.6280029e-02 7.3682046e-01 6.9652672e+00 
-3.9653999e-01 3.4080413e-01 6.9647179e+00 
-5.0960487e-01 -3.7536121e-03 6.9677944e+00 
6.4208055e-01 3.1779367e-01 6.9723296e+00 
-3.9609933e-01 5.7821876e-01 6.9492564e+00 
-2.1558291e-01 -5.9721798e-01 6.9705911e+00 
6.8923318e-01 -7.9370636e-01 6.9826846e+00 
-4.7258819e-03 1.2388456e-01 6.9326406e+00 
-2.5120693e-01 8.0868983e-01 6.9128027e+00 
4.3469658e-01 -8.6962533e-01 6.9609685e+00 
8.6154914e-01 -5.2724975e-01 6.9550748e+00 
-2.3426634e-01 -1.3319950e-01 6.9143000e+00 
8.9246780e-02 -3.4518224e-01 6.8999381e+00 
-1.4855163e-01 3.6881819e-01 6.8746438e+00 
9.3109512e-01 -1.1972889e+00 6.9544120e+00 
-5.7520109e-01 3.7762368e-01 6.8691115e+00 
-1.7115000e-01 5.5894268e-01 6.8671393e+00 
7.2862458e-01 -1.3391827e+00 6.9477825e+00 
-2.9527402e-01 9.6072048e-01 6.8559256e+00 
5.4297769e-01 -2.4290478e-01 6.8879733e+00 
1.8905342e-01 8.1304795e-01 6.8604336e+00 
2.2961020e-02 8.8792485e-01 6.8576317e+00 
3.4425709e-01 7.1383685e-01 6.8632355e+00 
-1.4967434e-01 9.3704152e-01 6.8548293e+00 
-5.7282227e-01 5.8162344e-01 6.8442311e+00 
7.5056976e-01 2.4342906e-02 6.8680458e+00 
-5.6422228e-01 2.2853871e-01 6.8386221e+00 
5.0288999e-01 5.6123799e-01 6.8409486e+00 
-3.1911734e-01 1.4783858e-01 6.8342757e+00 
-4.2380556e-01 -2.7271575e-01 6.8410664e+00 
-5.3166246e-01 7.8370523e-01 6.8193455e+00 
4.4048342e-01 1.3818961e-01 6.8367581e+00 
6.8361437e-01 -1.0864213e+00 6.8863416e+00 
-3.9942065e-01 3.7080324e-01 6.7930126e+00 
1.8460861e-01 6.3282549e-01 6.7937355e+00 
-4.1321865e-01 8.4338546e-01 6.7634788e+00 
-3.9280099e-01 6.4265710e-01 6.7620468e+00 
9.0294087e-01 -9.0324783e-01 6.8269143e+00 
-2.6629439e-02 7.4003178e-01 6.7406120e+00 
9.4952369e-01 -1.3771439e+00 6.8259091e+00 
4.8025143e-01 -1.2364286e+00 6.7877436e+00 
-5.3772056e-01 7.4138297e-03 6.7117052e+00 
2.5841078e-01 3.1461206e-01 6.7097344e+00 
6.5595818e-01 3.2480633e-01 6.7162108e+00 
1.1324486e-01 8.5777682e-01 6.6860757e+00 
2.7549550e-01 7.7136207e-01 6.6888752e+00 
-5.7936452e-02 9.1873860e-01 6.6832757e+00 
4.2295325e-01 6.5902042e-01 6.6916747e+00 
-2.3198634e-01 9.5382261e-01 6.6804762e+00 
-5.8618838e-01 4.6500465e-01 6.6830778e+00 
-5.6795031e-01 6.6765308e-01 6.6581850e+00 
6.0906649e-02 -6.7624789e-01 6.6785221e+00 
-1.7671847e-01 -3.5983434e-01 6.6608071e+00 
-1.9796208e-01 7.6575601e-01 6.6320271e+00 
1.2691720e-01 -1.0067959e+00 6.6746273e+00 
-4.3204731e-01 9.3886817e-01 6.6186104e+00 
1.2295546e-01 6.7770082e-01 6.6200948e+00 
9.1214418e-01 -1.1748852e+00 6.6985216e+00 
6.3165736e-01 -8.5003865e-01 6.6698160e+00 
6.9447869e-01 -1.3211641e+00 6.6918488e+00 
3.3306995e-01 5.3753203e-01 6.5971642e+00 
-3.8820755e-01 6.9167393e-01 6.5784731e+00 
-5.8540398e-01 2.3997231e-01 6.5825062e+00 
5.1759148e-01 5.6643331e-01 6.5847602e+00 
7.7141494e-01 5.4963962e-03 6.5922885e+00 
-3.5999969e-01 4.6880680e-01 6.5564785e+00 
-3.5133898e-01 1.1985780e-01 6.5610824e+00 
1.7170938e-02 1.7732413e-01 6.5524783e+00 
-4.8090005e-01 -2.1918640e-01 6.5592499e+00 
4.4986746e-01 3.6504772e-01 6.5448995e+00 
3.8199148e-01 7.0588380e-01 6.5252299e+00 
2.0245011e-01 8.2234061e-01 6.5145173e+00 
3.4179512e-02 8.9530122e-01 6.5117197e+00 
-1.4068569e-01 9.4120318e-01 6.5089226e+00 
6.8340558e-01 -1.0876323e+00 6.5782728e+00 
6.1286753e-03 4.9450609e-01 6.5090981e+00 
3.3261204e-01 1.0851327e-01 6.5125623e+00 
-5.8991307e-01 5.5112350e-01 6.4970350e+00 
4.0741596e-01 -1.2051067e+00 6.5563326e+00 
9.1671723e-01 -1.3507630e+00 6.5700269e+00 
8.9768571e-01 -9.2793578e-01 6.5455575e+00 
-3.9990234e-01 8.3097589e-01 6.4722195e+00 
-5.5030739e-01 7.4990469e-01 6.4721313e+00 
-2.3255858e-01 5.8267176e-01 6.4650555e+00 
-2.9032263e-01 9.6112639e-01 6.4616747e+00 
2.1286231e-01 -5.6244475e-01 6.4857478e+00 
-5.6625855e-01 1.8925373e-02 6.4556580e+00 
-9.1108665e-02 7.6879805e-01 6.4455976e+00 
2.4437128e-01 3.7371874e-01 6.4532704e+00 
5.8154959e-02 7.1656978e-01 6.4463477e+00 
6.7017329e-01 3.3219242e-01 6.4601169e+00 
2.0610297e-01 6.1192942e-01 6.4402242e+00 
-2.6965663e-01 -3.7589321e-01 6.4556160e+00 
-2.3055081e-01 8.1321901e-01 6.4293818e+00 
-2.9718906e-01 -5.8104521e-01 6.4587345e+00 
-3.0184811e-01 -8.4707469e-02 6.4252157e+00 
5.7141107e-01 -2.1974756e-01 6.4403200e+00 
4.1083652e-01 5.3755808e-01 6.4151983e+00 
8.7197298e-01 -4.9504587e-01 6.4439058e+00 
-3.9193711e-01 3.1112245e-01 6.3975468e+00 
-4.1925329e-01 6.8356109e-01 6.3767376e+00 
8.9305311e-01 -1.1515628e+00 6.4427929e+00 
1.6166855e-02 -1.7843626e-01 6.3759308e+00 
6.5984738e-01 -1.3022711e+00 6.4360766e+00 
-5.3008974e-01 8.0176353e-01 6.3384867e+00 
-3.7944588e-01 8.4543484e-01 6.3361526e+00 
1.2574561e-01 8.6649758e-01 6.3401613e+00 
2.9005906e-01 7.8137267e-01 6.3429565e+00 
-4.7727093e-02 9.2487109e-01 6.3373666e+00 
-6.0735911e-01 4.3749481e-01 6.3358960e+00 
-2.0826702e-01 9.5397270e-01 6.3273544e+00 
7.7682042e-01 4.4817649e-02 6.3561420e+00 
-6.0690600e-01 2.5171927e-01 6.3264308e+00 
3.3077213e-01 -9.3477827e-01 6.3736339e+00 
5.3260595e-01 5.7190961e-01 6.3285961e+00 
-4.9524018e-01 -2.5242350e-01 6.3290944e+00 
-5.8517611e-01 6.3581568e-01 6.3109837e+00 
-8.9200949e-03 7.4870056e-01 6.2727699e+00 
1.3793445e-01 6.8592721e-01 6.2737818e+00 
8.9109033e-01 -8.6415088e-01 6.3156509e+00 
-2.6532605e-01 3.2973802e-01 6.2527347e+00 
4.4499895e-01 3.1093344e-01 6.2612572e+00 
3.2985952e-01 5.7684159e-01 6.2521138e+00 
6.3655841e-01 -1.0528343e+00 6.3040652e+00 
-2.2237442e-01 7.7914912e-01 6.2327218e+00 
8.8349044e-01 -1.3233886e+00 6.3143029e+00 
1.2716097e-01 1.5171476e-01 6.2227945e+00 
4.0774497e-01 -1.2115324e+00 6.2763052e+00 
-4.2626190e-01 5.9137315e-01 6.1939774e+00 
4.1237652e-02 4.8525208e-01 6.1956701e+00 
-5.9518784e-01 3.0756660e-02 6.1996508e+00 
6.8470317e-01 3.3992621e-01 6.2040462e+00 
-2.7773777e-01 -1.7930268e-01 6.1957512e+00 
-3.9759108e-01 2.0317674e-01 6.1817093e+00 
-4.3146548e-01 9.3544948e-01 6.1657953e+00 
2.1619815e-01 8.3209074e-01 6.1686006e+00 
4.5691833e-02 9.0309542e-01 6.1658082e+00 
-1.4920920e-01 9.4840586e-01 6.1627417e+00 
6.4823467e-01 -7.2441125e-01 6.2064791e+00 
-6.1018890e-01 5.2276236e-01 6.1498480e+00 
4.0000838e-01 7.1664852e-01 6.1515789e+00 
6.9894440e-02 7.0688772e-01 6.1281729e+00 
-5.6945759e-01 7.1762496e-01 6.1249242e+00 
-5.9496742e-02 -4.9166211e-01 6.1518288e+00 
2.1996155e-01 6.2527758e-01 6.1239152e+00 
5.0317332e-02 -9.9511844e-01 6.1634645e+00 
8.7383991e-01 -1.1273865e+00 6.1872187e+00 
6.2476414e-01 -1.2825621e+00 6.1804590e+00 
-1.4724244e-01 5.6091696e-01 6.0985022e+00 
-1.5560997e-01 4.5106106e-02 6.0963383e+00 
3.3664054e-01 -3.4457538e-01 6.1058874e+00 
-6.2870556e-01 2.6375732e-01 6.0703940e+00 
-3.3752319e-01 8.6886173e-01 6.0580940e+00 
5.4791123e-01 5.7764697e-01 6.0724545e+00 
7.9850143e-01 2.5772341e-02 6.0803504e+00 
-4.4977298e-01 3.9274168e-01 6.0506468e+00 
-1.7490970e-01 7.9106373e-01 6.0432925e+00 
3.5175633e-01 5.4817486e-01 6.0523195e+00 
-5.5140471e-01 -1.9763887e-01 6.0473466e+00 
-3.3765987e-01 6.7819989e-01 6.0123701e+00 
5.2047610e-01 -9.3079604e-02 6.0260706e+00 
1.3855450e-01 8.7563491e-01 5.9942474e+00 
3.0498400e-01 7.9184091e-01 5.9970374e+00 
-3.7262104e-02 9.3139130e-01 5.9914570e+00 
-2.1585093e-01 9.5826972e-01 5.9886670e+00 
-6.3202685e-01 4.1150203e-01 5.9887238e+00 
6.0360688e-01 -1.0122859e+00 6.0475464e+00 
3.3346620e-01 -1.1810356e+00 6.0451865e+00 
-2.9405937e-01 4.3643969e-01 5.9771824e+00 
8.4987420e-01 -1.2950929e+00 6.0587301e+00 
8.8240004e-01 -8.8613582e-01 6.0346055e+00 
-6.0486710e-01 6.0622060e-01 5.9637914e+00 
4.4767362e-01 6.8977690e-01 5.9725757e+00 
5.1717156e-01 3.7565461e-01 5.9776282e+00 
1.2405710e-01 4.5912376e-01 5.9574523e+00 
-5.4021573e-01 7.9369599e-01 5.9388556e+00 
-6.2447745e-01 4.2883396e-02 5.9436808e+00 
-3.4429708e-01 9.5703566e-01 5.9267654e+00 
6.9952530e-01 3.4798214e-01 5.9479980e+00 
5.2217189e-03 7.5525135e-01 5.9265485e+00 
1.5327561e-01 6.9456369e-01 5.9274945e+00 
-3.4975013e-01 -3.6510500e-01 5.9433379e+00 
-4.2172411e-01 2.0845215e-01 5.9251456e+00 
-3.8096637e-01 -5.6355315e-01 5.9470396e+00 
2.9371020e-01 6.2258536e-01 5.9201884e+00 
-4.3677762e-02 -1.9854099e-01 5.9295177e+00 
-2.8371423e-01 8.3356297e-01 5.9059458e+00 
-4.6115139e-01 4.8039591e-01 5.9057679e+00 
2.8112280e-01 -8.9789808e-01 5.9504743e+00 
-3.6678237e-01 -7.3608659e-02 5.9122248e+00 
8.8355458e-01 -4.6009544e-01 5.9333725e+00 
-4.2273903e-01 6.4049441e-01 5.8818908e+00 
-1.6641554e-01 6.5580148e-01 5.8741698e+00 
-1.1722883e-01 2.4048769e-01 5.8698401e+00 
8.5452271e-01 -1.1024204e+00 5.9317913e+00 
5.8926225e-01 -1.2620956e+00 5.9249883e+00 
2.3026283e-01 8.4225422e-01 5.8226838e+00 
5.7475675e-02 9.1127324e-01 5.8198962e+00 
3.9123559e-01 7.4521780e-01 5.8254719e+00 
-1.2203211e-01 9.5066410e-01 5.8171086e+00 
-3.0035299e-01 9.6168923e-01 5.8143210e+00 
8.0430675e-01 6.7037724e-02 5.8444390e+00 
-6.5077990e-01 2.7606425e-01 5.8143935e+00 
5.6348526e-01 5.8362550e-01 5.8163347e+00 
-6.3382262e-01 4.9628001e-01 5.8026705e+00 
-5.6849343e-01 -2.3085901e-01 5.8172779e+00 
-5.8997953e-01 6.8717468e-01 5.7777257e+00 
-2.8910491e-01 8.0031198e-01 5.7542386e+00 
-4.9580209e-02 5.4533476e-01 5.7556667e+00 
6.4696872e-01 -1.1175860e+00 5.8212671e+00 
8.7678537e-02 7.3200417e-01 5.7538424e+00 
8.7973970e-01 -8.2212472e-01 5.8049927e+00 
-4.3089977e-01 9.3212551e-01 5.7382774e+00 
3.5424429e-01 5.4462808e-01 5.7473335e+00 
1.7176367e-01 6.3117206e-01 5.7255788e+00 
-4.5762938e-01 5.4926562e-01 5.7206736e+00 
8.1589919e-01 -1.2659479e+00 5.8032999e+00 
-1.3900860e-01 7.9675227e-01 5.7094188e+00 
4.9615920e-01 -8.4955066e-01 5.7533236e+00 
3.3325344e-01 -1.1839582e+00 5.7655087e+00 
7.0466059e-01 -2.3052910e-01 5.7194405e+00 
-6.5409672e-01 5.5281360e-02 5.6877460e+00 
-2.9872277e-01 3.3921552e-01 5.6790957e+00 
7.1461725e-01 3.5633457e-01 5.6919713e+00 
5.3072739e-01 7.1525194e-02 5.6872549e+00 
-2.1191849e-01 9.6112549e-01 5.6638384e+00 
1.4432326e-01 3.3435640e-01 5.6692538e+00 
-2.1940336e-01 5.9313017e-01 5.6604915e+00 
1.5164283e-01 8.8514882e-01 5.6483331e+00 
-2.6557636e-02 9.3827158e-01 5.6455474e+00 
3.2022989e-01 8.0271953e-01 5.6511183e+00 
4.7334510e-01 6.9143170e-01 5.6539040e+00 
-5.5718315e-01 3.7577179e-01 5.6403294e+00 
-3.0118155e-01 -2.4137966e-01 5.6509242e+00 
-4.2915004e-01 7.1082455e-01 5.6279144e+00 
-6.2767488e-01 5.7883185e-01 5.6166077e+00 
-2.8622461e-02 -9.8131663e-01 5.6530967e+00 
8.3511966e-01 -1.0767289e+00 5.6765022e+00 
5.5337465e-01 -1.2409298e+00 5.6696553e+00 
2.2692194e-02 6.9547957e-01 5.5616107e+00 
-6.7310643e-01 2.8861785e-01 5.5584269e+00 
5.7930589e-01 5.8982539e-01 5.5602355e+00 
-2.0687248e-01 8.0665493e-01 5.5460057e+00 
8.2674044e-01 4.7541939e-02 5.5685015e+00 
3.9973328e-01 4.1846839e-01 5.5462790e+00 
3.4706005e-01 -2.9913601e-01 5.5593710e+00 
2.4272515e-01 6.6599500e-01 5.5314898e+00 
-6.2351906e-01 -1.7493437e-01 5.5355887e+00 
-4.3803832e-01 2.6670031e-02 5.5286617e+00 
-5.3479377e-02 -5.8132583e-01 5.5368681e+00 
-2.7650088e-01 9.6312958e-01 5.5007873e+00 
6.2640536e-01 -1.0743314e+00 5.5675101e+00 
-5.7548213e-01 7.4350691e-01 5.4880624e+00 
6.9508232e-02 9.1979998e-01 5.4739842e+00 
2.4460945e-01 8.5278696e-01 5.4767671e+00 
2.5756231e-01 -1.1544982e+00 5.5346074e+00 
-1.1238745e-01 9.5592427e-01 5.4712014e+00 
4.0759644e-01 7.5655520e-01 5.4795504e+00 
7.8159583e-01 -1.2360250e+00 5.5480042e+00 
8.6752290e-01 -8.4160948e-01 5.5242214e+00 
-8.7272570e-02 3.1944627e-01 5.4387293e+00 
-3.8068649e-01 1.9589904e-01 5.4362803e+00 
-3.6107692e-01 4.8256993e-01 5.4286280e+00 
-6.8401515e-01 6.7926377e-02 5.4318442e+00 
7.2995645e-01 3.6495793e-01 5.4359641e+00 
-1.3298185e-01 -2.5856694e-02 5.4249754e+00 
-4.6656382e-01 -5.4495335e-01 5.4354887e+00 
-5.0288171e-02 7.8478426e-01 5.4070497e+00 
-6.5612727e-01 5.0997639e-01 5.4073472e+00 
5.6157345e-01 8.7424509e-02 5.4249792e+00 
1.2473317e-01 4.6203849e-01 5.4094377e+00 
8.9622837e-01 -4.2275426e-01 5.4234004e+00 
6.2127316e-01 -7.1393263e-01 5.4239035e+00 
7.2674632e-01 -1.9521999e-01 5.3921719e+00 
-4.6308753e-01 6.8011856e-01 5.3545170e+00 
1.7983557e-01 7.0919645e-01 5.3577600e+00 
3.1793752e-01 6.2702489e-01 5.3596706e+00 
8.1564915e-01 -1.0503757e+00 5.4213419e+00 
5.1713407e-01 -1.2191232e+00 5.4144511e+00 
-4.3035182e-01 9.2890573e-01 5.3337612e+00 
-3.0132920e-01 -3.3252901e-01 5.3408594e+00 
8.3283788e-01 9.0752833e-02 5.3329144e+00 
1.6498162e-01 8.9499933e-01 5.3024182e+00 
-1.5630525e-02 9.4548345e-01 5.2996378e+00 
3.3575645e-01 8.1396133e-01 5.3051991e+00 
-1.9891216e-01 9.6426070e-01 5.2968574e+00 
4.9083760e-01 7.0309371e-01 5.3079796e+00 
-6.9566238e-01 3.0139601e-01 5.3024917e+00 
-5.1013017e-01 4.0366435e-01 5.2972884e+00 
5.9535092e-01 5.9622681e-01 5.3041549e+00 
-6.4325756e-01 -2.0822595e-01 5.3055978e+00 
-2.7123022e-01 6.3925838e-01 5.2692676e+00 
-5.4924667e-01 7.9770100e-01 5.2675214e+00 
4.2181927e-01 3.7745264e-01 5.2717962e+00 
-6.2146091e-01 6.5497458e-01 5.2540598e+00 
6.0658628e-01 -1.0303830e+00 5.3138661e+00 
-1.3243151e-01 7.7946633e-01 5.2424860e+00 
8.6893487e-01 -7.7760762e-01 5.2948689e+00 
-4.3767875e-01 -4.5380339e-02 5.2443404e+00 
3.4247138e-02 7.6944107e-01 5.2341623e+00 
-6.7714536e-01 4.7279510e-01 5.2244396e+00 
-4.5819399e-01 5.3647608e-01 5.2205353e+00 
7.4699426e-01 -1.2053950e+00 5.2928319e+00 
2.8286600e-01 -5.5159456e-01 5.2394352e+00 
-9.8250784e-02 4.9759409e-01 5.2074881e+00 
3.6786377e-02 5.3944290e-01 5.2059779e+00 
-2.8283799e-01 3.5402054e-01 5.2044868e+00 
2.5717479e-01 -1.1541288e+00 5.2551951e+00 
-4.4147903e-01 7.3494244e-01 5.1764994e+00 
3.9405668e-01 -2.7257502e-01 5.2023029e+00 
3.0760363e-02 -4.2776670e-02 5.1870389e+00 
-3.2364401e-01 8.6316556e-01 5.1701241e+00 
-4.9635181e-01 8.6567330e-01 5.1658850e+00 
-7.1420223e-01 8.0794327e-02 5.1759720e+00 
7.4552041e-01 3.7382665e-01 5.1799755e+00 
5.8927876e-01 -1.1085784e-01 5.1843886e+00 
8.1766248e-02 9.2864060e-01 5.1280718e+00 
2.5920328e-01 8.6364466e-01 5.1308503e+00 
-1.0254575e-01 9.6150941e-01 5.1252937e+00 
-2.8523746e-01 9.6317607e-01 5.1225157e+00 
4.8674691e-02 -3.4178331e-01 5.1414380e+00 
9.1118068e-02 1.7668191e-01 5.1238708e+00 
4.2330012e-01 6.0563594e-01 5.1205955e+00 
4.3278617e-01 7.6317054e-01 5.1189094e+00 
3.5325438e-01 -9.3676424e-01 5.1577287e+00 
7.9612958e-01 -1.0234244e+00 5.1663003e+00 
-5.7152259e-01 7.6883745e-01 5.0958385e+00 
-1.0922564e-01 -9.6596128e-01 5.1430149e+00 
4.8057288e-01 -1.1967340e+00 5.1593657e+00 
-2.8137910e-01 6.9417435e-01 5.0785880e+00 
-5.1944053e-01 3.6059481e-01 5.0760722e+00 
-6.5252119e-01 5.9539962e-01 5.0661993e+00 
1.1828261e-01 7.4885792e-01 5.0614285e+00 
-7.1842521e-01 3.1437662e-01 5.0465851e+00 
-4.2794687e-01 8.1229711e-01 5.0343275e+00 
6.1159837e-01 6.0280997e-01 5.0480919e+00 
-4.7069097e-01 6.3935852e-01 5.0309548e+00 
8.5592341e-01 7.0611656e-02 5.0567293e+00 
-1.1171746e-01 8.0221063e-01 5.0106277e+00 
-6.9694555e-01 -1.5127492e-01 5.0239558e+00 
-5.0084746e-01 3.9873801e-02 5.0157623e+00 
-3.1864595e-02 5.5982876e-01 5.0056820e+00 
3.4223709e-01 6.4160478e-01 5.0092444e+00 
5.8747780e-01 -9.8603523e-01 5.0602932e+00 
4.2587313e-01 3.1198671e-01 4.9850359e+00 
1.8026948e-01 -1.1259742e+00 5.0245275e+00 
-3.7613794e-01 -2.3050815e-01 4.9814949e+00 
7.1212435e-01 -1.1741285e+00 5.0377736e+00 
-3.0283794e-01 4.8913392e-01 4.9616904e+00 
8.5311770e-01 -7.9480529e-01 5.0143294e+00 
1.7854169e-01 9.0514606e-01 4.9565034e+00 
-4.4981851e-03 9.5299774e-01 4.9537277e+00 
3.5152364e-01 8.2551914e-01 4.9592795e+00 
-4.2982250e-01 9.2579561e-01 4.9502177e+00 
-1.9015738e-01 9.6779919e-01 4.9509521e+00 
5.0859398e-01 7.1510166e-01 4.9620557e+00 
5.7469904e-01 -6.3827157e-01 4.9621067e+00 
5.0004806e-02 7.5938612e-01 4.9187350e+00 
1.1992931e-01 4.9711913e-01 4.9198208e+00 
-7.4462765e-01 9.3861170e-02 4.9201269e+00 
-6.0990757e-01 7.1181828e-01 4.9078450e+00 
7.6128662e-01 3.8291517e-01 4.9240031e+00 
-5.5363351e-01 -5.2545583e-01 4.9240594e+00 
-5.2201879e-01 2.3132814e-01 4.8993392e+00 
5.9477204e-01 1.1042713e-01 4.9126754e+00 
-6.8444687e-01 5.3599548e-01 4.8783979e+00 
-3.4618136e-01 7.0709270e-01 4.8699541e+00 
9.0993506e-01 -3.8338098e-01 4.9139090e+00 
7.5870699e-01 -1.6759725e-01 4.8788924e+00 
7.7657950e-01 -9.9593806e-01 4.9113665e+00 
3.1267285e-01 -9.0186167e-01 4.8943768e+00 
3.7596130e-01 -2.0114134e-01 4.8682976e+00 
-2.2022580e-01 1.0134861e-01 4.8470244e+00 
4.4372329e-01 -1.1738200e+00 4.9043880e+00 
2.7614719e-01 6.8638647e-01 4.8395820e+00 
8.6222678e-01 1.1570067e-01 4.8215423e+00 
-7.4137235e-01 3.2753754e-01 4.7907038e+00 
9.4226010e-02 9.3775952e-01 4.7821593e+00 
2.7400962e-01 8.7478322e-01 4.7849326e+00 
-9.2519209e-02 9.6739680e-01 4.7793860e+00 
4.4109803e-01 7.8025109e-01 4.7877064e+00 
-2.7748367e-01 9.6439022e-01 4.7766123e+00 
-7.1922839e-01 -1.8472688e-01 4.7940326e+00 
6.2802613e-01 6.0955501e-01 4.7920446e+00 
5.2771562e-01 3.3754048e-01 4.7780852e+00 
3.3048071e-02 1.7655419e-01 4.7708654e+00 
1.1699639e-03 5.6249529e-01 4.7628651e+00 
-1.5450397e-01 -5.4756051e-01 4.7843909e+00 
-5.3146762e-01 4.9724418e-01 4.7550492e+00 
-5.4472488e-01 8.1590676e-01 4.7490082e+00 
5.6898499e-01 -9.4155824e-01 4.8067546e+00 
2.2549134e-01 -5.1175058e-01 4.7741294e+00 
8.5872710e-01 -7.3103565e-01 4.7852001e+00 
3.5873625e-01 4.2232898e-01 4.7385135e+00 
-6.4706117e-01 6.5397012e-01 4.7203531e+00 
-1.8108755e-01 8.0934763e-01 4.7151074e+00 
-2.2130471e-02 7.9717404e-01 4.7147560e+00 
6.7701596e-01 -1.1422958e+00 4.7828183e+00 
1.3389252e-01 7.5773311e-01 4.7152572e+00 
-5.2889979e-01 -1.0409497e-02 4.7168865e+00 
-7.1694553e-01 4.7788149e-01 4.6904531e+00 
1.7981637e-01 -1.1224180e+00 4.7453055e+00 
-4.5578951e-01 6.5817076e-01 4.6677661e+00 
-7.7526134e-01 1.0710288e-01 4.6643062e+00 
7.7723271e-01 3.9219794e-01 4.6680460e+00 
-2.9742464e-01 4.8839355e-01 4.6305299e+00 
6.0192740e-01 -7.2777343e-01 4.6591783e+00 
1.9229363e-01 9.1554862e-01 4.6105886e+00 
6.8212454e-03 9.6078438e-01 4.6078172e+00 
3.6749163e-01 8.3734596e-01 4.6133595e+00 
-1.8122342e-01 9.7167611e-01 4.6050463e+00 
5.2656472e-01 7.2740573e-01 4.6161308e+00 
2.6334098e-01 -8.9791888e-01 4.6510749e+00 
7.5701743e-01 -9.6798003e-01 4.6565294e+00 
-1.9125797e-01 -9.4922310e-01 4.6332369e+00 
-4.2931229e-01 9.2279756e-01 4.5858455e+00 
4.0661731e-01 -1.1504396e+00 4.6495070e+00 
-4.9579138e-01 -3.3637613e-01 4.5945277e+00 
3.3480212e-01 1.1011765e-01 4.5790219e+00 
-5.9068507e-01 7.6203513e-01 4.5617714e+00 
-6.8814969e-01 5.8616805e-01 4.5440316e+00 
3.6569133e-01 6.5621662e-01 4.5486746e+00 
2.1740481e-01 7.3248094e-01 4.5426083e+00 
-7.6448113e-01 3.4085673e-01 4.5348454e+00 
6.4461219e-01 6.1644214e-01 4.5360112e+00 
8.8587129e-01 9.4646990e-02 4.5450215e+00 
1.4009156e-02 7.3552400e-01 4.5147223e+00 
-4.9219063e-01 6.0905898e-01 4.5114870e+00 
-5.7008964e-01 1.6486858e-01 4.5090795e+00 
-7.7138984e-01 -1.2686151e-01 4.5124249e+00 
-1.7124261e-01 8.1098747e-01 4.4917212e+00 
2.1770160e-01 4.8607996e-01 4.4751096e+00 
6.4169854e-01 -1.1099668e+00 4.5279541e+00 
1.0180998e-01 -1.0957822e+00 4.5148587e+00 
8.3925188e-01 -7.4616945e-01 4.5048432e+00 
4.6627679e-01 7.8583002e-01 4.4570270e+00 
4.9797985e-01 4.3806654e-01 4.4566112e+00 
1.0686340e-01 9.4712090e-01 4.4362464e+00 
2.8899366e-01 8.8615841e-01 4.4390154e+00 
-8.2320824e-02 9.7356266e-01 4.4334779e+00 
-2.6959297e-01 9.6592730e-01 4.4307089e+00 
6.2915266e-01 -5.2531463e-01 4.4675751e+00 
-5.9099042e-01 3.7492406e-01 4.4237318e+00 
-8.0607319e-01 1.2049551e-01 4.4085069e+00 
-5.3959131e-01 8.2804585e-01 4.3944879e+00 
7.9333609e-01 4.0164936e-01 4.4121022e+00 
-6.4183003e-01 -5.0526917e-01 4.4127293e+00 
5.0493681e-01 -9.2692196e-01 4.4376488e+00 
-6.3064492e-01 7.1263480e-01 4.3801522e+00 
1.0485584e-01 -3.5248891e-01 4.4026895e+00 
-7.1874678e-01 5.4205167e-01 4.3766122e+00 
-5.7061166e-01 -3.5894644e-02 4.3745518e+00 
-3.2600766e-01 5.0987750e-01 4.3641191e+00 
9.2461979e-01 -3.4233400e-01 4.4048100e+00 
2.1014997e-01 -8.5838014e-01 4.3997445e+00 
-3.1463209e-01 7.4664062e-01 4.3431954e+00 
7.3746198e-01 -9.3961304e-01 4.4017782e+00 
3.6928672e-01 -1.1266508e+00 4.3947115e+00 
-2.8179273e-01 1.2626232e-01 4.3389049e+00 
-4.6497384e-01 6.8590879e-01 4.3211102e+00 
-8.4681675e-02 8.1204695e-01 4.3191218e+00 
3.6948276e-01 6.5119439e-01 4.3260250e+00 
7.4696846e-02 7.8969985e-01 4.3194904e+00 
-5.4518628e-01 5.5622655e-01 4.3146062e+00 
7.1597934e-01 -1.4728270e-01 4.3443670e+00 
-2.0855458e-01 -3.5486606e-01 4.3182378e+00 
-7.8772914e-01 3.5431212e-01 4.2790070e+00 
-7.9610479e-01 -1.6056344e-01 4.2825594e+00 
6.6133446e-01 6.2345159e-01 4.2799902e+00 
2.0620783e-01 9.2616642e-01 4.2646732e+00 
1.8308939e-02 9.6881253e-01 4.2619066e+00 
3.8362068e-01 8.4939474e-01 4.2674398e+00 
-1.7211975e-01 9.7587192e-01 4.2591405e+00 
9.0106428e-01 1.0697740e-01 4.2891874e+00 
5.4470086e-01 7.3995620e-01 4.2702060e+00 
-3.5499521e-02 5.8258337e-01 4.2577815e+00 
-4.2882121e-01 9.1991198e-01 4.2390428e+00 
5.5283540e-01 1.8956570e-01 4.2504334e+00 
-6.9151479e-01 6.2255746e-01 4.2249923e+00 
8.4917146e-01 -6.8284297e-01 4.2758956e+00 
-6.6876149e-01 4.2680755e-01 4.2244110e+00 
-6.0117084e-01 1.8963172e-01 4.2263741e+00 
6.0620141e-01 -1.0772108e+00 4.2731695e+00 
-5.7650572e-01 7.9251105e-01 4.2056274e+00 
6.2143788e-02 -1.0801468e+00 4.2601476e+00 
2.3391755e-01 7.4261516e-01 4.1964555e+00 
-2.8022674e-01 6.7948854e-01 4.1860180e+00 
1.8252842e-01 5.1009661e-01 4.1899185e+00 
-4.3628144e-01 5.0544333e-01 4.1791191e+00 
4.8872009e-01 5.2405661e-01 4.1783218e+00 
-5.8831815e-02 2.7839884e-01 4.1549335e+00 
-8.3703321e-01 1.3401513e-01 4.1527257e+00 
7.6180816e-01 -4.3274787e-01 4.1827660e+00 
8.0957443e-01 4.1124383e-01 4.1561699e+00 
4.8194268e-01 -8.8162291e-01 4.1839643e+00 
5.9666228e-01 -6.3953632e-01 4.1625190e+00 
-5.5942396e-03 7.9408091e-01 4.1131172e+00 
4.2380977e-01 -3.3107272e-01 4.1373682e+00 
-4.8259208e-01 7.0530438e-01 4.1059585e+00 
-1.4012545e-01 -6.3067067e-01 4.1373382e+00 
1.7517762e-01 -8.6494243e-01 4.1492352e+00 
-2.5732896e-01 -9.4099182e-01 4.1421242e+00 
7.1793193e-01 -9.1089976e-01 4.1470995e+00 
1.1965389e-01 9.5668828e-01 4.0903335e+00 
3.0412069e-01 8.9772600e-01 4.0930972e+00 
-7.1964331e-02 9.7998220e-01 4.0875692e+00 
-2.6156297e-01 9.6778917e-01 4.0848055e+00 
3.3176318e-01 -1.1025115e+00 4.1399884e+00 
-4.3630037e-01 -1.0274674e-01 4.0908041e+00 
4.8583335e-01 7.9872733e-01 4.0834208e+00 
-5.2866983e-01 8.4311724e-01 4.0572476e+00 
-6.2244165e-01 7.4336666e-01 4.0545082e+00 
-7.3967844e-01 5.5189455e-01 4.0540390e+00 
3.1057206e-01 6.9498819e-01 4.0580020e+00 
-3.2943535e-01 2.5832191e-01 4.0305309e+00 
2.6149690e-01 -5.2432442e-01 4.0551786e+00 
-1.5507607e-01 8.1586313e-01 4.0227699e+00 
-3.5635191e-01 8.0473369e-01 4.0211563e+00 
-8.1109381e-01 3.6788175e-01 4.0231848e+00 
-5.7117832e-01 5.7497221e-01 4.0153451e+00 
-4.3439422e-02 5.8516222e-01 4.0168900e+00 
6.7817098e-01 6.3056362e-01 4.0239792e+00 
-6.2800670e-01 1.7781149e-01 3.9966216e+00 
-3.5801879e-01 6.0334826e-01 3.9884040e+00 
-8.4656024e-01 -1.0189428e-01 4.0009727e+00 
4.5718336e-01 5.9900707e-01 3.9902611e+00 
6.9691904e-02 -1.0755209e+00 4.0320659e+00 
8.3331130e-02 -1.4950593e-01 3.9951997e+00 
8.9822888e-02 7.9797125e-01 3.9736843e+00 
8.4465617e-01 -6.5827382e-01 4.0213504e+00 
-6.2816799e-01 4.1830394e-01 3.9695494e+00 
5.7055390e-01 -1.0440974e+00 4.0184522e+00 
5.8698297e-01 3.6619407e-01 3.9695148e+00 
-5.0519091e-01 7.3053080e-01 3.9408307e+00 
9.3070292e-01 6.2000945e-02 3.9672177e+00 
6.9748569e-01 -1.8838198e-01 3.9539008e+00 
2.2025447e-01 9.3695867e-01 3.9187574e+00 
2.9945465e-02 9.7705090e-01 3.9159958e+00 
3.9987126e-01 8.6161858e-01 3.9215193e+00 
-1.6285688e-01 9.8036528e-01 3.9132342e+00 
5.6295389e-01 7.5270337e-01 3.9242811e+00 
-4.2834908e-01 9.1713762e-01 3.9083762e+00 
9.1947043e-01 -4.1537848e-01 3.9367151e+00 
2.1483271e-01 5.1460385e-01 3.8959856e+00 
1.2583785e-01 -8.2824928e-01 3.9308479e+00 
-8.6811161e-01 1.4763787e-01 3.8969600e+00 
4.5895901e-01 -8.3668131e-01 3.9302149e+00 
-6.8483418e-01 6.6950977e-01 3.8804708e+00 
-7.7870053e-01 4.9930716e-01 3.8822417e+00 
6.5655124e-01 -5.0027221e-01 3.9186139e+00 
8.2592523e-01 4.2095575e-01 3.9002469e+00 
-7.3081064e-01 -4.8460051e-01 3.9014747e+00 
-5.6281853e-01 8.1516320e-01 3.8621321e+00 
-6.4066648e-01 -2.2252573e-02 3.8624196e+00 
2.2853789e-01 1.2978947e-01 3.8634627e+00 
2.5053966e-01 7.5293422e-01 3.8503306e+00 
3.9491972e-01 6.7518091e-01 3.8512058e+00 
6.9844574e-01 -8.8190264e-01 3.8924820e+00 
2.9407823e-01 -1.0780797e+00 3.8853261e+00 
-2.2789760e-01 -6.6597688e-01 3.8506806e+00 
-6.0011947e-01 5.0183886e-01 3.8097217e+00 
-1.4529572e-01 8.1793731e-01 3.8002913e+00 
8.5120201e-02 6.8477678e-01 3.7738397e+00 
-5.7440132e-01 2.4164324e-01 3.7682686e+00 
-8.3455271e-01 3.8154358e-01 3.7673762e+00 
-3.9710459e-01 7.5351155e-01 3.7568059e+00 
-8.7358814e-01 -1.3593639e-01 3.7711535e+00 
-4.1550715e-02 -1.0437043e+00 3.8030243e+00 
6.9509971e-01 6.3775849e-01 3.7679768e+00 
7.3789126e-01 6.2646799e-02 3.7768507e+00 
1.3257255e-01 9.6642500e-01 3.7444198e+00 
3.1935593e-01 9.0944177e-01 3.7471793e+00 
-6.1464224e-02 9.8662943e-01 3.7416606e+00 
4.9263200e-01 8.1761467e-01 3.7499387e+00 
-2.5339302e-01 9.6997368e-01 3.7389014e+00 
4.2917612e-01 -3.0077893e-01 3.7497182e+00 
8.4032559e-01 -6.3346124e-01 3.7668600e+00 
-7.9920413e-03 -3.1768185e-01 3.7340300e+00 
-7.5843471e-01 5.6969982e-01 3.7128322e+00 
5.3478509e-01 -1.0106956e+00 3.7637892e+00 
-6.2931687e-01 7.5354999e-01 3.6796145e+00 
5.4529929e-01 5.8948964e-01 3.6885755e+00 
-2.8607920e-01 2.8530536e-02 3.6817169e+00 
-4.2931321e-01 5.4702467e-01 3.6701345e+00 
-1.6160645e-01 5.7700813e-01 3.6657946e+00 
7.6719248e-01 -3.5845873e-01 3.6891406e+00 
2.8109968e-01 4.6849951e-01 3.6515417e+00 
-8.9927864e-01 1.6133989e-01 3.6412060e+00 
4.3587065e-01 -7.9212672e-01 3.6764021e+00 
-5.7472944e-02 8.2305318e-01 3.6276159e+00 
-4.0861699e-01 -4.2918092e-01 3.6484098e+00 
2.6193085e-01 7.5930774e-01 3.6284637e+00 
8.4236604e-01 4.3075946e-01 3.6443317e+00 
-4.2789549e-01 9.1447234e-01 3.5925632e+00 
-4.6659502e-01 -8.3624268e-01 3.6315687e+00 
1.3515499e-01 -7.1263313e-01 3.6243360e+00 
6.7902219e-01 -8.5268402e-01 3.6379125e+00 
-6.8892670e-01 -6.1622190e-01 3.6118479e+00 
2.5626323e-01 -1.0534133e+00 3.6307116e+00 
2.3440357e-01 9.4788450e-01 3.5728414e+00 
4.1710801e-02 9.8546726e-01 3.5700846e+00 
4.1620404e-01 8.7397069e-01 3.5755985e+00 
-1.5344609e-01 9.8513377e-01 3.5673275e+00 
5.8127576e-01 7.6559758e-01 3.5783558e+00 
9.6523565e-01 -8.0256276e-02 3.5779462e+00 
1.0851225e-01 7.9847258e-01 3.5419903e+00 
-6.5957028e-01 4.7738707e-01 3.5362320e+00 
-6.9834012e-01 6.8093002e-01 3.5306811e+00 
-8.8120240e-01 -2.5221297e-01 3.5396268e+00 
9.3568432e-01 1.9227116e-01 3.5461574e+00 
5.8484656e-01 -2.2959809e-01 3.5402348e+00 
-3.0355570e-01 7.9527646e-01 3.5069470e+00 
-8.5808331e-01 3.9527562e-01 3.5115781e+00 
4.2077076e-01 6.9072014e-01 3.5112388e+00 
8.8557005e-01 -5.0571197e-01 3.5429268e+00 
7.1209866e-01 6.4501643e-01 3.5119808e+00 
-5.7384831e-01 8.1327200e-01 3.4948237e+00 
1.4941365e-01 5.7287347e-01 3.4768848e+00 
-1.6793735e-01 -6.3099647e-01 3.4952490e+00 
5.2681732e-01 4.3255061e-01 3.4740567e+00 
4.9892393e-01 -9.7707421e-01 3.5091684e+00 
-5.2877939e-01 6.4655167e-01 3.4509804e+00 
-1.2309862e-01 -1.0166520e+00 3.4806097e+00 
-4.1143230e-01 3.9095974e-01 3.4190502e+00 
-6.4379323e-01 2.0882952e-01 3.4205055e+00 
7.0156044e-01 2.8432567e-02 3.4378467e+00 
5.2009302e-01 8.2246292e-01 3.4215503e+00 
1.4559408e-01 9.7629398e-01 3.3985062e+00 
3.3466467e-01 9.2126161e-01 3.4012609e+00 
-5.0835699e-02 9.9347752e-01 3.3957515e+00 
-2.4508409e-01 9.7247517e-01 3.3929970e+00 
6.1940360e-01 -5.2594805e-01 3.4297791e+00 
4.1259560e-01 -7.4796093e-01 3.4225271e+00 
-3.6844593e-01 -1.4941365e-02 3.3857834e+00 
-7.7377951e-01 5.9235764e-01 3.3694732e+00 
-6.3878947e-01 7.5851059e-01 3.3557622e+00 
1.9825153e-01 8.0648893e-01 3.3389175e+00 
6.5967989e-01 -8.2330608e-01 3.3833783e+00 
-1.2902720e-01 8.2360709e-01 3.3304229e+00 
3.5335142e-02 8.2514966e-01 3.3303649e+00 
-3.3341821e-02 5.9320366e-01 3.3148992e+00 
-6.4346957e-01 -2.3138036e-01 3.3253565e+00 
-9.4907874e-01 8.9252271e-02 3.3171239e+00 
7.6669201e-02 2.8691784e-01 3.3060887e+00 
-4.2745993e-01 9.1191304e-01 3.2904494e+00 
4.3196559e-01 3.3626076e-02 3.2994676e+00 
4.2388391e-01 6.8407422e-01 3.2888722e+00 
3.1367770e-01 -4.5700279e-01 3.2951763e+00 
1.5322904e-01 -1.0278970e+00 3.3031583e+00 
-6.4323258e-01 -7.2232246e-01 3.2856309e+00 
-8.8166320e-01 4.0905589e-01 3.2557871e+00 
-3.2840069e-02 -3.0115467e-01 3.2692456e+00 
2.4148180e-01 9.5987600e-01 3.2507234e+00 
-8.2350314e-01 -4.9086481e-01 3.2726562e+00 
-5.2295607e-01 6.2789625e-01 3.2457032e+00 
-9.2851573e-01 -2.3075968e-01 3.2619183e+00 
-4.1452399e-01 -8.9926481e-01 3.2839141e+00 
7.2914588e-01 6.5231770e-01 3.2559891e+00 
9.6607071e-01 -2.1588159e-01 3.2733946e+00 
9.7599310e-01 6.4859793e-02 3.2566545e+00 
5.3584371e-02 9.9402905e-01 3.2241728e+00 
4.3257979e-01 8.8640434e-01 3.2296777e+00 
-1.4389946e-01 9.9015373e-01 3.2214208e+00 
5.9961891e-01 7.7858931e-01 3.2324300e+00 
8.8443172e-01 -4.8432317e-01 3.2649944e+00 
9.2050654e-01 3.2440561e-01 3.2429557e+00 
4.6299940e-01 -9.4330209e-01 3.2545762e+00 
-7.2575879e-01 6.7536879e-01 3.1935551e+00 
-5.5974776e-01 8.3031744e-01 3.1833239e+00 
-1.4264944e-01 -1.0065525e+00 3.2312834e+00 
-6.9404906e-01 4.4313157e-01 3.1750865e+00 
-4.1588026e-01 3.7232026e-01 3.1642964e+00 
1.7822182e-01 5.8448607e-01 3.1656303e+00 
4.2973414e-02 -8.3890200e-01 3.1933110e+00 
-6.6249275e-01 1.3530923e-01 3.1488631e+00 
6.9630259e-01 -2.7312905e-01 3.1722400e+00 
-2.8196391e-01 7.8810096e-01 3.1373410e+00 
5.5168438e-01 5.5074221e-01 3.1492898e+00 
5.3157955e-01 -6.8172038e-01 3.1774552e+00 
-3.9161187e-01 -6.0681415e-01 3.1618798e+00 
-1.2429451e-02 7.7445245e-01 3.1258173e+00 
-5.5278951e-01 -4.4918448e-01 3.1466773e+00 
7.3285127e-01 1.5312634e-01 3.1430142e+00 
1.7006133e-01 8.2618695e-01 3.1106389e+00 
-4.3842804e-01 6.8065214e-01 3.0657387e+00 
-5.8171421e-01 5.6074685e-01 3.0602927e+00 
-7.2004050e-01 -1.6780485e-01 3.0606763e+00 
2.3766288e-01 -6.0154915e-01 3.0542455e+00 
-4.2704040e-01 9.0944791e-01 3.0000000e+00 
-6.3199168e-01 7.7899104e-01 3.0000000e+00 
-1.1368050e-01 9.9634874e-01 3.0000000e+00 
-7.8957057e-01 6.1548865e-01 3.0000000e+00 
2.2678772e-01 9.7420418e-01 3.0000000e+00 
-9.0526992e-01 4.2286241e-01 3.0000000e+00 
-9.8049927e-01 1.8052982e-01 3.0000000e+00 
5.2182406e-01 8.5062522e-01 3.0000000e+00 
-9.9252182e-01 -8.1891194e-02 3.0000000e+00 
7.4621940e-01 6.5964258e-01 3.0000000e+00 
-9.3205059e-01 -3.4814778e-01 3.0000000e+00 
8.8360441e-01 4.5647332e-01 3.0000000e+00 
9.6982980e-01 2.1659739e-01 3.0000000e+00 
-7.9495901e-01 -5.9763718e-01 3.0000000e+00 
2.4616782e-01 2.8312656e-01 2.9747887e+00 
9.9279398e-01 -5.1669717e-02 3.0000000e+00 
-5.8611709e-01 -8.0592901e-01 3.0000000e+00 
9.3883461e-01 -3.3287641e-01 3.0000000e+00 
-3.4096852e-01 -9.4590348e-01 3.0000000e+00 
8.1349832e-01 -5.7988644e-01 3.0000000e+00 
-7.6492913e-02 -1.0056638e+00 3.0000000e+00 
6.3687307e-01 -7.7375996e-01 3.0000000e+00 
1.8458150e-01 -9.8733717e-01 3.0000000e+00 
4.2704040e-01 -9.0944791e-01 3.0000000e+00 
-2.1461354e-01 7.5490659e-01 2.9373319e+00 
-3.0436337e-01 -2.1245643e-01 2.9453082e+00 
-3.3351761e-01 4.6828109e-01 2.9280672e+00 
7.9728968e-02 -6.7416127e-03 2.9348836e+00 
-6.8420362e-01 3.7886781e-01 2.9177334e+00 
7.3119992e-01 2.6577508e-01 2.9182160e+00 
-3.9391810e-01 8.8768475e-02 2.9035704e+00 
1.0741972e-01 6.7248261e-01 2.8890393e+00 
-7.3198944e-01 5.8890890e-02 2.8934951e+00 
5.6773078e-01 -5.3277594e-01 2.9158809e+00 
3.9172471e-02 -7.8498244e-01 2.9163113e+00 
-5.1203287e-01 -5.2293146e-01 2.8969398e+00 
6.1271948e-01 4.7822720e-01 2.8441727e+00 
-4.6204326e-01 7.3139608e-01 2.8254313e+00 
-6.9816399e-01 -2.6210937e-01 2.8298569e+00 
-7.1353111e-03 -4.3059957e-01 2.8262072e+00 
-2.5222942e-01 -7.1509385e-01 2.8325107e+00 
7.0128238e-01 -2.4953447e-01 2.8283656e+00 
-7.2787642e-01 6.8866539e-01 2.7709503e+00 
9.3481642e-01 3.3800671e-01 2.7777314e+00 
3.1935751e-01 -2.8839597e-01 2.7709217e+00 
4.2220634e-01 1.0949491e-01 2.7609961e+00 
5.4596502e-02 -1.0053904e+00 2.7744000e+00 
7.3246056e-01 -6.8164909e-01 2.7722189e+00 
-9.7136283e-01 -2.1659400e-01 2.7380209e+00 
9.9018347e-01 8.3616689e-02 2.7415915e+00 
-8.7279910e-01 -4.7766992e-01 2.7252545e+00 
-2.1048030e-01 -9.8603380e-01 2.7398558e+00 
-9.0526992e-01 4.2286241e-01 2.6959071e+00 
-4.6808270e-01 -8.8474655e-01 2.7294056e+00 
8.8475001e-01 -4.6059820e-01 2.7334344e+00 
-9.9029171e-01 1.1318918e-01 2.6974993e+00 
9.7594231e-01 -1.9364755e-01 2.7247965e+00 
3.7935939e-01 9.2423296e-01 2.6921737e+00 
-6.9727105e-01 -7.0890880e-01 2.7174520e+00 
7.4621940e-01 6.5964258e-01 2.6967897e+00 
-4.2704040e-01 9.0944791e-01 2.6777058e+00 
7.2655708e-01 1.9759491e-01 2.6768863e+00 
4.2704037e-01 -9.0944785e-01 2.6944470e+00 
-2.7479121e-02 1.0018059e+00 2.6395032e+00 
-2.1983171e-02 -7.5573617e-01 2.6687002e+00 
-2.6457852e-01 6.1987728e-01 2.6225784e+00 
7.5006223e-01 -2.9943213e-02 2.6401308e+00 
-1.9935542e-01 2.3229869e-01 2.6175153e+00 
-5.6892186e-01 4.2239693e-01 2.5772769e+00 
5.8991486e-01 -5.0122261e-01 2.5892925e+00 
-3.8218400e-01 -5.7657093e-01 2.5441642e+00 
-6.8791664e-01 -6.8674564e-02 2.5208411e+00 
9.4117671e-01 3.1967840e-01 2.5176585e+00 
-7.1807796e-01 6.9905692e-01 2.4794428e+00 
-6.8111706e-01 -4.1720426e-01 2.4969974e+00 
2.9116713e-02 -1.4848383e-01 2.4800866e+00 
3.5678819e-02 -1.0065675e+00 2.4986873e+00 
9.9383354e-01 -1.7736379e-02 2.4784634e+00 
1.8540794e-01 -5.7389045e-01 2.4735963e+00 
1.0875445e-01 4.9171013e-01 2.4320359e+00 
4.6361336e-01 5.2138704e-01 2.4351621e+00 
4.4362351e-01 -2.5013345e-01 2.4482596e+00 
-9.9327248e-01 -7.2928444e-02 2.4358258e+00 
-2.7799472e-01 -9.6798432e-01 2.4500847e+00 
-9.3591851e-01 -3.3762902e-01 2.4119701e+00 
8.0615604e-01 -5.9030366e-01 2.4332135e+00 
9.3630141e-01 -3.4013775e-01 2.4036660e+00 
-4.1237062e-01 -9.7184382e-02 2.3663104e+00 
5.2915484e-01 1.3509831e-01 2.3618615e+00 
-9.0526992e-01 4.2286241e-01 2.3152423e+00 
7.4621940e-01 6.5964258e-01 2.3170447e+00 
-4.2704037e-01 9.0944791e-01 2.2843447e+00 
-3.1418003e-02 -7.4041659e-01 2.3080423e+00 
4.2704037e-01 -9.0944785e-01 2.3126035e+00 
7.3696500e-01 -4.8055336e-02 2.2776725e+00 
-7.5291179e-02 -3.1567413e-01 2.2608352e+00 
-2.9752168e-01 4.3755436e-01 2.2362759e+00 
6.2146121e-01 -4.2510656e-01 2.2295201e+00 
-5.3426659e-01 -8.4335816e-01 2.2287562e+00 
-8.2951730e-01 -5.4913956e-01 2.2146964e+00 
1.9573683e-01 9.8115993e-01 2.1781940e+00 
-5.3644997e-01 -2.1034690e-02 2.1777945e+00 
1.4180848e-01 2.8487399e-01 2.1748624e+00 
6.8387407e-01 3.4662643e-01 2.1649435e+00 
-7.3970008e-01 6.7571473e-01 2.1325064e+00 
-5.5582255e-01 3.1446421e-01 2.0896854e+00 
9.8820072e-01 1.0422207e-01 2.0943298e+00 
-9.7997963e-01 -1.7450912e-01 2.0497091e+00 
2.7097243e-01 -5.3980452e-01 2.0608833e+00 
4.0298462e-01 -9.1562793e-02 2.0314791e+00 
-1.7421457e-01 -9.9342334e-01 2.0537186e+00 
8.3802426e-01 -5.4290038e-01 2.0417392e+00 
-4.5756262e-02 6.2246948e-01 1.9313934e+00 
-5.2463973e-01 -3.9706221e-01 1.9196193e+00 
4.1450244e-01 5.3854948e-01 1.9040374e+00 
-2.8371462e-01 8.1928939e-02 1.8738438e+00 
-9.0526992e-01 4.2286241e-01 1.8213077e+00 
7.4621940e-01 6.5964258e-01 1.8240469e+00 
-3.5810706e-01 5.4397053e-01 1.8064058e+00 
-4.2704037e-01 9.0944791e-01 1.7878114e+00 
4.2704037e-01 -9.0944785e-01 1.8180406e+00 
-6.1295873e-01 -4.9015332e-02 1.7388778e+00 
5.3911567e-01 1.3084483e-01 1.7456506e+00 
1.0224397e-01 2.5779781e-01 1.7249942e+00 
-4.0549513e-02 -6.2446642e-01 1.7381071e+00 
2.0848911e-01 9.7842866e-01 1.7024347e+00 
4.5827839e-01 -3.5440651e-01 1.7217760e+00 
-6.9805092e-01 -7.0813352e-01 1.7194990e+00 
-9.0666479e-01 -4.0974140e-01 1.6905162e+00 
-4.0245965e-01 -9.1919529e-01 1.6931937e+00 
5.7967063e-03 -2.2967646e-01 1.6339916e+00 
9.7192907e-01 -2.1353820e-01 1.6468893e+00 
-7.1538699e-01 7.0185864e-01 1.5775042e+00 
-9.9593961e-01 -2.3571199e-02 1.5735855e+00 
9.5943785e-01 2.5911075e-01 1.5800918e+00 
7.8133208e-01 -6.2357694e-01 1.5736427e+00 
-1.7988242e-02 -1.0078388e+00 1.5730295e+00 
1.2964660e-01 6.1788768e-01 1.5090177e+00 
-5.5126107e-01 -5.6000477e-01 1.5276614e+00 
4.1392013e-01 4.5181543e-01 1.4581090e+00 
-1.9476028e-01 2.1873257e-01 1.4466690e+00 
6.7625386e-01 -1.4809866e-01 1.4226868e+00 
-4.7578767e-01 5.1068515e-01 1.3953859e+00 
-7.1232396e-01 1.5932441e-01 1.4010501e+00 
-2.2488801e-02 1.0018935e+00 1.3694215e+00 
1.6717035e-01 -7.2558409e-01 1.4004959e+00 
2.8698811e-01 2.3913767e-02 1.3786544e+00 
4.3233338e-01 9.0020740e-01 1.3684450e+00 
-9.0526992e-01 4.2286241e-01 1.3655612e+00 
-4.2704037e-01 9.0944791e-01 1.3578379e+00 
6.8453425e-01 1.2318850e-01 1.3792515e+00 
7.4621940e-01 6.5964258e-01 1.3674798e+00 
-6.8948179e-01 -2.4121077e-01 1.3674076e+00 
5.8343560e-01 -3.9571148e-01 1.3771706e+00 
-2.3334521e-01 -6.9907331e-01 1.3663754e+00 
2.9577035e-01 -2.9928526e-01 1.3558578e+00 
4.2704037e-01 -9.0944785e-01 1.3643657e+00 
-9.4103092e-01 -3.2314196e-01 1.2929832e+00 
-7.9962391e-01 -5.9144408e-01 1.2926244e+00 
9.9270952e-01 -5.3422276e-02 1.2960579e+00 
-5.8412665e-01 -8.0745107e-01 1.2920035e+00 
9.3100214e-01 -3.5478270e-01 1.2954748e+00 
-3.1756219e-01 -9.5471847e-01 1.2921553e+00 
-9.9594492e-01 -2.3388207e-02 1.2617170e+00 
9.6106803e-01 2.5293878e-01 1.2643015e+00 
7.8211051e-01 -6.2257606e-01 1.2629255e+00 
-1.7607260e-02 -1.0078406e+00 1.2611448e+00 
-2.9719910e-01 -1.3936405e-01 1.2234018e+00 
-5.0681281e-01 -5.1500374e-01 1.1853551e+00 
-4.2704040e-01 9.0944791e-01 1.0000000e+00 
-1.2226492e-01 9.9539471e-01 1.0000000e+00 
-7.1182185e-01 7.0553678e-01 1.0000000e+00 
-1.9239026e-01 6.6071123e-01 1.0000000e+00 
2.0648271e-01 9.7886992e-01 1.0000000e+00 
-6.1820942e-01 3.0148196e-01 1.0000000e+00 
-9.0526992e-01 4.2286241e-01 1.0000000e+00 
2.4155426e-01 6.2785041e-01 1.0000000e+00 
-2.5678754e-01 1.1391911e-01 1.0000000e+00 
5.1006144e-01 8.5784024e-01 1.0000000e+00 
-9.8831642e-01 1.2971936e-01 1.0000000e+00 
1.9383372e-01 1.6523583e-01 1.0000000e+00 
5.7923841e-01 3.7217891e-01 1.0000000e+00 
-6.5467042e-01 -2.2385697e-01 1.0000000e+00 
7.4621940e-01 6.5964258e-01 1.0000000e+00 
-9.7993863e-01 -1.7473318e-01 1.0000000e+00 
-4.5600580e-03 -3.1436422e-01 1.0000000e+00 
3.5076600e-01 -1.4805056e-01 1.0000000e+00 
9.1057056e-01 3.9932656e-01 1.0000000e+00 
-8.8079083e-01 -4.6277547e-01 1.0000000e+00 
6.8666267e-01 -3.7920441e-02 1.0000000e+00 
-2.2750007e-01 -6.8671501e-01 1.0000000e+00 
9.8848867e-01 1.0148245e-01 1.0000000e+00 
-6.9900227e-01 -7.0718569e-01 1.0000000e+00 
5.4110509e-01 -4.3544096e-01 1.0000000e+00 
2.5687107e-01 -6.7960268e-01 1.0000000e+00 
9.7349328e-01 -2.0602842e-01 1.0000000e+00 
-4.5617908e-01 -8.9146864e-01 1.0000000e+00 
8.6685258e-01 -4.9429294e-01 1.0000000e+00 
-1.6968013e-01 -9.9423677e-01 1.0000000e+00 
6.7886496e-01 -7.3628962e-01 1.0000000e+00 
1.3472046e-01 -9.9629015e-01 1.0000000e+00 
4.2704040e-01 -9.0944791e-01 1.0000000e+00 

CELLS 15905 79525
4 0 2 3 1
4 1 6 5 4
4 6 5 4 11
4 5 1 4 3
4 40 27 32 31
4 32 40 31 48
4 27 32 31 22
4 80 74 85 86
4 85 80 86 92
4 86 85 92 97
4 31 32 48 49
4 32 31 22 34
4 59 44 58 53
4 58 59 53 81
4 16 6 11 12
4 11 16 12 22
4 6 11 12 5
4 12 11 22 24
4 11 12 5 13
4 435 426 431 424
4 44 28 41 39
4 27 16 22 21
4 22 27 21 31
4 16 22 21 12
4 21 22 31 30
4 22 21 12 23
4 5 4 11 15
4 7 9 14 8
4 580 566 572 571
4 28 25 41 37
4 587 580 572 571
4 26 35 42 29
4 63 68 73 64
4 63 68 64 54
4 73 63 64 76
4 64 63 54 48
4 64 63 48 67
4 553 540 547 551
4 54 40 48 47
4 48 54 47 63
4 40 48 47 31
4 47 48 63 62
4 48 47 31 45
4 172 167 180 166
4 172 167 166 162
4 167 166 162 160
4 23 30 35 24
4 566 553 560 559
4 80 68 74 73
4 68 74 73 64
4 74 80 73 86
4 74 73 64 78
4 73 74 86 78
4 74 85 86 89
4 24 15 29 23
4 3 2 8 10
4 103 97 107 106
4 107 103 106 115
4 106 107 115 116
4 97 107 106 102
4 106 107 116 113
4 435 432 426 424
4 86 85 97 89
4 13 23 26 15
4 44 41 58 51
4 572 566 560 559
4 8 17 10 14
4 103 92 97 96
4 92 97 96 86
4 97 103 96 106
4 97 96 86 100
4 96 97 106 100
4 547 540 534 536
4 26 23 35 29
4 560 553 547 559
4 24 29 38 35
4 28 17 25 20
4 591 580 587 588
4 41 44 39 51
4 3569 3542 3552 3555
4 3542 3552 3555 3504
4 3552 3569 3555 3586
4 521 516 507 520
4 34 38 50 46
4 11 12 13 15
4 46 60 61 50
4 117 123 128 127
4 123 128 127 134
4 128 117 127 122
4 128 127 134 137
4 128 127 137 135
4 13 9 5 10
4 476 463 469 471
4 45 62 60 49
4 203 199 207 206
4 207 203 206 210
4 206 207 210 216
4 167 180 166 170
4 29 36 43 42
4 36 43 42 56
4 43 29 42 38
4 183 172 180 179
4 180 183 179 187
4 172 180 179 166
4 179 180 187 182
4 49 34 50 45
4 432 419 426 424
4 419 426 424 416
4 426 424 416 431
4 2482 2480 2463 2481
4 2482 2480 2481 2503
4 2480 2463 2481 2460
4 2463 2482 2481 2466
4 494 489 483 493
4 494 489 493 500
4 493 494 500 507
4 7 9 8 2
4 65 50 66 60
4 540 525 534 536
4 33 26 42 29
4 137 143 147 138
4 137 143 138 134
4 147 137 138 145
4 138 137 134 127
4 35 30 46 38
4 167 166 160 170
4 67 49 65 62
4 14 25 17 19
4 534 525 521 536
4 2501 2503 2482 2496
4 2501 2503 2496 2513
4 2501 2503 2513 2527
4 49 50 65 60
4 162 151 160 159
4 160 162 159 166
4 151 160 159 148
4 160 159 148 158
4 159 160 166 158
4 60 62 71 65
4 23 13 12 18
4 23 13 18 15
4 13 18 15 12
4 18 23 15 24
4 15 18 24 11
4 18 23 24 12
4 15 18 11 12
4 18 11 12 24
4 203 191 199 198
4 191 199 198 187
4 199 203 198 206
4 62 76 71 67
4 50 55 66 61
4 55 66 61 69
4 516 500 507 506
4 34 24 38 30
4 115 123 117 116
4 117 115 116 106
4 116 117 106 111
4 123 117 116 127
4 117 116 127 124
4 30 45 46 34
4 143 151 147 148
4 151 147 148 159
4 147 143 148 138
4 147 148 159 157
4 148 147 138 146
4 483 476 469 482
4 483 476 482 489
4 482 483 489 493
4 67 65 72 71
4 525 516 521 520
4 52 46 61 50
4 30 23 21 22
4 441 432 435 436
4 432 435 436 424
4 46 45 60 50
4 59 58 79 81
4 3806 3770 3783 3792
4 3783 3806 3792 3818
4 356 346 353 351
4 42 43 38 55
4 346 353 351 342
4 42 43 55 56
4 94 95 104 99
4 257 253 264 263
4 264 257 263 267
4 263 264 267 272
4 71 76 84 72
4 222 216 226 225
4 226 222 225 230
4 225 226 230 234
4 198 199 206 204
4 78 72 87 84
4 222 210 216 215
4 210 216 215 206
4 216 222 215 225
4 216 215 206 214
4 215 216 225 214
4 596 611 597 598
4 597 596 598 591
4 336 328 332 331
4 328 332 331 322
4 332 336 331 342
4 180 179 166 182
4 632 626 643 642
4 13 9 10 19
4 95 108 104 99
4 377 388 381 380
4 388 381 380 392
4 381 377 380 375
4 381 380 392 382
4 237 234 245 244
4 245 237 244 249
4 244 245 249 253
4 3898 3932 3918 3914
4 3932 3918 3914 3940
4 3918 3898 3914 3885
4 3932 3918 3940 3959
4 3918 3914 3940 3917
4 48 47 45 62
4 621 611 615 617
4 199 207 206 205
4 84 88 95 87
4 89 87 99 95
4 237 230 234 233
4 234 237 233 244
4 230 234 233 225
4 2503 2496 2513 2509
4 76 88 84 78
4 328 315 322 321
4 322 328 321 331
4 3770 3783 3792 3758
4 3770 3783 3758 3740
4 3783 3792 3758 3818
4 89 78 87 88
4 581 572 567 571
4 42 35 52 38
4 179 183 188 187
4 183 188 187 191
4 188 179 187 181
4 188 187 191 198
4 188 187 198 192
4 367 356 363 362
4 356 363 362 353
4 363 367 362 373
4 4116 4089 4117 4104
4 4117 4116 4104 4139
4 4117 4116 4139 4158
4 346 336 342 341
4 336 342 341 331
4 342 346 341 351
4 632 621 626 628
4 71 84 82 72
4 138 137 127 136
4 2482 2501 2496 2466
4 87 72 83 84
4 32 31 34 49
4 483 469 474 482
4 78 67 72 76
4 496 502 490 495
4 496 502 495 513
4 502 490 495 493
4 490 496 495 480
4 2503 2482 2496 2481
4 2482 2496 2481 2466
4 42 33 36 56
4 33 37 36 56
4 2496 2501 2513 2466
4 45 30 31 34
4 5 4 15 10
4 5 4 10 3
4 1361 1364 1375 1367
4 66 50 61 60
4 435 441 436 443
4 648 632 643 642
4 95 100 108 99
4 353 356 351 362
4 72 77 83 82
4 77 83 82 91
4 83 72 82 84
4 587 572 581 571
4 88 100 95 89
4 469 462 474 471
4 102 89 99 100
4 2 3 1 5
4 75 71 82 72
4 257 249 253 252
4 249 253 252 244
4 253 257 252 263
4 23 30 24 22
4 206 207 216 217
4 3374 3393 3394 3383
4 3393 3394 3383 3419
4 29 24 23 35
4 26 23 29 15
4 29 26 15 20
4 58 44 51 53
4 51 58 53 81
4 44 51 53 39
4 51 53 39 56
4 51 53 56 81
4 469 462 471 463
4 1734 1746 1727 1737
4 1734 1746 1737 1754
4 1727 1734 1737 1718
4 1734 1737 1718 1732
4 482 483 493 490
4 315 322 321 313
4 322 321 313 317
4 566 571 559 572
4 571 559 572 567
4 483 494 493 490
4 46 45 50 34
4 615 611 598 617
4 476 469 482 471
4 469 482 471 474
4 124 121 133 131
4 474 490 483 482
4 89 78 88 86
4 88 89 86 100
4 42 33 29 36
4 33 29 36 20
4 37 33 36 20
4 19 33 37 20
4 19 33 20 26
4 24 23 22 12
4 9 5 10 2
4 3918 3914 3917 3885
4 82 84 94 83
4 94 82 83 91
4 540 547 551 536
4 1474 1491 1485 1481
4 1485 1474 1481 1464
4 34 24 30 22
4 216 226 225 217
4 502 517 507 506
4 1376 1361 1375 1367
4 29 42 38 35
4 3898 3932 3914 3900
4 657 663 649 660
4 657 663 660 675
4 663 649 660 654
4 276 267 272 271
4 272 276 271 283
4 267 272 271 263
4 271 272 283 279
4 272 271 263 266
4 135 145 142 136
4 65 66 77 75
4 66 77 75 69
4 77 65 75 72
4 75 77 72 82
4 75 77 82 91
4 271 276 282 283
4 276 282 283 286
4 282 271 283 279
4 282 283 286 291
4 282 283 291 289
4 28 25 37 20
4 3599 3572 3569 3579
4 3572 3569 3579 3555
4 3572 3569 3555 3542
4 3569 3579 3555 3586
4 560 572 559 567
4 117 116 124 111
4 142 145 153 144
4 1637 1628 1648 1639
4 1648 1637 1639 1655
4 1637 1628 1639 1620
4 60 62 65 49
4 380 381 375 382
4 113 102 109 111
4 301 297 291 300
4 301 297 300 305
4 291 301 300 304
4 300 301 305 313
4 300 301 313 304
4 2727 2731 2750 2737
4 2727 2731 2737 2710
4 2731 2750 2737 2760
4 363 362 353 357
4 679 662 670 669
4 662 670 669 655
4 670 679 669 685
4 534 521 526 536
4 111 122 120 124
4 517 526 521 520
4 199 198 187 193
4 341 342 351 345
4 341 342 345 331
4 351 341 345 344
4 341 345 344 331
4 2152 2155 2170 2163
4 2152 2155 2163 2125
4 2155 2170 2163 2174
4 137 138 145 136
4 118 120 126 121
4 61 66 60 75
4 61 66 75 69
4 109 99 105 108
4 581 567 576 575
4 581 567 575 571
4 576 581 575 589
4 87 99 95 94
4 17 14 19 10
4 2496 2513 2509 2512
4 620 622 633 623
4 620 622 623 614
4 622 633 623 641
4 633 620 623 627
4 500 493 507 506
4 493 507 506 502
4 4116 4104 4139 4123
4 4116 4104 4123 4082
4 851 838 845 846
4 120 122 131 124
4 144 141 150 149
4 141 150 149 152
4 150 144 149 155
4 297 300 290 291
4 300 290 291 296
4 290 297 291 286
4 291 290 286 282
4 291 290 282 289
4 290 291 296 289
4 95 84 87 94
4 3451 3459 3483 3467
4 3451 3459 3467 3419
4 3459 3483 3467 3504
4 3483 3451 3467 3485
4 106 107 113 102
4 33 26 29 20
4 529 545 539 537
4 545 539 537 554
4 351 353 362 354
4 351 353 354 345
4 362 351 354 358
4 354 351 345 358
4 1706 1693 1714 1703
4 1706 1693 1703 1687
4 1714 1706 1703 1718
4 1706 1703 1718 1710
4 1714 1706 1718 1727
4 1703 1714 1718 1732
4 1703 1718 1710 1719
4 1718 1706 1710 1727
4 65 67 62 71
4 135 122 128 127
4 28 41 39 37
4 41 39 37 51
4 39 37 51 56
4 39 28 37 20
4 37 39 20 36
4 37 39 36 56
4 2710 2686 2693 2692
4 2686 2693 2692 2668
4 2693 2710 2692 2718
4 367 377 373 375
4 377 373 375 381
4 373 367 375 363
4 373 375 381 383
4 662 648 655 654
4 648 655 654 643
4 655 662 654 669
4 560 547 555 559
4 100 111 108 102
4 4116 4139 4158 4147
4 4139 4158 4147 4171
4 2 3 5 10
4 589 576 585 584
4 589 576 584 575
4 585 589 584 594
4 541 526 527 530
4 541 526 530 536
4 526 527 530 517
4 3462 3454 3488 3469
4 3462 3454 3469 3425
4 3488 3462 3469 3467
4 106 111 100 102
4 554 569 565 563
4 554 569 563 562
4 569 565 563 579
4 4116 4089 4104 4082
4 419 424 413 416
4 424 413 416 421
4 424 413 421 425
4 413 416 421 410
4 3914 3940 3917 3935
4 136 124 133 135
4 490 502 494 493
4 50 49 45 60
4 646 649 635 645
4 646 649 645 660
4 649 635 645 642
4 649 645 660 654
4 145 157 153 146
4 99 98 105 104
4 98 105 104 110
4 105 99 104 108
4 104 105 108 118
4 104 105 118 110
4 305 311 300 313
4 305 311 313 315
4 311 300 313 310
4 311 313 315 321
4 313 311 310 321
4 64 63 67 76
4 46 35 38 52
4 153 157 164 155
4 431 435 424 436
4 431 435 436 443
4 1595 1602 1615 1605
4 1602 1615 1605 1619
4 1595 1602 1605 1589
4 124 113 121 120
4 541 555 547 551
4 2635 2655 2648 2650
4 2635 2655 2650 2636
4 2648 2635 2650 2628
4 3394 3374 3383 3370
4 655 643 649 654
4 507 494 502 493
4 146 144 155 153
4 78 67 76 64
4 253 252 244 250
4 2317 2329 2340 2320
4 2317 2329 2320 2311
4 2329 2340 2320 2349
4 2329 2340 2349 2356
4 2320 2329 2349 2356
4 13 11 15 5
4 15 13 5 10
4 15 13 10 20
4 148 147 146 157
4 30 31 34 22
4 388 394 381 392
4 394 381 392 385
4 394 381 385 383
4 392 394 385 397
4 76 88 78 73
4 78 76 73 64
4 158 146 155 157
4 567 555 558 561
4 567 555 561 559
4 555 558 561 544
4 558 567 561 575
4 567 561 575 571
4 561 575 571 577
4 561 575 577 568
4 575 571 577 588
4 1775 1786 1766 1777
4 1775 1786 1777 1793
4 1766 1775 1777 1758
4 1775 1777 1758 1773
4 66 65 60 75
4 562 577 569 563
4 76 62 63 67
4 62 63 67 48
4 131 135 142 133
4 67 49 62 48
4 2668 2647 2653 2650
4 46 30 34 38
4 244 245 253 251
4 621 615 626 628
4 4104 4117 4139 4125
4 133 121 129 131
4 541 534 526 536
4 626 643 642 635
4 26 13 15 20
4 1572 1557 1565 1566
4 1565 1572 1566 1585
4 1557 1565 1566 1549
4 1565 1566 1549 1562
4 1565 1566 1562 1585
4 1566 1549 1562 1550
4 3914 3932 3940 3942
4 3914 3932 3942 3900
4 146 136 144 145
4 1343 1344 1361 1351
4 362 363 373 366
4 362 363 366 357
4 373 362 366 370
4 124 136 127 135
4 108 111 120 109
4 87 83 98 94
4 83 98 94 91
4 3716 3679 3690 3699
4 3679 3690 3699 3654
4 3690 3716 3699 3711
4 9 10 19 14
4 142 153 149 144
4 332 331 322 329
4 71 60 65 75
4 541 544 555 546
4 555 541 546 551
4 541 544 546 530
4 546 541 530 536
4 530 546 536 545
4 530 546 545 537
4 530 546 537 544
4 546 545 537 563
4 545 530 537 529
4 530 537 529 513
4 546 537 544 563
4 537 530 544 527
4 537 530 527 513
4 545 530 529 536
4 544 537 527 538
4 530 529 536 520
4 544 537 538 563
4 537 527 538 522
4 536 530 520 526
4 2567 2547 2548 2555
4 2547 2548 2555 2527
4 2548 2567 2555 2577
4 117 122 111 124
4 45 62 49 48
4 521 507 517 520
4 136 133 144 142
4 2192 2193 2215 2200
4 2192 2193 2200 2170
4 234 233 225 228
4 140 142 149 144
4 35 30 38 24
4 19 13 26 20
4 567 560 555 559
4 2513 2503 2509 2524
4 113 109 121 120
4 233 234 244 238
4 331 332 342 345
4 120 131 126 121
4 49 34 45 31
4 643 648 642 654
4 3374 3393 3383 3361
4 2513 2501 2527 2529
4 2527 2513 2529 2555
4 50 38 55 52
4 38 55 52 42
4 55 52 42 56
4 55 50 52 61
4 52 55 61 69
4 2675 2668 2653 2663
4 2668 2653 2663 2650
4 2675 2668 2663 2692
4 553 559 551 547
4 559 551 547 555
4 547 534 541 536
4 4139 4117 4158 4153
4 252 253 263 255
4 252 253 255 250
4 263 252 255 265
4 255 252 250 265
4 250 255 265 260
4 3545 3576 3554 3556
4 3576 3554 3556 3586
4 3554 3545 3556 3528
4 3554 3545 3528 3504
4 3556 3554 3528 3555
4 3556 3554 3555 3586
4 3528 3556 3555 3536
4 38 50 46 52
4 225 226 234 228
4 353 351 342 345
4 145 135 137 136
4 3940 3918 3917 3959
4 102 99 109 108
4 263 264 272 266
4 635 649 643 642
4 577 590 586 584
4 590 586 584 594
4 577 590 584 575
4 584 577 575 568
4 586 577 584 569
4 121 119 129 126
4 119 129 126 130
4 129 121 126 131
4 3173 3169 3198 3181
4 3173 3169 3181 3143
4 2503 2496 2509 2481
4 1524 1508 1516 1518
4 1508 1516 1518 1495
4 1516 1524 1518 1533
4 1516 1524 1533 1545
4 1518 1516 1533 1495
4 441 447 436 443
4 447 436 443 438
4 507 516 506 520
4 99 87 98 94
4 513 517 502 508
4 517 502 508 506
4 513 517 508 530
4 502 513 508 495
4 508 502 495 506
4 2148 2132 2130 2140
4 2148 2132 2140 2163
4 2132 2130 2140 2113
4 2130 2148 2140 2146
4 2130 2148 2146 2160
4 2148 2146 2160 2163
4 2146 2160 2163 2161
4 2146 2130 2160 2137
4 2160 2146 2137 2161
4 2140 2130 2146 2124
4 2148 2146 2163 2140
4 2146 2163 2140 2124
4 4089 4117 4104 4084
4 122 135 131 124
4 321 322 331 327
4 321 322 327 317
4 159 166 168 158
4 253 264 263 255
4 65 72 71 75
4 234 245 244 239
4 3792 3770 3758 3762
4 480 490 474 484
4 480 490 484 495
4 490 474 484 482
4 474 480 484 464
4 490 484 495 493
4 2503 2513 2527 2524
4 20 10 17 19
4 20 10 19 13
4 17 20 19 25
4 545 562 554 561
4 545 562 561 551
4 73 86 88 78
4 3044 3020 3021 3030
4 877 871 884 879
4 2215 2192 2200 2212
4 1673 1660 1658 1666
4 1660 1658 1666 1642
4 10 8 14 9
4 10 8 9 2
4 4054 4089 4050 4065
4 4050 4054 4065 4025
4 514 529 523 508
4 514 529 508 520
4 508 514 520 506
4 508 514 506 497
4 520 508 506 517
4 508 514 497 505
4 520 508 517 530
4 508 514 505 523
4 3599 3572 3579 3597
4 296 290 289 288
4 296 290 288 302
4 289 296 288 298
4 288 296 302 298
4 3417 3391 3394 3404
4 3391 3394 3404 3370
4 1476 1475 1460 1472
4 1476 1475 1472 1493
4 182 178 190 189
4 2710 2686 2692 2709
4 2373 2390 2374 2382
4 2373 2390 2382 2393
4 2390 2374 2382 2389
4 2374 2373 2382 2355
4 598 600 615 617
4 649 655 654 663
4 655 654 663 669
4 530 544 527 541
4 3170 3144 3171 3162
4 3171 3170 3162 3199
4 688 703 696 694
4 688 703 694 692
4 703 696 694 710
4 696 688 694 681
4 36 43 56 57
4 43 56 57 55
4 56 36 57 39
4 57 56 39 53
4 57 56 53 81
4 530 529 520 508
4 497 505 492 498
4 497 505 498 508
4 505 492 498 501
4 492 497 498 484
4 271 282 275 279
4 642 643 654 649
4 331 321 327 330
4 321 327 330 316
4 327 331 330 329
4 330 327 329 325
4 327 330 316 325
4 3806 3818 3831 3813
4 3806 3818 3813 3792
4 3813 3806 3792 3805
4 3831 3806 3813 3805
4 3806 3792 3805 3770
4 518 504 499 501
4 75 77 91 69
4 3169 3198 3181 3195
4 2323 2343 2326 2320
4 2343 2326 2320 2356
4 663 680 670 669
4 422 437 431 421
4 431 422 421 416
4 421 431 416 424
4 421 431 424 436
4 3932 3940 3942 3966
4 3071 3095 3094 3088
4 3095 3094 3088 3122
4 4139 4158 4171 4153
4 253 264 255 266
4 1416 1420 1410 1417
4 1410 1416 1417 1411
4 1416 1420 1417 1435
4 1420 1410 1417 1408
4 1416 1417 1411 1428
4 133 144 142 140
4 164 168 177 165
4 407 413 404 403
4 413 404 403 411
4 404 407 403 399
4 403 404 399 394
4 403 404 394 398
4 2513 2501 2529 2466
4 3545 3556 3528 3536
4 3629 3599 3624 3614
4 3624 3629 3614 3654
4 3629 3599 3614 3597
4 3599 3624 3614 3586
4 657 646 652 651
4 657 646 651 660
4 651 657 660 665
4 646 652 651 636
4 652 657 651 667
4 202 190 196 201
4 626 632 628 642
4 628 626 642 635
4 589 602 600 595
4 589 602 595 594
4 589 602 594 604
4 595 589 594 584
4 602 594 604 603
4 602 600 595 616
4 602 595 594 603
4 3555 3572 3542 3541
4 375 373 363 366
4 375 373 366 383
4 363 375 366 369
4 375 366 369 383
4 136 127 135 137
4 3264 3240 3265 3253
4 3265 3264 3253 3288
4 627 633 644 634
4 633 644 634 650
4 644 627 634 638
4 627 633 634 623
4 633 634 623 651
4 644 627 638 637
4 627 634 638 629
4 634 638 629 647
4 638 629 647 639
4 634 638 647 659
4 629 634 647 636
4 629 634 636 618
4 634 647 636 652
4 634 644 638 659
4 627 638 637 606
4 636 634 652 651
4 205 193 202 204
4 126 131 140 129
4 140 126 129 130
4 463 453 462 457
4 462 463 457 471
4 457 462 471 467
4 1693 1714 1703 1669
4 1775 1777 1773 1793
4 3173 3198 3189 3181
4 970 976 967 966
4 967 970 966 950
4 207 206 205 217
4 113 102 111 106
4 111 113 106 116
4 1861 1843 1864 1854
4 1864 1861 1854 1882
4 1861 1843 1854 1847
4 714 701 711 713
4 711 714 713 728
4 3716 3679 3699 3714
4 3071 3047 3075 3066
4 3075 3071 3066 3088
4 3071 3066 3088 3070
4 959 954 944 953
4 959 954 953 967
4 954 944 953 941
4 513 508 495 498
4 508 495 498 497
4 508 495 497 506
4 495 498 497 484
4 497 495 484 493
4 1609 1608 1594 1601
4 1609 1608 1601 1624
4 1594 1609 1601 1605
4 1609 1601 1605 1622
4 1605 1609 1622 1595
4 1594 1609 1605 1595
4 1601 1594 1605 1589
4 3172 3146 3174 3162
4 569 586 579 584
4 453 457 447 462
4 149 150 155 163
4 149 150 163 152
4 1388 1383 1367 1378
4 1383 1367 1378 1376
4 1388 1383 1378 1401
4 1367 1378 1376 1371
4 1378 1383 1376 1391
4 1378 1376 1371 1377
4 1376 1378 1391 1377
4 109 105 119 118
4 105 119 118 110
4 119 109 118 121
4 118 119 121 126
4 118 119 126 130
4 3467 3483 3485 3496
4 3467 3483 3496 3504
4 3483 3485 3496 3513
4 3485 3496 3513 3512
4 3496 3483 3513 3504
4 121 124 120 131
4 2548 2527 2529 2555
4 691 679 685 684
4 679 685 684 669
4 685 691 684 701
4 685 684 669 680
4 136 146 138 145
4 3239 3215 3240 3231
4 3240 3239 3231 3253
4 665 672 681 674
4 665 672 674 660
4 672 681 674 688
4 681 665 674 673
4 193 182 190 192
4 1524 1508 1518 1507
4 2171 2190 2173 2178
4 2171 2190 2178 2192
4 2190 2173 2178 2191
4 481 492 475 484
4 481 492 484 497
4 484 481 497 493
4 475 481 484 467
4 481 484 467 471
4 481 484 471 482
4 481 484 482 493
4 484 471 482 474
4 484 471 474 467
4 1746 1727 1737 1745
4 567 576 575 558
4 3862 3831 3856 3848
4 3831 3856 3848 3818
4 3856 3862 3848 3891
4 1737 1727 1718 1710
4 565 554 563 549
4 4117 4139 4125 4153
4 2113 2094 2112 2110
4 2113 2094 2110 2096
4 2094 2112 2110 2095
4 2112 2113 2110 2124
4 2110 2112 2124 2115
4 690 692 680 688
4 142 131 133 140
4 366 373 370 383
4 3121 3122 3142 3130
4 3121 3122 3130 3094
4 1344 1329 1332 1339
4 170 158 165 168
4 523 539 532 528
4 523 539 528 529
4 539 532 528 549
4 532 523 528 519
4 311 300 310 302
4 300 310 302 304
4 310 302 304 312
4 310 311 302 316
4 310 311 316 321
4 302 310 316 312
4 45 49 31 48
4 3554 3528 3555 3504
4 3653 3676 3669 3666
4 3653 3676 3666 3651
4 3669 3653 3666 3633
4 165 163 173 171
4 163 173 171 175
4 173 165 171 178
4 171 173 178 186
4 71 76 72 67
4 2602 2622 2608 2607
4 2608 2602 2607 2593
4 2608 2602 2593 2579
4 2602 2607 2593 2581
4 2602 2593 2579 2581
4 626 619 635 628
4 3374 3383 3370 3353
4 3374 3383 3353 3361
4 3370 3374 3353 3343
4 3374 3353 3343 3361
4 3353 3370 3343 3340
4 3314 3288 3317 3306
4 3317 3314 3306 3343
4 1705 1702 1686 1696
4 1702 1686 1696 1694
4 464 451 460 458
4 464 451 458 462
4 20 19 25 37
4 2419 2409 2437 2421
4 2437 2419 2421 2444
4 2419 2409 2421 2397
4 188 187 192 181
4 3315 3297 3290 3303
4 3315 3297 3303 3321
4 3297 3290 3303 3273
4 3315 3297 3321 3333
4 3321 3315 3333 3341
4 3303 3315 3321 3334
4 3290 3303 3273 3279
4 3290 3315 3303 3313
4 3297 3303 3321 3293
4 3297 3290 3273 3257
4 3303 3297 3273 3293
4 157 168 164 158
4 407 419 413 416
4 635 646 645 625
4 1751 1738 1729 1740
4 1751 1738 1740 1765
4 1729 1751 1740 1749
4 845 856 851 846
4 1557 1565 1549 1545
4 3047 3021 3026 3031
4 3021 3026 3031 2993
4 3026 3047 3031 3055
4 3047 3021 3031 3044
4 905 895 911 903
4 911 905 903 912
4 502 495 506 493
4 495 506 493 497
4 1622 1624 1609 1601
4 255 263 265 266
4 265 255 266 260
4 4084 4054 4056 4069
4 4056 4084 4069 4086
4 181 192 189 182
4 83 87 84 94
4 3419 3417 3394 3404
4 1442 1446 1429 1436
4 1429 1442 1436 1430
4 1442 1446 1436 1460
4 1429 1442 1430 1418
4 1442 1436 1430 1450
4 1436 1429 1430 1419
4 538 522 531 528
4 538 522 528 537
4 528 538 537 539
4 531 538 528 548
4 537 528 539 529
4 522 531 528 519
4 522 528 537 529
4 528 538 539 549
4 559 551 555 561
4 559 551 561 562
4 2463 2460 2444 2458
4 2463 2460 2458 2481
4 2458 2463 2481 2466
4 113 124 116 111
4 113 124 111 120
4 111 113 120 109
4 3454 3488 3469 3480
4 527 513 522 537
4 2232 2233 2253 2236
4 2232 2233 2236 2215
4 2233 2253 2236 2258
4 2253 2232 2236 2252
4 189 192 201 190
4 192 198 204 193
4 2193 2215 2200 2217
4 3778 3768 3804 3790
4 3778 3768 3790 3746
4 3804 3778 3790 3809
4 670 669 655 663
4 108 100 102 99
4 2503 2509 2524 2500
4 2503 2509 2500 2481
4 2160 2148 2163 2174
4 3770 3758 3762 3743
4 1343 1329 1344 1339
4 506 507 520 517
4 2089 2086 2108 2110
4 438 454 449 446
4 438 454 446 447
4 454 449 446 458
4 446 454 458 451
4 458 446 451 460
4 454 449 458 461
4 458 454 461 467
4 461 458 467 473
4 458 454 467 462
4 446 454 451 447
4 446 451 460 445
4 446 451 445 437
4 446 451 437 443
4 445 446 437 434
4 449 458 461 460
4 225 233 227 228
4 3575 3596 3601 3592
4 3575 3596 3592 3570
4 3596 3601 3592 3628
4 3601 3575 3592 3588
4 473 464 460 458
4 1727 1734 1718 1714
4 1734 1718 1714 1732
4 2795 2804 2819 2808
4 2795 2804 2808 2783
4 2804 2819 2808 2823
4 709 691 701 700
4 691 701 700 684
4 701 709 700 713
4 547 541 551 536
4 3264 3288 3287 3278
4 3288 3287 3278 3306
4 689 696 704 695
4 696 704 695 710
4 704 689 695 693
4 170 165 178 177
4 2376 2357 2380 2372
4 2380 2376 2372 2397
4 438 449 434 446
4 576 584 575 568
4 108 120 118 109
4 441 453 447 443
4 521 525 520 536
4 520 521 536 526
4 99 89 95 100
4 1788 1769 1774 1780
4 1769 1774 1780 1750
4 1774 1788 1780 1784
4 828 830 838 834
4 649 657 660 646
4 3716 3699 3711 3730
4 3071 3075 3095 3088
4 2130 2146 2124 2137
4 2146 2124 2137 2151
4 1530 1512 1531 1525
4 1531 1530 1525 1548
4 1530 1512 1525 1511
4 1512 1531 1525 1503
4 580 587 588 571
4 3381 3371 3399 3384
4 3399 3381 3384 3383
4 192 204 201 193
4 291 296 289 304
4 296 289 304 298
4 3020 3021 3030 2994
4 3448 3486 3461 3468
4 3448 3486 3468 3484
4 3486 3461 3468 3502
4 3461 3448 3468 3432
4 1901 1879 1880 1892
4 1879 1880 1892 1856
4 1880 1901 1892 1897
4 504 491 499 498
4 504 491 498 496
4 491 498 496 480
4 498 504 496 513
4 498 496 480 495
4 498 496 495 513
4 498 504 513 523
4 146 158 148 157
4 421 424 425 436
4 99 98 104 94
4 98 104 94 110
4 94 98 110 91
4 3239 3240 3264 3253
4 2481 2480 2460 2471
4 2481 2480 2471 2500
4 2480 2460 2471 2479
4 2471 2480 2479 2500
4 2460 2471 2479 2455
4 2479 2471 2500 2498
4 2191 2190 2208 2196
4 2208 2191 2196 2211
4 461 475 470 473
4 345 354 358 349
4 4234 4233 4258 4242
4 4233 4258 4242 4266
4 4258 4234 4242 4267
4 1042 1038 1029 1035
4 1042 1038 1035 1050
4 1038 1029 1035 1021
4 1029 1042 1035 1033
4 1042 1038 1050 1055
4 3940 3932 3959 3966
4 590 584 575 595
4 590 584 595 594
4 736 720 729 725
4 3569 3599 3579 3586
4 3142 3122 3144 3130
4 656 672 665 660
4 656 672 660 669
4 558 544 552 563
4 552 558 563 568
4 563 552 568 564
4 558 563 568 561
4 568 563 564 579
4 563 552 564 548
4 586 584 594 579
4 669 670 685 680
4 3714 3716 3743 3730
4 599 597 617 600
4 599 597 600 588
4 87 89 88 95
4 2834 2810 2817 2820
4 2810 2817 2820 2791
4 2817 2834 2820 2843
4 675 690 680 677
4 675 690 677 682
4 680 675 677 663
4 1549 1565 1562 1545
4 1542 1536 1523 1525
4 1536 1523 1525 1503
4 342 353 345 343
4 345 342 343 332
4 2390 2415 2411 2404
4 2415 2411 2404 2436
4 2390 2415 2404 2393
4 2411 2390 2404 2389
4 505 519 501 518
4 591 587 598 588
4 4213 4241 4222 4227
4 4241 4222 4227 4250
4 4222 4213 4227 4186
4 388 399 394 392
4 399 394 392 403
4 394 392 403 397
4 1750 1728 1733 1739
4 1728 1733 1739 1713
4 1733 1750 1739 1744
4 1159 1145 1157 1146
4 546 555 551 561
4 546 555 561 544
4 551 546 561 545
4 546 561 545 563
4 551 546 545 536
4 551 546 536 541
4 877 884 888 879
4 157 159 168 158
4 157 159 158 148
4 576 585 584 568
4 3451 3417 3419 3428
4 3417 3419 3428 3404
4 626 615 619 628
4 530 526 517 520
4 3197 3170 3199 3185
4 3199 3197 3185 3215
4 633 641 650 651
4 641 650 651 656
4 650 651 656 665
4 651 641 656 645
4 651 641 645 623
4 641 656 645 654
4 650 633 651 634
4 650 651 665 659
4 651 656 665 660
4 651 656 660 645
4 656 660 645 654
4 660 651 645 646
4 651 645 646 623
4 182 170 178 181
4 4139 4116 4123 4147
4 4116 4123 4147 4082
4 282 290 288 289
4 381 392 385 382
4 720 709 714 713
4 709 714 713 701
4 714 720 713 729
4 3940 3914 3942 3935
4 2140 2130 2124 2113
4 3792 3770 3762 3805
4 264 263 255 266
4 1390 1381 1377 1385
4 1390 1381 1385 1405
4 4104 4117 4125 4084
4 3688 3722 3710 3706
4 3710 3688 3706 3687
4 3710 3688 3687 3661
4 3688 3722 3706 3683
4 3722 3710 3706 3748
4 3688 3706 3687 3667
4 3706 3710 3687 3711
4 3710 3687 3711 3690
4 3687 3711 3690 3706
4 3706 3710 3711 3748
4 164 177 171 165
4 145 147 157 146
4 145 147 146 138
4 1777 1766 1758 1759
4 646 625 636 623
4 625 636 623 618
4 491 480 473 478
4 491 480 478 498
4 480 473 478 464
4 473 491 478 485
4 478 491 498 501
4 2693 2668 2675 2692
4 4104 4139 4123 4129
4 2340 2320 2349 2351
4 2320 2349 2351 2343
4 2349 2351 2343 2356
4 2349 2351 2356 2357
4 2349 2351 2357 2340
4 2356 2349 2357 2340
4 2320 2349 2343 2356
4 2351 2357 2340 2354
4 659 665 673 666
4 665 673 666 674
4 673 659 666 661
4 666 665 674 667
4 674 666 667 673
4 102 89 100 97
4 100 102 97 106
4 1706 1703 1710 1687
4 3173 3155 3143 3159
4 3173 3155 3159 3189
4 3155 3143 3159 3131
4 3143 3173 3159 3181
4 3173 3159 3181 3189
4 84 88 87 78
4 1828 1807 1811 1817
4 1807 1811 1817 1788
4 1811 1828 1817 1823
4 3690 3716 3711 3740
4 109 121 120 118
4 3044 3071 3070 3066
4 954 950 941 953
4 562 554 561 563
4 3192 3172 3174 3182
4 3192 3172 3182 3200
4 3172 3174 3182 3162
4 3174 3192 3182 3194
4 3182 3172 3162 3171
4 598 597 591 588
4 72 78 76 84
4 1355 1351 1339 1347
4 1351 1339 1347 1343
4 1355 1351 1347 1361
4 1339 1347 1343 1335
4 1347 1343 1335 1346
4 1347 1351 1343 1361
4 1343 1347 1361 1362
4 1347 1343 1346 1362
4 413 421 425 411
4 421 425 411 417
4 2653 2663 2650 2655
4 2663 2650 2655 2666
4 3240 3215 3217 3231
4 158 155 165 164
4 467 475 461 473
4 575 581 571 588
4 3929 3958 3961 3948
4 3961 3929 3948 3941
4 599 601 590 595
4 599 601 595 614
4 601 590 595 603
4 590 599 595 588
4 601 595 614 603
4 577 584 569 563
4 1943 1927 1928 1931
4 1928 1943 1931 1933
4 680 692 685 684
4 385 394 383 398
4 383 385 398 393
4 108 111 109 102
4 3122 3123 3144 3129
4 3122 3123 3129 3095
4 144 133 141 140
4 133 141 140 129
4 141 140 129 130
4 141 144 140 149
4 140 141 149 152
4 1572 1557 1566 1571
4 2155 2125 2132 2140
4 2125 2132 2140 2113
4 2155 2125 2140 2163
4 2140 2155 2163 2132
4 177 181 189 178
4 2750 2727 2737 2748
4 2340 2317 2320 2314
4 578 568 564 579
4 2834 2829 2810 2820
4 2834 2829 2820 2844
4 2834 2829 2844 2865
4 635 619 625 624
4 635 619 624 628
4 619 625 624 616
4 625 635 624 645
4 635 624 645 628
4 624 645 628 641
4 624 645 641 623
4 513 527 517 530
4 1566 1557 1549 1552
4 1566 1557 1552 1571
4 1557 1549 1552 1537
4 1549 1566 1552 1550
4 1552 1557 1537 1556
4 1552 1549 1550 1538
4 1549 1552 1537 1538
4 1552 1537 1538 1547
4 1566 1552 1550 1560
4 1672 1668 1654 1666
4 1668 1654 1666 1658
4 185 189 194 190
4 584 585 594 579
4 3092 3093 3074 3089
4 3092 3093 3089 3120
4 3093 3074 3089 3083
4 3074 3092 3089 3070
4 1786 1766 1777 1785
4 3556 3555 3536 3579
4 3556 3555 3579 3586
4 1159 1155 1145 1146
4 3044 3047 3071 3066
4 959 966 954 967
4 179 181 168 177
4 3914 3898 3900 3880
4 3914 3898 3880 3885
4 3898 3900 3880 3858
4 1413 1411 1401 1417
4 1413 1411 1417 1428
4 522 513 504 523
4 1734 1737 1732 1754
4 353 354 345 357
4 354 345 357 349
4 2170 2152 2163 2171
4 3462 3469 3467 3428
4 117 122 124 127
4 189 201 194 190
4 105 109 108 118
4 3835 3805 3831 3823
4 3805 3831 3823 3813
4 3831 3823 3813 3848
4 3831 3823 3848 3835
4 3823 3813 3848 3833
4 2647 2653 2650 2628
4 2130 2113 2112 2124
4 701 685 692 684
4 381 385 383 382
4 385 383 382 393
4 1344 1361 1351 1364
4 1361 1351 1364 1367
4 576 558 568 575
4 3758 3792 3762 3765
4 3758 3792 3765 3781
4 2091 2111 2109 2099
4 2111 2109 2099 2128
4 2109 2091 2099 2087
4 300 290 296 302
4 296 300 302 304
4 302 296 304 298
4 577 590 575 588
4 2795 2819 2812 2808
4 2655 2648 2650 2653
4 1758 1775 1773 1754
4 1758 1775 1754 1766
4 1773 1758 1754 1732
4 3287 3288 3314 3306
4 1820 1824 1802 1816
4 1802 1820 1816 1800
4 1802 1820 1800 1793
4 3545 3576 3556 3574
4 161 164 171 165
4 1703 1718 1719 1732
4 585 589 594 604
4 1749 1768 1751 1757
4 1768 1751 1757 1765
4 1751 1749 1757 1740
4 1757 1751 1740 1765
4 838 830 845 834
4 561 558 575 568
4 3699 3690 3711 3706
4 3070 3071 3094 3088
4 911 918 905 912
4 122 135 124 127
4 1451 1455 1435 1448
4 1451 1455 1448 1467
4 1435 1451 1448 1444
4 3425 3423 3454 3438
4 3454 3425 3438 3469
4 3425 3423 3438 3399
4 3438 3454 3469 3446
4 611 597 598 617
4 3579 3572 3555 3557
4 3579 3572 3557 3597
4 3555 3579 3557 3536
4 3502 3486 3510 3497
4 3502 3486 3497 3468
4 3486 3510 3497 3484
4 3510 3502 3497 3527
4 3486 3497 3468 3484
4 193 190 202 201
4 2653 2675 2663 2655
4 3217 3215 3199 3211
4 3217 3215 3211 3231
4 2296 2275 2280 2284
4 2275 2280 2284 2253
4 2280 2296 2284 2295
4 2280 2296 2295 2311
4 2284 2280 2295 2283
4 201 204 211 202
4 78 89 74 86
4 354 362 358 370
4 988 989 976 978
4 1524 1518 1533 1537
4 1533 1524 1537 1542
4 1524 1537 1542 1519
4 3142 3144 3170 3162
4 66 55 70 69
4 55 70 69 56
4 70 66 69 77
4 52 55 69 56
4 2170 2174 2193 2200
4 265 263 271 266
4 190 186 196 194
4 186 196 194 195
4 196 190 194 201
4 4139 4104 4125 4129
4 2871 2852 2873 2863
4 2871 2852 2863 2846
4 2852 2873 2863 2853
4 2873 2871 2863 2893
4 1562 1566 1550 1576
4 1562 1566 1576 1585
4 2513 2527 2524 2547
4 552 544 538 563
4 475 486 470 478
4 470 475 478 473
4 2567 2547 2555 2565
4 166 179 168 177
4 1713 1692 1694 1696
4 1028 1013 1016 1019
4 1028 1013 1019 1018
4 1013 1016 1019 1005
4 1013 1016 1005 998
4 2965 2996 2990 2984
4 2990 2965 2984 2966
4 2996 2990 2984 3019
4 1884 1885 1865 1881
4 1566 1572 1571 1582
4 1566 1572 1582 1585
4 1885 1865 1881 1864
4 1572 1571 1582 1590
4 1582 1572 1590 1585
4 801 815 808 803
4 3303 3315 3334 3313
4 2520 2524 2544 2530
4 2520 2524 2530 2509
4 2524 2544 2530 2547
4 2544 2520 2530 2543
4 2524 2530 2509 2513
4 3181 3169 3195 3168
4 624 619 616 617
4 1293 1279 1280 1285
4 3676 3669 3666 3703
4 3676 3669 3703 3720
4 3669 3666 3703 3675
4 3666 3676 3703 3697
4 3485 3450 3451 3467
4 1269 1273 1257 1265
4 666 667 673 676
4 666 667 676 661
4 676 666 661 673
4 666 667 661 652
4 666 667 652 665
4 661 666 652 659
4 2089 2070 2086 2083
4 2089 2070 2083 2071
4 2070 2086 2083 2067
4 2086 2089 2083 2110
4 2602 2622 2607 2604
4 2607 2602 2604 2581
4 3922 3888 3889 3905
4 3922 3888 3905 3923
4 3888 3889 3905 3859
4 3889 3922 3905 3924
4 2826 2857 2843 2841
4 2857 2843 2841 2872
4 2843 2826 2841 2817
4 2826 2857 2841 2839
4 4054 4056 4069 4026
4 1927 1928 1931 1904
4 3214 3239 3238 3232
4 3239 3238 3232 3262
4 3214 3239 3232 3215
4 3238 3214 3232 3218
4 1530 1529 1511 1527
4 1530 1529 1527 1547
4 1529 1511 1527 1510
4 1511 1530 1527 1525
4 1530 1527 1525 1537
4 1527 1525 1537 1519
4 1527 1525 1519 1505
4 1525 1519 1505 1503
4 1525 1537 1519 1542
4 1527 1525 1505 1511
4 1525 1537 1542 1548
4 1505 1527 1511 1497
4 1511 1505 1497 1498
4 1511 1505 1498 1512
4 1505 1498 1512 1503
4 1511 1505 1512 1525
4 1505 1512 1525 1503
4 1505 1497 1498 1493
4 1537 1527 1519 1518
4 1527 1519 1518 1505
4 1519 1525 1542 1523
4 1519 1525 1523 1503
4 1542 1519 1523 1524
4 1519 1523 1524 1507
4 1519 1523 1507 1503
4 1524 1519 1507 1518
4 1524 1519 1518 1537
4 1519 1507 1518 1505
4 1519 1507 1505 1503
4 642 628 635 645
4 642 628 645 641
4 645 642 641 654
4 3216 3212 3237 3224
4 3216 3212 3224 3192
4 3212 3237 3224 3235
4 3237 3216 3224 3246
4 941 935 928 931
4 3985 3987 4016 4001
4 3985 3987 4001 3960
4 3987 4016 4001 4021
4 4016 3985 4001 4014
4 2667 2644 2647 2650
4 1180 1182 1173 1178
4 1180 1182 1178 1198
4 1182 1173 1178 1175
4 1173 1180 1178 1172
4 1178 1182 1175 1192
4 2675 2693 2692 2718
4 3627 3595 3597 3606
4 3595 3597 3606 3571
4 3627 3595 3606 3626
4 3597 3627 3606 3629
4 713 714 729 728
4 2228 2249 2239 2235
4 2239 2228 2235 2211
4 2228 2249 2235 2231
4 2249 2239 2235 2267
4 2239 2235 2267 2243
4 2235 2249 2267 2263
4 1542 1536 1525 1548
4 4177 4144 4142 4161
4 4177 4144 4161 4179
4 4144 4142 4161 4110
4 4142 4177 4161 4176
4 2895 2887 2872 2885
4 2895 2887 2885 2910
4 2887 2872 2885 2861
4 2872 2895 2885 2879
4 153 145 146 144
4 4125 4117 4153 4118
4 4125 4117 4118 4084
4 4153 4125 4118 4154
4 3092 3094 3121 3107
4 3092 3094 3107 3070
4 3094 3121 3107 3130
4 3121 3092 3107 3120
4 3121 3107 3130 3120
4 3818 3813 3792 3781
4 3423 3454 3438 3446
4 1089 1098 1082 1095
4 719 705 715 712
4 719 705 712 711
4 715 719 712 730
4 2555 2567 2565 2573
4 2555 2567 2573 2577
4 2567 2565 2573 2586
4 2573 2567 2586 2577
4 2565 2573 2586 2584
4 2564 2584 2581 2572
4 2584 2581 2572 2604
4 2564 2584 2572 2565
4 2581 2564 2572 2562
4 3783 3758 3740 3818
4 2212 2215 2232 2222
4 2212 2215 2222 2200
4 2215 2232 2222 2236
4 2232 2212 2222 2231
4 2215 2222 2200 2217
4 2232 2222 2236 2231
4 3021 3044 3030 3031
4 3030 3021 3031 3002
4 3044 3030 3031 3066
4 3021 3031 3002 2993
4 3031 3030 3002 3022
4 3321 3303 3334 3323
4 644 650 659 634
4 3557 3555 3536 3541
4 4017 4015 4041 4027
4 4041 4017 4027 4030
4 4017 4015 4027 3986
4 4015 4041 4027 4044
4 2904 2889 2914 2903
4 2914 2904 2903 2929
4 2904 2889 2903 2879
4 2889 2914 2903 2888
4 227 238 235 228
4 1824 1802 1816 1801
4 3368 3339 3340 3345
4 3339 3340 3345 3312
4 3368 3339 3345 3369
4 3340 3368 3345 3370
4 976 967 966 972
4 3688 3706 3667 3683
4 3777 3771 3810 3793
4 3777 3771 3793 3745
4 3771 3810 3793 3808
4 3810 3777 3793 3812
4 397 382 389 393
4 4178 4145 4180 4167
4 4178 4145 4167 4143
4 4145 4180 4167 4147
4 4180 4178 4167 4208
4 2727 2709 2710 2715
4 2709 2710 2715 2692
4 2710 2715 2692 2718
4 2727 2709 2715 2726
4 2710 2727 2715 2737
4 2727 2715 2737 2726
4 1095 1102 1087 1089
4 1758 1777 1759 1763
4 1758 1777 1763 1773
4 1777 1763 1773 1791
4 3713 3677 3712 3697
4 1413 1401 1402 1417
4 2376 2357 2372 2354
4 2415 2417 2440 2423
4 2415 2417 2423 2393
4 2417 2440 2423 2444
4 2440 2415 2423 2436
4 4123 4104 4129 4092
4 4207 4232 4209 4219
4 4232 4209 4219 4221
4 4207 4232 4219 4234
4 4209 4207 4219 4179
4 754 763 768 766
4 155 146 153 157
4 4054 4089 4065 4084
4 3021 2994 2993 3002
4 3021 2994 3002 3030
4 2994 2993 3002 2961
4 1828 1826 1807 1817
4 595 590 594 603
4 4124 4154 4118 4136
4 4124 4154 4136 4170
4 4154 4118 4136 4125
4 4118 4136 4125 4086
4 4118 4124 4136 4086
4 1145 1137 1127 1126
4 1137 1127 1126 1118
4 1127 1126 1118 1114
4 3863 3836 3860 3852
4 3863 3836 3852 3837
4 3836 3860 3852 3834
4 3860 3863 3852 3890
4 1339 1355 1347 1340
4 2280 2295 2283 2258
4 499 504 498 501
4 2819 2812 2808 2839
4 3539 3541 3571 3557
4 3541 3571 3557 3572
4 3571 3557 3572 3597
4 3557 3541 3572 3555
4 716 731 723 712
4 723 716 712 710
4 716 712 710 703
4 716 712 703 711
4 712 710 703 694
4 712 723 710 718
4 716 731 712 711
4 165 170 168 177
4 174 182 170 166
4 170 168 166 158
4 2128 2154 2157 2145
4 2154 2157 2145 2173
4 2157 2128 2145 2149
4 3984 3983 4013 4004
4 3984 3983 4004 3956
4 3983 4013 4004 4014
4 4013 3984 4004 4015
4 2766 2770 2791 2776
4 2766 2770 2776 2746
4 2770 2791 2776 2790
4 2770 2791 2790 2802
4 2791 2790 2802 2820
4 2776 2770 2790 2758
4 2791 2766 2776 2787
4 2791 2766 2787 2794
4 2766 2776 2787 2756
4 2776 2791 2787 2801
4 2791 2776 2790 2801
4 177 189 185 178
4 633 623 641 651
4 3340 3314 3343 3331
4 3340 3314 3331 3312
4 3343 3340 3331 3353
4 3331 3343 3353 3325
4 1467 1466 1455 1472
4 638 644 637 659
4 3656 3683 3688 3667
4 3688 3656 3667 3661
4 552 538 548 563
4 4045 4078 4076 4066
4 4045 4078 4066 4046
4 4078 4076 4066 4111
4 4076 4045 4066 4043
4 2706 2684 2709 2696
4 2709 2706 2696 2726
4 2706 2684 2696 2682
4 2684 2709 2696 2686
4 1163 1173 1160 1172
4 133 124 131 135
4 3571 3570 3539 3559
4 3571 3570 3559 3595
4 3570 3539 3559 3544
4 3539 3571 3559 3557
4 3571 3559 3557 3606
4 1460 1475 1459 1472
4 1430 1436 1419 1431
4 2373 2354 2376 2369
4 2373 2354 2369 2355
4 2354 2376 2369 2372
4 2376 2369 2372 2391
4 2376 2373 2369 2391
4 2369 2372 2391 2386
4 182 193 187 192
4 193 187 192 198
4 2937 2952 2928 2947
4 2952 2928 2947 2966
4 2937 2952 2947 2965
4 2947 2952 2966 2965
4 690 705 692 694
4 692 690 694 688
4 690 705 694 699
4 694 690 699 682
4 694 690 682 688
4 705 694 699 712
4 699 694 682 695
4 699 694 695 712
4 682 699 695 693
4 699 695 693 706
4 699 695 706 712
4 695 693 706 704
4 694 682 695 696
4 695 682 693 689
4 706 695 704 710
4 695 694 696 710
4 1615 1595 1605 1622
4 1605 1615 1622 1619
4 2820 2834 2844 2843
4 3195 3197 3214 3205
4 3195 3197 3205 3168
4 3197 3214 3205 3215
4 3214 3195 3205 3218
4 1642 1624 1622 1630
4 1624 1622 1630 1601
4 1642 1624 1630 1640
4 2124 2130 2137 2112
4 2137 2124 2112 2115
4 3937 3932 3900 3942
4 3937 3932 3942 3966
4 3942 3937 3966 3971
4 1016 1019 1005 1015
4 3924 3891 3925 3917
4 3891 3925 3917 3885
4 3925 3924 3917 3960
4 3925 3917 3885 3959
4 3917 3925 3960 3959
4 2604 2624 2622 2615
4 2624 2622 2615 2641
4 2604 2624 2615 2605
4 2622 2604 2615 2607
4 2615 2622 2607 2632
4 2604 2615 2607 2572
4 2607 2615 2632 2617
4 3711 3716 3730 3740
4 3627 3652 3650 3644
4 3627 3652 3644 3629
4 3652 3650 3644 3678
4 3650 3627 3644 3626
4 1590 1589 1571 1582
4 3273 3303 3293 3282
4 2232 2252 2231 2236
4 2607 2608 2593 2613
4 2607 2608 2613 2632
4 4076 4075 4043 4068
4 4076 4075 4068 4109
4 4075 4043 4068 4044
4 4043 4076 4068 4066
4 4076 4068 4066 4102
4 4068 4066 4102 4081
4 2564 2562 2543 2556
4 2564 2562 2556 2572
4 2562 2543 2556 2550
4 2543 2564 2556 2544
4 2556 2564 2572 2565
4 2556 2562 2550 2579
4 425 434 418 433
4 3415 3417 3450 3429
4 3415 3417 3429 3404
4 3417 3450 3429 3451
4 3450 3415 3429 3449
4 3417 3429 3404 3428
4 3417 3429 3428 3451
4 3429 3404 3428 3422
4 3429 3428 3451 3467
4 3428 3451 3467 3419
4 1316 1330 1317 1322
4 1316 1330 1322 1329
4 1330 1317 1322 1336
4 1317 1316 1322 1300
4 513 508 498 523
4 2009 2012 2026 2021
4 2012 2026 2021 2027
4 2009 2012 2021 1987
4 2026 2009 2021 2031
4 445 437 433 434
4 4235 4236 4268 4244
4 4235 4236 4244 4208
4 4236 4268 4244 4250
4 4268 4235 4244 4266
4 2773 2750 2775 2762
4 2775 2773 2762 2795
4 2773 2750 2762 2748
4 2750 2775 2762 2760
4 2775 2762 2760 2783
4 1049 1042 1033 1036
4 1788 1769 1780 1790
4 3768 3767 3802 3786
4 3768 3767 3786 3741
4 3767 3802 3786 3803
4 3802 3768 3786 3790
4 3768 3786 3790 3750
4 3786 3802 3790 3820
4 3786 3790 3750 3780
4 3790 3786 3820 3780
4 1325 1339 1324 1329
4 581 571 588 587
4 588 581 587 600
4 2455 2479 2477 2469
4 2455 2479 2469 2471
4 2479 2469 2471 2498
4 2479 2477 2469 2498
4 2477 2455 2469 2453
4 1038 1035 1050 1039
4 1038 1035 1039 1021
4 3262 3286 3263 3279
4 3286 3263 3279 3290
4 3279 3286 3290 3313
4 774 789 776 777
4 2812 2795 2808 2790
4 3019 3020 3043 3029
4 3019 3020 3029 2996
4 3020 3043 3029 3030
4 3029 3020 3030 3000
4 1842 1864 1843 1854
4 3699 3711 3730 3706
4 4184 4153 4154 4166
4 4184 4153 4166 4186
4 4153 4154 4166 4125
4 4154 4184 4166 4170
4 845 849 856 852
4 845 849 852 833
4 849 856 852 866
4 856 845 852 846
4 845 852 846 834
4 3836 3802 3834 3820
4 1252 1264 1259 1269
4 3199 3217 3211 3200
4 1766 1758 1759 1746
4 1766 1758 1746 1754
4 1758 1746 1754 1737
4 1758 1746 1737 1759
4 3541 3513 3542 3531
4 3542 3541 3531 3555
4 3531 3542 3555 3496
4 3541 3513 3531 3512
4 3513 3542 3531 3496
4 3531 3513 3496 3512
4 131 133 140 129
4 1943 1927 1931 1945
4 2111 2089 2108 2101
4 2111 2089 2101 2099
4 2089 2108 2101 2110
4 2108 2101 2110 2126
4 2108 2111 2101 2126
4 2101 2111 2099 2123
4 413 421 411 410
4 3986 3958 3984 3980
4 3986 3958 3980 3961
4 3958 3984 3980 3956
4 3984 3986 3980 4015
4 153 164 161 155
4 1608 1594 1601 1593
4 3287 3314 3312 3305
4 3314 3312 3305 3331
4 3287 3314 3305 3306
4 3314 3305 3306 3331
4 3305 3306 3331 3311
4 3312 3287 3305 3286
4 3305 3287 3306 3278
4 3306 3305 3278 3311
4 3306 3314 3331 3343
4 3305 3287 3278 3279
4 1498 1497 1480 1493
4 594 604 603 605
4 3388 3367 3377 3382
4 3377 3388 3382 3411
4 3388 3367 3382 3396
4 83 77 93 91
4 77 93 91 70
4 93 83 91 98
4 4045 4016 4046 4036
4 4045 4016 4036 4014
4 4016 4046 4036 4021
4 4046 4045 4036 4066
4 4045 4036 4066 4043
4 2684 2667 2686 2678
4 2686 2684 2678 2696
4 2684 2667 2678 2664
4 2667 2686 2678 2668
4 2684 2678 2696 2682
4 731 725 739 728
4 1343 1344 1351 1339
4 1344 1351 1339 1332
4 3628 3626 3651 3640
4 3628 3626 3640 3596
4 3626 3651 3640 3650
4 3651 3628 3640 3653
4 1493 1491 1475 1472
4 4069 4056 4086 4048
4 2294 2314 2312 2310
4 2294 2314 2310 2296
4 2314 2312 2310 2334
4 2312 2294 2310 2290
4 3240 3265 3253 3246
4 4177 4205 4207 4197
4 4177 4205 4197 4176
4 4205 4207 4197 4234
4 4207 4177 4197 4179
4 2810 2829 2794 2820
4 492 501 486 478
4 486 492 478 475
4 492 478 475 484
4 492 478 484 498
4 492 478 498 501
4 478 475 484 467
4 478 475 467 473
4 225 226 228 217
4 3142 3170 3168 3161
4 3170 3168 3161 3185
4 3142 3170 3161 3162
4 3170 3161 3162 3185
4 3161 3162 3185 3182
4 3162 3185 3182 3199
4 3168 3142 3161 3141
4 3162 3170 3185 3199
4 3161 3162 3182 3148
4 1692 1711 1691 1698
4 1692 1711 1698 1713
4 1711 1691 1698 1707
4 1691 1692 1698 1675
4 690 677 682 688
4 690 677 688 680
4 677 682 688 674
4 677 682 674 675
4 682 674 675 667
4 674 677 675 660
4 682 674 667 673
4 674 675 667 657
4 688 677 674 672
4 688 677 672 684
4 677 674 672 660
4 674 675 657 660
4 675 682 667 683
4 682 667 683 676
4 675 682 683 690
4 682 683 690 699
4 682 683 699 693
4 683 682 676 693
4 667 674 657 665
4 682 667 676 673
4 4006 4000 3971 3994
4 4006 4000 3994 4026
4 4000 3971 3994 3966
4 3971 4006 3994 3982
4 1060 1067 1051 1063
4 3835 3831 3862 3848
4 2965 2996 2984 2963
4 1856 1858 1839 1852
4 1839 1856 1852 1840
4 3297 3273 3293 3257
4 3468 3461 3432 3455
4 2190 2212 2208 2196
4 250 255 260 248
4 4077 4075 4110 4091
4 4077 4075 4091 4044
4 4075 4110 4091 4109
4 4110 4077 4091 4115
4 2910 2923 2937 2924
4 2910 2923 2924 2895
4 2923 2937 2924 2949
4 2937 2910 2924 2947
4 2937 2924 2949 2947
4 2923 2937 2949 2963
4 2924 2923 2949 2919
4 211 214 223 217
4 4139 4125 4153 4166
4 3368 3370 3391 3380
4 3368 3370 3380 3345
4 3370 3391 3380 3404
4 3391 3368 3380 3390
4 3380 3368 3345 3369
4 3391 3380 3404 3390
4 3075 3095 3088 3100
4 2650 2655 2666 2636
4 1964 1962 1988 1975
4 1964 1962 1975 1945
4 1988 1964 1975 1984
4 498 505 501 504
4 498 505 504 523
4 4178 4208 4206 4195
4 4178 4208 4195 4167
4 4208 4206 4195 4235
4 4206 4178 4195 4176
4 4195 4178 4167 4176
4 2731 2710 2718 2737
4 2718 2731 2737 2741
4 2731 2737 2741 2760
4 1063 1070 1057 1060
4 3469 3462 3425 3428
4 3713 3712 3741 3724
4 3713 3712 3724 3697
4 3712 3741 3724 3742
4 3741 3713 3724 3746
4 3724 3713 3697 3728
4 1368 1367 1355 1371
4 2436 2440 2455 2442
4 2436 2440 2442 2423
4 2440 2455 2442 2460
4 2455 2436 2442 2453
4 2440 2442 2423 2458
4 86 97 100 89
4 3141 3169 3143 3153
4 3143 3141 3153 3120
4 3141 3169 3153 3168
4 3169 3143 3153 3181
4 3153 3169 3181 3168
4 2410 2388 2396 2401
4 2396 2410 2401 2429
4 774 768 783 777
4 558 561 544 563
4 3043 3070 3074 3064
4 3043 3070 3064 3044
4 3070 3074 3064 3089
4 3074 3064 3089 3068
4 1122 1127 1114 1126
4 1460 1476 1472 1456
4 484 490 482 493
4 3890 3860 3888 3881
4 3890 3860 3881 3852
4 3860 3888 3881 3859
4 3888 3890 3881 3923
4 3860 3881 3852 3859
4 1239 1221 1234 1230
4 1239 1221 1230 1224
4 1221 1234 1230 1222
4 1234 1239 1230 1253
4 3917 3918 3885 3959
4 3484 3511 3510 3499
4 3484 3511 3499 3482
4 1686 1705 1696 1687
4 2171 2170 2192 2179
4 2171 2170 2179 2163
4 2170 2192 2179 2200
4 2192 2179 2200 2196
4 2192 2171 2179 2178
4 2170 2179 2163 2174
4 2171 2179 2178 2163
4 447 457 454 462
4 4015 4013 4044 4028
4 4015 4013 4028 4004
4 4013 4044 4028 4043
4 4044 4015 4028 4027
4 4015 4028 4027 3980
4 4013 4028 4004 4014
4 2743 2766 2763 2756
4 411 425 418 417
4 144 149 155 153
4 149 155 153 161
4 3312 3339 3313 3326
4 3313 3312 3326 3286
4 3312 3339 3326 3345
4 3339 3313 3326 3341
4 3339 3326 3345 3341
4 522 504 518 515
4 522 504 515 523
4 504 518 515 505
4 518 522 515 519
4 515 518 519 505
4 519 515 505 523
4 515 505 523 504
4 519 515 523 522
4 634 636 618 623
4 634 636 623 651
4 618 634 623 627
4 3722 3745 3748 3734
4 3722 3745 3734 3715
4 3745 3748 3734 3777
4 3748 3722 3734 3706
4 3722 3734 3706 3715
4 1417 1413 1428 1419
4 1417 1413 1419 1402
4 4111 4112 4145 4122
4 4111 4112 4122 4078
4 4112 4145 4122 4123
4 4145 4111 4122 4143
4 4122 4112 4123 4092
4 2701 2706 2723 2711
4 2701 2706 2711 2682
4 2706 2723 2711 2726
4 2723 2701 2711 2730
4 1108 1126 1119 1122
4 988 989 978 993
4 988 989 993 1003
4 989 978 993 986
4 989 993 1003 995
4 3651 3650 3677 3662
4 3651 3650 3662 3640
4 3650 3677 3662 3678
4 3677 3651 3662 3676
4 3662 3651 3640 3666
4 1446 1444 1428 1448
4 1446 1444 1448 1459
4 1428 1446 1448 1436
4 1446 1448 1436 1460
4 1448 1446 1459 1460
4 2460 2458 2481 2471
4 2460 2458 2471 2442
4 2458 2481 2471 2468
4 2393 2397 2417 2391
4 2393 2397 2391 2376
4 2391 2393 2376 2373
4 155 158 157 164
4 2825 2852 2823 2836
4 2852 2823 2836 2846
4 2823 2825 2836 2808
4 711 719 728 712
4 3278 3288 3306 3280
4 3126 3125 3146 3129
4 1417 1410 1411 1401
4 1561 1560 1547 1552
4 3198 3181 3195 3207
4 3198 3181 3207 3189
4 3195 3198 3207 3218
4 3198 3207 3218 3223
4 3207 3195 3218 3205
4 3207 3195 3205 3181
4 3924 3960 3957 3944
4 3924 3960 3944 3917
4 3960 3957 3944 3985
4 3957 3924 3944 3922
4 2624 2644 2641 2633
4 2644 2641 2633 2664
4 2624 2644 2633 2626
4 2641 2624 2633 2615
4 2624 2633 2615 2618
4 584 589 575 595
4 2272 2252 2275 2263
4 238 244 250 239
4 646 645 625 623
4 538 537 539 554
4 4146 4144 4179 4162
4 4146 4144 4162 4115
4 4144 4179 4162 4161
4 4162 4144 4161 4119
4 4179 4146 4162 4174
4 406 418 414 417
4 133 136 135 142
4 2593 2608 2579 2596
4 3449 3450 3482 3466
4 3449 3450 3466 3429
4 3450 3482 3466 3485
4 3482 3449 3466 3484
4 3450 3466 3429 3467
4 1285 1300 1287 1290
4 1285 1300 1290 1299
4 1300 1287 1290 1296
4 1287 1285 1290 1273
4 1777 1766 1759 1780
4 2051 2050 2070 2058
4 2051 2050 2058 2026
4 2050 2070 2058 2067
4 2070 2051 2058 2071
4 1367 1388 1378 1368
4 2812 2839 2826 2822
4 2839 2826 2822 2841
4 2826 2822 2841 2817
4 2812 2839 2822 2808
4 2826 2812 2822 2802
4 1020 1010 1003 1018
4 3767 3769 3803 3785
4 3767 3769 3785 3742
4 3769 3803 3785 3805
4 3803 3767 3785 3786
4 3767 3785 3786 3747
4 3785 3786 3747 3780
4 1311 1310 1293 1304
4 1311 1310 1304 1322
4 1310 1293 1304 1292
4 1293 1311 1304 1290
4 1304 1293 1290 1299
4 1455 1435 1448 1434
4 2498 2500 2520 2506
4 2498 2500 2506 2471
4 2500 2520 2506 2509
4 2506 2500 2509 2471
4 2520 2498 2506 2516
4 3716 3699 3730 3714
4 3238 3263 3241 3248
4 3238 3263 3248 3262
4 3263 3241 3248 3257
4 3241 3238 3248 3218
4 789 801 793 792
4 3592 3601 3588 3633
4 2496 2509 2481 2491
4 1884 1885 1881 1904
4 3601 3628 3633 3592
4 839 838 851 846
4 3804 3768 3802 3790
4 1265 1279 1264 1269
4 1666 1668 1658 1673
4 2503 2500 2480 2481
4 1816 1802 1800 1792
4 1247 1226 1238 1230
4 1226 1238 1230 1223
4 1247 1226 1230 1241
4 2173 2171 2178 2154
4 2091 2089 2111 2099
4 531 522 518 519
4 2748 2770 2746 2758
4 321 327 316 317
4 327 316 317 325
4 2124 2137 2151 2115
4 3262 3239 3264 3251
4 3264 3262 3251 3278
4 3262 3239 3251 3232
4 3239 3264 3251 3253
4 3264 3251 3253 3278
4 3251 3253 3278 3267
4 3239 3251 3232 3231
4 3232 3239 3231 3215
4 3251 3232 3231 3267
4 3251 3239 3253 3231
4 3253 3251 3231 3267
4 3253 3264 3278 3288
4 3231 3232 3215 3205
4 3269 3261 3289 3280
4 3289 3269 3280 3298
4 3280 3289 3298 3306
4 4056 4084 4086 4072
4 4086 4056 4072 4048
4 2662 2664 2682 2669
4 2662 2664 2669 2641
4 2664 2682 2669 2678
4 2682 2662 2669 2671
4 713 720 725 729
4 725 713 729 728
4 729 725 728 741
4 2351 2320 2343 2323
4 3595 3596 3570 3589
4 3595 3596 3589 3626
4 3596 3570 3589 3592
4 3589 3596 3592 3640
4 3570 3595 3589 3559
4 3589 3570 3559 3560
4 1508 1507 1493 1500
4 1508 1507 1500 1518
4 1500 1508 1518 1495
4 1507 1493 1500 1505
4 1493 1508 1500 1495
4 895 911 903 904
4 911 903 904 912
4 903 895 904 894
4 903 895 894 905
4 443 431 437 438
4 2872 2861 2843 2859
4 2872 2861 2859 2885
4 2861 2843 2859 2844
4 2843 2872 2859 2841
4 2859 2843 2841 2820
4 2859 2872 2885 2879
4 2859 2861 2844 2865
4 2861 2844 2865 2834
4 2861 2844 2834 2843
4 171 177 185 178
4 171 177 178 165
4 1713 1728 1711 1720
4 1713 1728 1720 1739
4 1728 1711 1720 1729
4 1711 1713 1720 1698
4 1728 1720 1739 1740
4 1720 1711 1698 1719
4 3792 3813 3805 3785
4 3900 3914 3880 3907
4 3914 3880 3907 3897
4 3880 3900 3907 3874
4 1073 1082 1067 1080
4 3889 3859 3862 3873
4 3889 3859 3873 3905
4 3859 3862 3873 3835
4 3862 3889 3873 3891
4 3873 3889 3905 3891
4 1694 1713 1696 1702
4 179 187 181 182
4 181 179 182 174
4 181 179 174 177
4 182 181 174 170
4 170 174 166 168
4 170 174 168 177
4 174 166 168 177
4 181 174 170 177
4 179 182 174 166
4 174 179 166 177
4 362 366 370 354
4 362 366 354 357
4 366 354 357 370
4 354 362 357 353
4 3303 3273 3279 3282
4 458 446 460 449
4 718 723 732 722
4 732 718 722 721
4 723 732 722 740
4 718 722 721 715
4 722 721 715 730
4 715 722 730 712
4 722 721 730 737
4 730 722 737 740
4 722 721 737 732
4 3614 3629 3597 3606
4 238 250 247 239
4 1710 1703 1719 1698
4 1376 1362 1361 1371
4 1376 1362 1371 1377
4 1362 1371 1377 1360
4 205 202 212 211
4 1080 1087 1070 1073
4 2125 2140 2163 2152
4 2140 2163 2152 2144
4 2125 2140 2152 2126
4 2140 2163 2144 2124
4 2125 2140 2126 2110
4 3712 3714 3742 3723
4 3712 3714 3723 3678
4 3714 3742 3723 3743
4 3742 3712 3723 3724
4 3712 3723 3724 3697
4 3835 3805 3823 3803
4 1367 1378 1371 1368
4 754 768 762 766
4 3383 3394 3370 3404
4 3383 3394 3404 3419
4 2460 2444 2458 2440
4 3026 2993 3009 3012
4 3009 3026 3012 3048
4 3026 2993 3012 3031
4 3012 3026 3031 3048
4 2993 3009 3012 2997
4 3009 3012 2997 3022
4 3012 2997 3022 3002
4 3012 2997 3002 2993
4 3002 3012 2993 3031
4 3002 3012 3031 3022
4 1145 1127 1139 1135
4 1436 1430 1450 1431
4 1807 1805 1790 1799
4 1807 1805 1799 1826
4 1805 1790 1799 1794
4 1790 1807 1799 1788
4 3940 3917 3935 3960
4 1218 1208 1224 1223
4 1224 1218 1223 1237
4 976 988 978 970
4 978 976 970 966
4 978 976 966 972
4 2564 2544 2565 2556
4 300 313 310 304
4 313 310 304 317
4 310 304 317 312
4 313 310 317 321
4 528 523 529 522
4 528 523 522 519
4 2154 2152 2171 2144
4 495 498 484 480
4 3687 3688 3667 3661
4 638 627 629 606
4 3722 3683 3715 3706
4 190 178 186 185
4 178 186 185 171
4 186 190 185 194
4 185 186 194 195
4 186 185 171 175
4 799 792 803 797
4 571 559 567 561
4 571 559 561 562
4 561 571 562 577
4 562 561 577 563
4 528 531 548 549
4 422 421 416 410
4 422 421 410 417
4 1605 1602 1619 1603
4 1705 1702 1696 1725
4 1381 1377 1385 1365
4 1381 1377 1365 1360
4 1377 1385 1365 1371
4 1385 1381 1365 1379
4 1365 1381 1360 1370
4 3906 3900 3874 3907
4 888 884 895 894
4 4084 4054 4069 4065
4 4054 4069 4065 4033
4 4069 4084 4065 4104
4 4069 4065 4033 4058
4 4065 4054 4033 4025
4 4054 4033 4025 4026
4 4033 4025 4026 4000
4 3502 3497 3527 3509
4 3502 3497 3509 3455
4 2212 2231 2208 2219
4 2212 2231 2219 2222
4 2231 2208 2219 2228
4 2208 2212 2219 2196
4 2219 2212 2222 2200
4 2219 2208 2196 2211
4 2648 2650 2653 2628
4 565 563 579 564
4 565 563 564 549
4 1316 1300 1299 1304
4 1300 1299 1304 1290
4 1304 1300 1290 1306
4 1316 1300 1304 1322
4 1299 1316 1304 1310
4 1304 1300 1306 1322
4 1290 1304 1306 1311
4 1304 1316 1322 1310
4 228 224 236 235
4 1033 1029 1020 1028
4 199 198 193 204
4 1325 1324 1310 1316
4 3958 3961 3948 3980
4 3948 3958 3980 3956
4 1927 1945 1926 1930
4 1927 1945 1930 1931
4 1945 1926 1930 1935
4 1926 1927 1930 1903
4 1930 1927 1931 1902
4 789 797 801 792
4 144 136 142 145
4 3019 3043 3045 3029
4 1844 1842 1828 1837
4 1844 1842 1837 1865
4 1842 1828 1837 1826
4 1828 1844 1837 1833
4 3762 3770 3743 3769
4 3762 3770 3769 3805
4 3743 3762 3769 3742
4 1171 1155 1159 1163
4 1155 1159 1163 1146
4 1159 1171 1163 1172
4 3834 3802 3803 3816
4 3834 3802 3816 3820
4 3803 3834 3816 3835
4 3816 3834 3820 3845
4 3820 3816 3845 3814
4 3820 3816 3814 3786
4 3820 3816 3786 3802
4 3816 3786 3802 3803
4 1253 1252 1239 1248
4 1253 1252 1248 1265
4 1252 1239 1248 1238
4 1239 1253 1248 1230
4 2296 2275 2284 2294
4 2544 2547 2565 2551
4 2544 2547 2551 2530
4 2547 2565 2551 2555
4 2551 2547 2555 2513
4 2565 2544 2551 2556
4 2551 2544 2530 2556
4 2565 2551 2555 2573
4 165 158 164 168
4 3482 3512 3511 3500
4 3512 3511 3500 3539
4 3482 3512 3500 3485
4 3511 3482 3500 3499
4 3500 3511 3499 3534
4 3499 3500 3534 3515
4 3142 3121 3130 3141
4 2052 2072 2062 2065
4 2072 2062 2065 2087
4 2052 2072 2065 2071
4 3381 3371 3384 3342
4 2879 2864 2889 2877
4 2889 2879 2877 2903
4 2879 2864 2877 2857
4 2864 2889 2877 2888
4 2877 2889 2903 2888
4 622 623 614 624
4 622 623 624 641
4 624 622 641 628
4 614 622 624 617
4 624 622 628 617
4 628 624 617 619
4 1050 1042 1055 1057
4 1055 1050 1057 1069
4 1050 1042 1057 1044
4 1481 1480 1467 1478
4 1481 1480 1478 1498
4 1480 1467 1478 1466
4 1467 1481 1478 1474
4 3914 3942 3935 3907
4 3914 3942 3907 3900
4 3388 3411 3418 3409
4 3388 3411 3409 3382
4 3411 3418 3409 3444
4 3418 3388 3409 3396
4 3409 3388 3382 3396
4 3409 3411 3444 3420
4 458 461 460 473
4 745 739 751 741
4 158 170 160 166
4 1436 1429 1419 1428
4 2312 2334 2330 2324
4 2334 2330 2324 2355
4 2330 2312 2324 2302
4 178 190 189 185
4 449 456 442 445
4 3168 3170 3197 3185
4 1694 1692 1673 1696
4 1044 1051 1036 1049
4 715 699 706 712
4 177 181 178 170
4 1604 1603 1590 1597
4 1604 1603 1597 1620
4 1603 1590 1597 1589
4 1590 1604 1597 1585
4 3321 3297 3293 3322
4 204 206 214 205
4 204 206 205 199
4 434 449 442 445
4 392 385 382 397
4 385 382 397 393
4 3415 3391 3417 3404
4 1343 1330 1329 1335
4 1343 1330 1335 1346
4 1330 1335 1346 1336
4 944 959 953 951
4 944 959 951 947
4 951 944 947 936
4 959 953 951 963
4 953 944 951 942
4 959 951 947 964
4 953 944 942 941
4 951 947 964 958
4 217 212 224 223
4 1639 1648 1655 1664
4 1639 1648 1664 1628
4 1648 1655 1664 1669
4 2737 2750 2748 2762
4 2737 2750 2762 2760
4 2411 2436 2424 2422
4 2411 2436 2422 2404
4 2422 2411 2404 2389
4 2424 2411 2422 2389
4 322 331 327 329
4 327 322 329 317
4 329 327 317 325
4 1960 1962 1943 1957
4 1960 1962 1957 1987
4 1943 1960 1957 1942
4 774 783 789 777
4 3043 3074 3045 3064
4 1749 1769 1768 1757
4 3144 3171 3162 3145
4 1106 1114 1098 1108
4 1673 1660 1666 1675
4 2808 2804 2823 2803
4 2823 2808 2803 2825
4 2808 2804 2803 2783
4 3599 3614 3597 3579
4 3599 3614 3579 3586
4 537 545 554 563
4 3341 3339 3369 3345
4 1391 1408 1390 1399
4 1391 1408 1399 1410
4 1408 1390 1399 1405
4 1390 1391 1399 1385
4 1399 1390 1385 1405
4 228 217 224 227
4 1108 1119 1102 1106
4 3823 3805 3813 3785
4 3677 3678 3712 3695
4 3677 3678 3695 3662
4 3678 3712 3695 3723
4 3712 3677 3695 3697
4 3695 3677 3662 3697
4 3712 3695 3723 3697
4 3662 3695 3697 3681
4 1429 1428 1413 1419
4 3392 3390 3416 3401
4 3392 3390 3401 3369
4 3390 3416 3401 3415
4 3416 3392 3401 3432
4 2824 2806 2809 2815
4 2824 2806 2815 2825
4 2809 2824 2815 2832
4 2806 2809 2815 2792
4 2809 2824 2832 2831
4 2824 2815 2832 2842
4 2815 2809 2832 2805
4 2320 2317 2311 2304
4 2320 2317 2304 2314
4 2317 2311 2304 2296
4 2304 2317 2296 2314
4 2296 2304 2314 2310
4 1548 1547 1530 1537
4 3215 3199 3211 3185
4 3199 3211 3185 3182
4 3211 3185 3182 3201
4 3072 3076 3048 3066
4 2664 2644 2667 2657
4 2667 2664 2657 2678
4 2664 2644 2657 2633
4 2644 2667 2657 2650
4 2657 2667 2678 2650
4 2644 2657 2633 2650
4 4104 4125 4129 4094
4 1557 1556 1542 1537
4 1542 1557 1537 1545
4 1556 1542 1537 1548
4 1738 1729 1740 1721
4 1738 1729 1721 1707
4 1729 1740 1721 1719
4 1740 1738 1721 1736
4 1721 1738 1707 1724
4 3123 3144 3129 3145
4 2723 2743 2730 2733
4 2743 2730 2733 2756
4 2723 2743 2733 2746
4 2733 2743 2756 2746
4 235 238 247 239
4 1287 1296 1277 1286
4 1287 1296 1286 1290
4 1286 1287 1290 1273
4 1277 1287 1286 1273
4 155 165 164 161
4 239 236 248 247
4 989 995 983 986
4 1347 1361 1362 1371
4 1292 1310 1305 1299
4 1305 1292 1299 1281
4 624 645 623 625
4 623 624 625 616
4 625 623 616 618
4 597 598 617 600
4 597 598 600 588
4 801 807 815 803
4 3381 3384 3383 3353
4 3384 3383 3353 3380
4 1861 1882 1875 1872
4 1875 1861 1872 1847
4 1861 1882 1872 1854
4 1872 1861 1854 1847
4 1882 1875 1872 1896
4 1875 1872 1896 1877
4 1872 1882 1896 1894
4 233 234 238 228
4 828 820 830 834
4 595 590 588 575
4 3746 3778 3759 3763
4 3746 3778 3763 3790
4 3778 3763 3790 3809
4 3778 3759 3763 3809
4 1280 1279 1265 1275
4 1280 1279 1275 1285
4 1279 1265 1275 1269
4 1265 1280 1275 1266
4 1275 1279 1269 1285
4 1269 1275 1285 1273
4 1269 1275 1273 1265
4 1275 1285 1273 1290
4 1275 1285 1290 1280
4 1672 1668 1666 1686
4 2516 2520 2543 2528
4 2516 2520 2528 2506
4 2520 2543 2528 2530
4 2528 2520 2530 2506
4 2530 2528 2506 2519
4 2543 2516 2528 2538
4 2520 2530 2506 2509
4 2516 2528 2538 2517
4 2538 2516 2517 2550
4 2528 2543 2538 2556
4 2530 2506 2509 2519
4 2517 2538 2550 2536
4 2071 2089 2091 2084
4 2071 2089 2084 2083
4 2089 2091 2084 2099
4 2091 2071 2084 2072
4 2089 2084 2083 2101
4 2084 2083 2101 2095
4 2091 2084 2099 2087
4 2089 2084 2101 2099
4 2084 2101 2099 2098
4 2083 2089 2101 2110
4 2101 2083 2110 2095
4 3716 3743 3730 3740
4 1198 1207 1211 1203
4 1198 1207 1203 1200
4 1207 1211 1203 1223
4 1211 1198 1203 1201
4 1820 1816 1800 1827
4 3956 3923 3922 3938
4 3956 3923 3938 3948
4 3923 3922 3938 3905
4 3922 3956 3938 3957
4 3922 3938 3905 3944
4 2802 2826 2817 2822
4 2663 2668 2650 2666
4 3448 3468 3432 3441
4 3237 3261 3269 3253
4 911 922 918 912
4 3983 3985 4014 4002
4 3983 3985 4002 3957
4 3985 4014 4002 4001
4 4002 3985 4001 3944
4 4014 3983 4002 4004
4 3983 4002 4004 3963
4 4002 4004 3963 3992
4 462 474 471 467
4 3383 3393 3419 3424
4 370 379 365 378
4 98 105 110 112
4 110 98 112 93
4 105 110 112 119
4 561 546 544 563
4 1377 1390 1385 1391
4 4000 4025 3995 4008
4 4000 4025 4008 4033
4 4025 4008 4033 4021
4 4025 3995 4008 4021
4 3995 4000 4008 3966
4 1089 1082 1073 1087
4 2605 2606 2626 2618
4 2626 2605 2618 2624
4 2618 2626 2624 2633
4 3758 3770 3740 3743
4 673 681 689 682
4 3290 3303 3279 3313
4 4213 4241 4227 4240
4 2192 2212 2190 2196
4 225 227 214 217
4 2923 2904 2929 2919
4 2923 2904 2919 2895
4 2929 2923 2919 2949
4 2929 2923 2949 2963
4 1718 1710 1719 1737
4 1719 1718 1737 1732
4 3144 3122 3129 3130
4 3122 3129 3130 3088
4 3369 3368 3390 3380
4 3781 3777 3812 3797
4 3781 3777 3797 3748
4 3777 3812 3797 3793
4 3812 3781 3797 3813
4 3797 3777 3793 3734
4 239 228 236 235
4 4143 4178 4176 4167
4 2723 2726 2746 2728
4 2723 2726 2728 2711
4 2726 2746 2728 2748
4 2746 2723 2728 2733
4 2723 2728 2733 2711
4 2728 2746 2733 2756
4 2728 2733 2711 2725
4 1095 1087 1080 1082
4 660 663 654 669
4 3714 3678 3679 3693
4 3678 3679 3693 3652
4 3714 3678 3693 3723
4 3679 3714 3693 3699
4 3693 3679 3699 3659
4 3693 3714 3723 3730
4 3714 3693 3699 3730
4 3679 3699 3659 3654
4 3699 3693 3659 3689
4 3693 3699 3730 3689
4 1402 1401 1388 1399
4 2357 2380 2372 2356
4 2340 2320 2351 2333
4 2340 2320 2333 2314
4 3155 3143 3131 3114
4 3131 3155 3114 3134
4 2636 2635 2621 2631
4 2636 2635 2631 2650
4 2635 2631 2650 2628
4 2635 2621 2631 2628
4 2621 2636 2631 2619
4 2631 2636 2650 2649
4 2650 2631 2649 2633
4 768 763 775 771
4 1157 1145 1139 1142
4 1157 1145 1142 1146
4 1145 1142 1146 1135
4 1142 1146 1135 1150
4 1142 1157 1146 1160
4 1146 1142 1160 1150
4 1145 1139 1142 1135
4 1139 1157 1142 1149
4 118 119 130 110
4 3031 3047 3044 3066
4 3031 3047 3066 3055
4 4158 4147 4171 4199
4 1866 1880 1856 1869
4 1866 1880 1869 1887
4 1856 1866 1869 1840
4 1880 1869 1887 1892
4 1880 1869 1892 1856
4 1866 1880 1887 1897
4 1880 1887 1897 1892
4 1869 1866 1887 1859
4 2295 2284 2283 2300
4 2283 2295 2300 2311
4 2283 2295 2311 2258
4 2295 2300 2311 2304
4 2311 2295 2304 2296
4 2295 2304 2296 2284
4 2295 2304 2284 2300
4 2304 2296 2284 2310
4 731 745 740 735
4 2746 2766 2743 2756
4 425 438 434 437
4 627 634 629 618
4 1451 1448 1444 1459
4 3706 3687 3667 3690
4 1163 1160 1146 1157
4 474 462 464 467
4 538 528 548 549
4 171 173 186 175
4 1035 1042 1050 1044
4 1050 1035 1044 1034
4 1035 1044 1034 1028
4 1034 1035 1028 1019
4 1035 1044 1028 1036
4 1624 1623 1608 1618
4 1624 1623 1618 1640
4 1623 1608 1618 1606
4 1608 1624 1618 1601
4 1623 1608 1606 1607
4 1618 1608 1601 1606
4 3425 3438 3469 3428
4 3937 3900 3906 3907
4 864 871 877 879
4 3652 3654 3679 3659
4 3652 3654 3659 3629
4 1571 1589 1573 1578
4 1573 1571 1578 1556
4 1589 1573 1578 1595
4 1571 1589 1578 1582
4 585 584 568 579
4 223 227 235 224
4 3416 3415 3449 3441
4 3449 3416 3441 3448
4 4084 4069 4086 4125
4 2013 2009 2031 2023
4 2031 2013 2023 2028
4 433 422 417 421
4 4233 4235 4266 4245
4 4233 4235 4245 4206
4 4235 4266 4245 4244
4 4266 4233 4245 4242
4 4233 4245 4242 4211
4 4245 4235 4244 4195
4 2748 2773 2770 2758
4 2773 2770 2758 2790
4 2773 2770 2790 2802
4 1038 1050 1055 1048
4 3929 3958 3948 3923
4 1324 1339 1332 1329
4 1332 1324 1329 1305
4 4234 4233 4242 4205
4 797 783 790 792
4 3043 3020 3044 3030
4 856 866 871 863
4 866 871 863 881
4 3555 3528 3536 3504
4 3792 3762 3765 3798
4 3804 3836 3837 3820
4 3215 3211 3231 3205
4 3512 3541 3539 3530
4 3541 3539 3530 3557
4 3512 3541 3530 3531
4 3541 3530 3531 3536
4 3530 3531 3536 3496
4 3539 3512 3530 3500
4 3530 3512 3531 3496
4 3531 3536 3496 3555
4 3531 3536 3555 3541
4 3530 3541 3557 3536
4 3557 3530 3536 3553
4 3512 3530 3500 3496
4 3956 3957 3983 3963
4 3956 3957 3963 3938
4 3963 3956 3938 3980
4 539 554 549 538
4 4089 4050 4065 4082
4 3262 3287 3286 3279
4 585 568 578 579
4 4014 4045 4043 4036
4 2682 2664 2684 2678
4 756 745 751 748
4 2655 2663 2666 2679
4 1475 1491 1474 1478
4 1474 1475 1478 1459
4 1475 1491 1478 1472
4 1478 1475 1472 1459
4 181 192 182 187
4 245 244 239 251
4 4205 4206 4233 4211
4 4205 4206 4211 4176
4 208 211 219 212
4 211 219 212 223
4 454 458 451 462
4 1060 1051 1044 1057
4 2622 2608 2607 2632
4 1865 1884 1881 1868
4 705 699 715 712
4 3303 3321 3293 3323
4 345 351 344 358
4 344 345 358 350
4 2929 2914 2946 2927
4 2946 2929 2927 2961
4 2929 2914 2927 2903
4 2914 2946 2927 2925
4 2914 2927 2903 2925
4 3469 3488 3467 3496
4 3467 3469 3496 3470
4 3467 3469 3470 3428
4 3390 3391 3415 3404
4 3066 3075 3088 3076
4 446 451 443 447
4 2748 2726 2727 2737
4 1063 1057 1049 1051
4 656 660 654 669
4 1355 1367 1351 1361
4 3159 3155 3131 3150
4 3159 3155 3150 3189
4 783 768 775 777
4 2113 2110 2124 2140
4 1750 1769 1749 1759
4 3880 3898 3858 3885
4 1122 1114 1106 1108
4 3859 3834 3835 3845
4 2584 2586 2605 2588
4 2584 2586 2588 2573
4 2586 2588 2573 2606
4 2586 2605 2588 2606
4 2605 2584 2588 2604
4 1351 1344 1364 1332
4 723 731 740 733
4 723 731 733 712
4 731 740 733 735
4 740 723 733 730
4 460 446 445 449
4 446 445 449 434
4 2895 2879 2904 2891
4 2904 2895 2891 2919
4 2895 2879 2891 2885
4 2891 2895 2885 2924
4 2879 2904 2891 2903
4 2904 2891 2903 2919
4 2891 2903 2919 2890
4 2903 2904 2919 2929
4 291 300 296 304
4 634 647 652 659
4 4109 4111 4143 4102
4 4109 4111 4102 4076
4 1119 1126 1135 1122
4 2686 2692 2709 2696
4 1446 1428 1429 1436
4 689 696 695 682
4 2417 2397 2419 2421
4 989 976 978 983
4 253 255 250 244
4 1561 1547 1548 1552
4 594 585 604 592
4 604 594 592 605
4 3097 3076 3072 3088
4 2509 2524 2500 2520
4 701 700 684 692
4 701 700 692 711
4 1571 1556 1557 1552
4 2272 2275 2294 2279
4 2272 2275 2279 2263
4 2275 2294 2279 2284
4 2279 2275 2284 2256
4 2294 2272 2279 2290
4 453 447 443 462
4 4142 4109 4143 4134
4 4142 4109 4134 4110
4 4109 4143 4134 4102
4 4143 4142 4134 4176
4 4134 4109 4102 4091
4 398 406 393 397
4 4123 4139 4147 4171
4 2052 2051 2071 2060
4 2052 2051 2060 2031
4 2051 2071 2060 2058
4 2071 2052 2060 2065
4 2060 2051 2058 2021
4 2052 2060 2065 2038
4 405 397 389 393
4 2163 2155 2174 2148
4 2163 2155 2148 2132
4 2155 2148 2132 2174
4 1885 1903 1882 1894
4 807 797 804 803
4 1430 1442 1450 1456
4 1442 1450 1456 1460
4 1865 1864 1842 1855
4 1865 1864 1855 1881
4 1864 1842 1855 1854
4 1855 1864 1854 1894
4 1842 1865 1855 1837
4 1855 1865 1881 1857
4 1855 1842 1837 1854
4 3556 3576 3586 3593
4 3576 3586 3593 3600
4 3593 3576 3600 3574
4 3556 3576 3593 3574
4 762 774 765 766
4 1750 1728 1739 1749
4 3804 3802 3836 3820
4 1265 1264 1252 1269
4 3497 3510 3527 3499
4 3497 3510 3499 3484
4 212 209 221 219
4 209 221 219 218
4 221 212 219 224
4 219 221 224 232
4 2409 2437 2421 2466
4 3264 3287 3262 3278
4 3325 3316 3342 3327
4 3342 3325 3327 3353
4 3325 3316 3327 3289
4 3316 3342 3327 3338
4 165 155 163 161
4 155 163 161 149
4 163 161 149 152
4 163 165 161 171
4 161 163 171 175
4 161 163 175 152
4 2667 2647 2668 2650
4 745 731 739 735
4 1493 1507 1491 1505
4 480 484 464 478
4 480 484 478 498
4 3942 3940 3935 3972
4 3942 3940 3972 3966
4 3120 3121 3141 3130
4 2326 2323 2320 2300
4 1073 1067 1060 1070
4 1019 1013 1005 1010
4 3297 3321 3333 3322
4 1181 1183 1199 1178
4 1181 1183 1178 1172
4 1183 1178 1172 1167
4 1183 1199 1178 1192
4 1178 1183 1192 1167
4 1178 1181 1172 1180
4 1178 1181 1180 1199
4 3273 3290 3279 3263
4 3510 3502 3527 3548
4 1693 1703 1687 1682
4 1687 1693 1682 1669
4 1693 1703 1682 1669
4 370 383 379 378
4 1706 1710 1727 1705
4 1706 1710 1705 1687
4 1710 1727 1705 1725
4 1710 1705 1687 1696
4 1710 1705 1696 1725
4 3047 3075 3066 3055
4 3812 3810 3841 3821
4 3812 3810 3821 3793
4 3810 3841 3821 3838
4 3841 3812 3821 3858
4 3810 3821 3793 3838
4 382 369 378 383
4 1080 1070 1063 1067
4 2351 2356 2357 2372
4 2357 2351 2372 2354
4 194 196 201 208
4 194 196 208 195
4 2430 2449 2435 2438
4 2449 2435 2438 2458
4 2435 2430 2438 2421
4 2438 2435 2421 2458
4 2438 2449 2458 2451
4 2435 2430 2421 2403
4 2430 2438 2421 2423
4 2421 2435 2403 2409
4 2421 2435 2409 2466
4 762 768 774 766
4 1339 1347 1335 1340
4 1335 1339 1340 1325
4 1340 1335 1325 1323
4 1139 1127 1122 1135
4 3860 3834 3859 3852
4 1208 1199 1213 1203
4 1199 1213 1203 1202
4 1213 1208 1203 1223
4 1208 1199 1203 1200
4 1537 1533 1542 1545
4 745 756 752 748
4 532 528 549 531
4 532 528 531 519
4 4013 4014 4043 4028
4 2791 2802 2817 2820
4 214 227 223 217
4 1435 1434 1420 1436
4 638 629 639 606
4 3288 3317 3306 3298
4 437 422 433 421
4 1118 1126 1108 1114
4 1108 1118 1114 1100
4 2444 2463 2458 2466
4 3371 3399 3384 3396
4 1442 1436 1450 1460
4 719 735 728 731
4 227 225 228 217
4 2513 2527 2547 2555
4 1594 1593 1580 1591
4 1594 1593 1591 1601
4 1593 1580 1591 1576
4 1580 1594 1591 1578
4 1591 1594 1601 1578
4 1580 1591 1576 1578
4 1410 1416 1411 1396
4 3097 3125 3126 3129
4 972 986 978 983
4 2644 2626 2647 2631
4 615 621 617 628
4 413 407 416 403
4 416 413 403 410
4 233 238 227 228
4 411 418 406 417
4 3917 3914 3935 3897
4 3914 3935 3897 3907
4 659 665 666 652
4 3174 3182 3162 3148
4 417 410 405 406
4 3863 3890 3892 3882
4 3863 3890 3882 3852
4 3890 3892 3882 3929
4 3892 3863 3882 3847
4 3882 3863 3852 3847
4 1010 995 1003 1002
4 3917 3940 3959 3960
4 3762 3758 3765 3730
4 3762 3758 3730 3743
4 3730 3762 3743 3723
4 1325 1310 1311 1322
4 1311 1325 1322 1323
4 2191 2190 2196 2178
4 2190 2196 2178 2192
4 801 797 807 803
4 366 363 369 357
4 369 366 357 364
4 3461 3448 3432 3412
4 636 646 623 651
4 1172 1159 1157 1163
4 1550 1552 1538 1547
4 2154 2126 2152 2144
4 1901 1879 1892 1900
4 2857 2879 2872 2841
4 204 214 211 205
4 623 620 614 612
4 623 620 612 627
4 620 614 612 603
4 3446 3423 3418 3430
4 3446 3423 3430 3438
4 3418 3446 3430 3444
4 3423 3430 3438 3384
4 217 205 212 211
4 756 751 766 754
4 1429 1430 1419 1418
4 170 182 180 166
4 418 430 414 417
4 436 431 443 438
4 1060 1044 1054 1050
4 3889 3891 3924 3905
4 353 345 343 357
4 345 343 357 349
4 2252 2253 2275 2256
4 2252 2253 2256 2236
4 2253 2256 2236 2258
4 4115 4110 4144 4119
4 358 370 365 364
4 3143 3159 3131 3153
4 3143 3159 3153 3181
4 3159 3153 3181 3164
4 3159 3131 3153 3139
4 3153 3159 3139 3164
4 1988 2009 2013 2023
4 1049 1057 1042 1044
4 385 394 398 397
4 3767 3741 3742 3747
4 3741 3742 3747 3724
4 3747 3741 3724 3750
4 3724 3747 3750 3735
4 3747 3741 3750 3786
4 3741 3724 3750 3746
4 3750 3747 3786 3780
4 575 581 588 589
4 789 783 797 792
4 56 57 55 70
4 56 57 70 90
4 1106 1098 1089 1102
4 4125 4139 4129 4166
4 3162 3182 3171 3199
4 3449 3484 3448 3441
4 740 745 752 746
4 740 745 746 735
4 752 740 746 747
4 2421 2437 2444 2458
4 2215 2217 2233 2236
4 4139 4123 4129 4171
4 398 411 406 410
4 410 397 405 406
4 1108 1102 1095 1098
4 358 354 370 364
4 3315 3321 3334 3341
4 3334 3315 3341 3313
4 748 763 754 756
4 1820 1824 1816 1839
4 972 966 959 963
4 1491 1485 1481 1503
4 1749 1757 1740 1759
4 383 393 379 378
4 645 649 642 654
4 3459 3419 3424 3467
4 3231 3240 3253 3224
4 389 382 378 393
4 3958 3923 3956 3948
4 2857 2839 2864 2854
4 2864 2857 2854 2877
4 2857 2839 2854 2841
4 2854 2857 2841 2877
4 2839 2864 2854 2846
4 2854 2864 2877 2863
4 2877 2854 2863 2869
4 2854 2864 2863 2846
4 2864 2877 2863 2888
4 2854 2863 2869 2836
4 2854 2863 2836 2846
4 2863 2877 2869 2873
4 2863 2877 2873 2893
4 700 701 713 711
4 599 595 588 600
4 599 595 600 614
4 70 69 56 90
4 1293 1292 1279 1285
4 1885 1882 1864 1894
4 815 807 820 817
4 1925 1924 1900 1917
4 1035 1029 1033 1028
4 1856 1852 1840 1869
4 1856 1852 1869 1892
4 1035 1029 1028 1019
4 1035 1029 1019 1021
4 1029 1019 1021 1020
4 1029 1028 1019 1020
4 193 205 199 204
4 1856 1858 1852 1879
4 260 265 270 266
4 3076 3048 3066 3055
4 1472 1476 1493 1486
4 1472 1476 1486 1456
4 1476 1493 1486 1495
4 3418 3409 3444 3430
4 3418 3409 3430 3396
4 1013 1019 1018 1010
4 2498 2506 2516 2497
4 2498 2506 2497 2469
4 2516 2498 2497 2484
4 735 719 730 733
4 730 735 733 742
4 733 730 742 740
4 735 719 733 731
4 719 730 733 712
4 735 733 742 740
4 1355 1347 1340 1354
4 1355 1347 1354 1371
4 1354 1355 1371 1368
4 1340 1355 1354 1352
4 1347 1354 1371 1346
4 1354 1355 1368 1352
4 1371 1354 1368 1365
4 1371 1354 1365 1360
4 2056 2036 2037 2045
4 2056 2036 2045 2055
4 2037 2056 2045 2057
4 4068 4066 4081 4036
4 4068 4066 4036 4043
4 2748 2773 2758 2762
4 2773 2758 2762 2790
4 2758 2748 2762 2737
4 2758 2762 2790 2788
4 2762 2773 2790 2795
4 2762 2758 2737 2742
4 433 417 427 430
4 1578 1571 1582 1566
4 4041 4077 4080 4067
4 4077 4080 4067 4115
4 4041 4077 4067 4044
4 4080 4041 4067 4030
4 2829 2844 2865 2845
4 2829 2844 2845 2820
4 3146 3126 3129 3145
4 657 674 660 665
4 1063 1080 1067 1061
4 1067 1063 1061 1051
4 2562 2581 2579 2572
4 3253 3265 3288 3280
4 3253 3265 3280 3246
4 3265 3288 3280 3298
4 3288 3280 3298 3306
4 2949 2929 2963 2961
4 801 808 793 803
4 3312 3305 3331 3326
4 3312 3305 3326 3286
4 3305 3331 3326 3311
4 3480 3446 3473 3471
4 3480 3446 3471 3469
4 3446 3473 3471 3444
4 3473 3480 3471 3508
4 332 331 329 343
4 2284 2296 2294 2310
4 1095 1080 1081 1082
4 1080 1081 1082 1067
4 3232 3238 3218 3248
4 3232 3238 3248 3262
4 1577 1580 1561 1578
4 1561 1577 1578 1573
4 1577 1578 1573 1595
4 1577 1580 1578 1594
4 1578 1577 1594 1595
4 1800 1802 1793 1777
4 1746 1737 1759 1745
4 531 548 549 543
4 3544 3511 3539 3534
4 3511 3539 3534 3500
4 3539 3544 3534 3559
4 3534 3539 3559 3530
4 3559 3534 3530 3553
4 3534 3539 3530 3500
4 3530 3534 3500 3515
4 3539 3559 3530 3557
4 3559 3530 3557 3553
4 3559 3534 3553 3560
4 3557 3559 3553 3606
4 3559 3534 3560 3544
4 3534 3530 3553 3515
4 3534 3560 3544 3527
4 206 216 214 217
4 216 214 217 225
4 3697 3724 3728 3735
4 1802 1801 1785 1792
4 1785 1802 1792 1777
4 1792 1785 1777 1780
4 1346 1347 1362 1371
4 2355 2334 2354 2333
4 2334 2354 2333 2340
4 2333 2334 2340 2314
4 2333 2334 2314 2310
4 421 431 436 438
4 1872 1882 1894 1854
4 783 775 790 785
4 4129 4123 4092 4122
4 3316 3310 3338 3311
4 894 903 905 896
4 903 905 896 917
4 3497 3527 3509 3520
4 756 766 771 763
4 3703 3669 3675 3696
4 326 317 314 312
4 905 903 912 917
4 1365 1377 1371 1360
4 856 866 863 852
4 863 856 852 862
4 863 856 862 871
4 852 863 862 855
4 863 862 855 872
4 852 863 855 866
4 862 852 855 846
4 852 855 846 840
4 846 852 840 834
4 863 862 872 879
4 855 863 872 867
4 862 852 846 856
4 852 855 840 850
4 862 863 871 879
4 684 669 680 672
4 1378 1371 1368 1399
4 4227 4213 4240 4212
4 4227 4213 4212 4186
4 4213 4240 4212 4218
4 1459 1474 1464 1467
4 3862 3835 3848 3873
4 3848 3862 3873 3891
4 2495 2491 2476 2485
4 2476 2495 2485 2490
4 2624 2615 2605 2618
4 1869 1887 1892 1886
4 972 981 986 983
4 688 677 684 680
4 3636 3630 3656 3642
4 3636 3630 3642 3600
4 3630 3656 3642 3655
4 3656 3636 3642 3667
4 3642 3656 3667 3655
4 2859 2861 2865 2885
4 959 951 964 963
4 951 964 963 960
4 964 959 963 972
4 1557 1549 1537 1545
4 2144 2140 2124 2126
4 681 696 689 682
4 681 696 682 694
4 682 681 694 688
4 682 681 688 674
4 682 681 674 673
4 3818 3831 3813 3848
4 1525 1531 1548 1536
4 1525 1531 1536 1503
4 1531 1548 1536 1553
4 2678 2667 2668 2650
4 3555 3552 3586 3554
4 3555 3552 3554 3504
4 3552 3586 3554 3504
4 2924 2923 2919 2895
4 1900 1901 1925 1917
4 3214 3205 3215 3232
4 3214 3205 3232 3218
4 434 442 430 433
4 3713 3677 3697 3676
4 3677 3697 3676 3662
4 3697 3713 3676 3703
4 2743 2730 2756 2763
4 2235 2228 2231 2219
4 2145 2157 2149 2181
4 763 755 769 767
4 1820 1816 1827 1839
4 4014 4002 4001 4036
4 4002 4001 4036 3992
4 1098 1082 1095 1081
4 2538 2516 2550 2543
4 2550 2538 2543 2556
4 2550 2538 2556 2561
4 2017 1999 2032 2018
4 2017 1999 2018 1992
4 2032 2017 2018 2037
4 212 211 223 217
4 378 369 364 370
4 1322 1316 1329 1325
4 1620 1635 1619 1630
4 1635 1619 1630 1638
4 3089 3092 3120 3107
4 3089 3092 3107 3070
4 238 244 239 234
4 705 692 694 703
4 694 705 703 712
4 959 953 963 967
4 2369 2373 2355 2382
4 2369 2373 2382 2391
4 3143 3131 3114 3120
4 3143 3131 3120 3153
4 1028 1035 1036 1033
4 1601 1605 1622 1619
4 4036 4046 4066 4061
4 4036 4046 4061 4021
4 4066 4036 4061 4081
4 3574 3565 3598 3580
4 3574 3565 3580 3538
4 3565 3598 3580 3587
4 3598 3574 3580 3600
4 2267 2239 2243 2257
4 993 989 986 995
4 2436 2422 2404 2423
4 2422 2404 2423 2401
4 467 454 457 462
4 3485 3496 3512 3500
4 434 438 446 437
4 438 446 437 443
4 2728 2726 2748 2737
4 3804 3837 3809 3819
4 3804 3837 3819 3820
4 3837 3809 3819 3847
4 530 529 508 513
4 3662 3650 3678 3644
4 3662 3650 3644 3640
4 3644 3662 3640 3681
4 830 820 833 826
4 3948 3961 3941 3989
4 1766 1745 1746 1759
4 1766 1745 1759 1764
4 3614 3624 3654 3641
4 3614 3624 3641 3586
4 3624 3654 3641 3661
4 3654 3641 3661 3667
4 3641 3624 3661 3586
4 3957 3963 3938 3944
4 3957 3963 3944 4002
4 3963 3938 3944 3947
4 3963 3938 3947 3980
4 2496 2481 2466 2494
4 2496 2481 2494 2491
4 2787 2791 2794 2801
4 3423 3396 3418 3430
4 600 589 595 588
4 2152 2140 2144 2126
4 799 803 812 804
4 2822 2812 2808 2790
4 400 386 395 387
4 400 386 387 389
4 386 395 387 374
4 387 386 374 378
4 3029 3020 3000 2996
4 3020 3000 2996 2994
4 3020 3000 2994 3030
4 3000 2996 2994 2963
4 2808 2803 2825 2806
4 733 723 712 730
4 1221 1224 1213 1223
4 1178 1182 1192 1198
4 1304 1311 1322 1306
4 2692 2686 2668 2678
4 2692 2686 2678 2696
4 2678 2692 2696 2679
4 473 460 468 470
4 2112 2110 2095 2115
4 3416 3441 3448 3432
4 554 563 549 538
4 1590 1589 1582 1597
4 1582 1590 1597 1585
4 1988 1962 1987 1975
4 2192 2200 2212 2196
4 2832 2809 2831 2805
4 265 275 270 266
4 767 771 781 772
4 767 771 772 763
4 771 781 772 785
4 781 767 772 773
4 1901 1892 1897 1918
4 1897 1901 1918 1934
4 1901 1892 1918 1917
4 3168 3161 3185 3205
4 3724 3747 3735 3723
4 3724 3747 3723 3742
4 3747 3723 3742 3762
4 3461 3432 3455 3412
4 3070 3064 3044 3066
4 1879 1878 1858 1881
4 1051 1036 1049 1043
4 1049 1051 1043 1061
4 270 275 284 279
4 967 966 972 963
4 1740 1721 1719 1736
4 2382 2374 2355 2361
4 2608 2593 2613 2596
4 3192 3194 3212 3201
4 1800 1816 1792 1799
4 1816 1792 1799 1817
4 1988 1964 1984 1997
4 2016 2015 1991 2021
4 163 173 175 176
4 175 163 176 154
4 173 175 176 186
4 3765 3792 3798 3797
4 3765 3792 3797 3781
4 3797 3765 3781 3748
4 3798 3765 3797 3774
4 329 317 326 325
4 3428 3429 3422 3470
4 3466 3450 3485 3467
4 3802 3804 3790 3820
4 1672 1654 1655 1666
4 1098 1114 1100 1108
4 3094 3070 3088 3107
4 3088 3094 3107 3130
4 3693 3679 3659 3652
4 519 501 518 512
4 725 739 728 741
4 3516 3538 3545 3532
4 3516 3538 3532 3508
4 3538 3545 3532 3574
4 3545 3516 3532 3504
4 2170 2179 2174 2200
4 3482 3500 3499 3466
4 3482 3500 3466 3485
4 1049 1033 1043 1036
4 1719 1710 1698 1720
4 1710 1698 1720 1696
4 1710 1698 1696 1687
4 1698 1720 1696 1713
4 1720 1710 1696 1725
4 1719 1710 1720 1737
4 1720 1696 1713 1725
4 2529 2548 2555 2558
4 2548 2555 2558 2577
4 2644 2647 2650 2631
4 2647 2650 2631 2628
4 3983 3956 3963 4004
4 3064 3089 3068 3078
4 1444 1428 1448 1435
4 3880 3907 3897 3868
4 283 282 279 289
4 1766 1777 1785 1780
4 2419 2444 2417 2421
4 370 366 383 369
4 370 366 369 364
4 1275 1265 1266 1273
4 1266 1275 1273 1286
4 807 804 818 812
4 3983 4002 3963 3957
4 3485 3467 3496 3470
4 715 722 712 718
4 1163 1171 1173 1172
4 3450 3451 3467 3429
4 1728 1749 1729 1740
4 455 445 440 442
4 440 455 442 452
4 201 192 193 190
4 3917 3914 3897 3885
4 1259 1264 1281 1269
4 4136 4154 4125 4166
4 4136 4154 4166 4170
4 4125 4136 4166 4129
4 3803 3785 3805 3823
4 3467 3428 3419 3424
4 3428 3419 3424 3383
4 4002 4014 4004 4032
4 4004 4002 4032 3992
4 4002 4014 4032 4036
4 2146 2137 2161 2151
4 2137 2161 2151 2142
4 1606 1623 1607 1631
4 3341 3334 3313 3326
4 3334 3313 3326 3279
4 595 602 616 612
4 602 616 612 604
4 616 612 604 618
4 616 612 618 623
4 612 604 618 606
4 612 618 623 627
4 612 602 604 603
4 616 612 623 614
4 604 612 603 605
4 3652 3644 3629 3659
4 3652 3644 3659 3693
4 3771 3745 3757 3761
4 3757 3771 3761 3808
4 3771 3745 3761 3793
4 3761 3771 3793 3808
4 1391 1399 1385 1371
4 2605 2588 2606 2618
4 2605 2588 2618 2615
4 223 235 231 224
4 1769 1768 1757 1783
4 1769 1768 1783 1790
4 1768 1783 1790 1794
4 1768 1757 1783 1765
4 1783 1769 1790 1780
4 1783 1769 1780 1759
4 647 638 639 661
4 647 638 661 659
4 4069 4056 4048 4026
4 4056 4048 4026 4029
4 447 443 462 451
4 3317 3306 3298 3325
4 4110 4144 4119 4161
4 1824 1838 1823 1837
4 2404 2415 2436 2423
4 2404 2415 2423 2393
4 2125 2126 2108 2110
4 499 518 501 512
4 387 401 396 400
4 387 401 400 389
4 3289 3261 3285 3267
4 425 421 436 438
4 425 421 438 437
4 3559 3589 3560 3553
4 755 750 764 759
4 3669 3703 3720 3696
4 1927 1903 1904 1902
4 1903 1904 1902 1885
4 1927 1903 1902 1930
4 1904 1927 1902 1931
4 1904 1902 1885 1881
4 266 262 273 270
4 3333 3321 3341 3334
4 3333 3321 3334 3350
4 3341 3333 3334 3378
4 1816 1802 1792 1801
4 3199 3171 3200 3182
4 4161 4162 4119 4149
4 4161 4162 4149 4197
4 1589 1603 1602 1605
4 2588 2584 2573 2572
4 2588 2584 2572 2604
4 2809 2792 2797 2805
4 1157 1142 1149 1160
4 878 877 888 879
4 3261 3289 3280 3267
4 3600 3598 3630 3610
4 3600 3598 3610 3580
4 3598 3630 3610 3621
4 3630 3600 3610 3642
4 3598 3610 3580 3607
4 3610 3630 3642 3621
4 650 651 659 634
4 2877 2879 2857 2841
4 894 879 887 888
4 879 887 888 878
4 887 894 888 896
4 888 887 896 878
4 2885 2895 2910 2924
4 1207 1218 1223 1208
4 1207 1218 1208 1200
4 1208 1207 1200 1203
4 1208 1207 1203 1223
4 411 398 404 403
4 4016 4036 4014 4001
4 4016 4036 4001 4021
4 140 141 152 130
4 2836 2823 2808 2819
4 3448 3432 3412 3416
4 3153 3141 3168 3161
4 3075 3066 3055 3076
4 3055 3075 3076 3100
4 657 651 667 665
4 864 851 856 862
4 1135 1126 1146 1145
4 3469 3454 3480 3446
4 745 752 746 748
4 746 745 748 735
4 748 746 735 742
4 748 746 742 755
4 746 735 742 740
4 748 746 755 752
4 746 742 755 747
4 742 746 740 747
4 1660 1640 1642 1647
4 1640 1642 1647 1630
4 1642 1660 1647 1666
4 1660 1647 1666 1659
4 1642 1647 1630 1654
4 1843 1842 1854 1826
4 1481 1478 1474 1491
4 255 250 244 251
4 255 250 251 248
4 251 255 248 262
4 251 255 262 266
4 251 255 266 253
4 251 255 253 244
4 255 262 266 260
4 3906 3874 3893 3894
4 3906 3874 3894 3907
4 3893 3906 3894 3939
4 3894 3906 3907 3936
4 3874 3894 3907 3868
4 3907 3894 3936 3912
4 3894 3907 3868 3912
4 4089 4104 4082 4065
4 4089 4104 4065 4084
4 1435 1448 1434 1436
4 1435 1448 1436 1428
4 3161 3142 3162 3130
4 3161 3142 3130 3141
4 2077 2075 2056 2068
4 2075 2056 2068 2058
4 2056 2077 2068 2057
4 1019 1005 1015 1001
4 4266 4245 4244 4286
4 4245 4244 4286 4246
4 2593 2607 2613 2598
4 2108 2086 2096 2110
4 4065 4050 4025 4021
4 2815 2809 2805 2792
4 247 250 260 248
4 4028 4044 4027 4067
4 747 752 759 755
4 2460 2471 2455 2442
4 1885 1903 1894 1902
4 1903 1894 1902 1930
4 1894 1885 1902 1881
4 1902 1894 1881 1892
4 1894 1885 1881 1864
4 3273 3293 3257 3252
4 3257 3273 3252 3248
4 1882 1875 1896 1907
4 1875 1896 1907 1895
4 1896 1882 1907 1903
4 1900 1899 1878 1881
4 2726 2728 2711 2715
4 2111 2099 2123 2128
4 4129 4104 4094 4092
4 2390 2382 2393 2404
4 2390 2382 2404 2389
4 3380 3370 3404 3383
4 3404 3380 3383 3384
4 3380 3370 3383 3353
4 3383 3404 3384 3438
4 3380 3370 3353 3345
4 3172 3162 3171 3145
4 1005 1013 998 1002
4 1005 1013 1002 1010
4 4006 3994 3982 4029
4 2016 2036 2015 2021
4 310 316 312 317
4 310 316 317 321
4 3792 3762 3798 3785
4 3762 3798 3785 3747
4 417 405 412 414
4 2556 2543 2544 2530
4 271 272 279 266
4 3924 3944 3922 3905
4 1714 1734 1732 1754
4 3340 3331 3353 3345
4 3340 3331 3345 3312
4 3181 3159 3164 3184
4 1816 1800 1827 1799
4 1325 1310 1322 1316
4 2551 2555 2573 2558
4 2551 2555 2558 2531
4 2551 2555 2531 2513
4 2555 2558 2531 2529
4 2555 2573 2558 2577
4 2256 2252 2236 2263
4 2256 2252 2263 2275
4 1057 1070 1055 1069
4 3606 3627 3626 3644
4 3606 3627 3644 3629
4 3914 3880 3897 3885
4 2231 2219 2222 2238
4 2219 2222 2238 2223
4 1802 1785 1786 1777
4 3527 3510 3548 3544
4 3527 3510 3544 3499
4 1364 1375 1367 1383
4 1375 1367 1383 1376
4 1383 1375 1376 1396
4 1364 1375 1383 1396
4 4227 4222 4186 4199
4 1417 1420 1408 1419
4 1417 1420 1419 1435
4 1265 1280 1266 1268
4 1280 1266 1268 1286
4 797 790 804 799
4 3342 3338 3371 3348
4 3338 3371 3348 3367
4 3371 3342 3348 3384
4 3348 3371 3384 3382
4 771 777 785 775
4 485 473 468 470
4 468 485 470 479
4 1035 1050 1039 1034
4 1039 1035 1034 1019
4 4153 4186 4158 4171
4 4186 4158 4171 4199
4 202 212 211 208
4 2663 2668 2666 2692
4 1279 1292 1281 1285
4 3848 3823 3833 3845
4 1887 1869 1859 1886
4 2430 2449 2438 2451
4 2573 2586 2606 2577
4 3656 3655 3683 3667
4 1664 1648 1669 1628
4 600 598 587 588
4 705 712 711 703
4 756 771 767 763
4 1155 1145 1146 1137
4 1173 1178 1175 1172
4 3628 3640 3653 3633
4 1858 1838 1839 1852
4 675 677 663 660
4 2949 2924 2919 2939
4 4206 4233 4211 4245
4 406 414 401 405
4 1296 1277 1286 1288
4 2304 2314 2310 2333
4 3235 3213 3236 3229
4 3235 3213 3229 3212
4 3213 3236 3229 3222
4 4084 4086 4072 4118
4 4084 4086 4118 4125
4 2388 2396 2401 2367
4 3938 3923 3905 3881
4 1943 1962 1945 1957
4 2060 2065 2038 2057
4 364 357 349 354
4 364 357 354 370
4 718 723 722 712
4 1620 1619 1603 1618
4 4179 4162 4161 4197
4 119 129 130 132
4 130 119 132 112
4 129 130 132 141
4 132 130 112 125
4 2874 2853 2851 2869
4 2874 2853 2869 2873
4 2372 2376 2391 2397
4 1139 1142 1135 1149
4 864 877 878 879
4 3263 3248 3262 3279
4 3263 3248 3279 3273
4 2249 2267 2263 2272
4 2062 2052 2065 2038
4 1500 1507 1505 1518
4 976 978 983 972
4 959 966 967 963
4 3287 3305 3286 3279
4 2530 2528 2519 2556
4 3743 3714 3730 3723
4 1727 1745 1725 1739
4 3499 3484 3482 3466
4 828 838 839 834
4 2776 2787 2756 2782
4 3448 3468 3441 3484
4 2436 2424 2422 2453
4 3852 3863 3837 3847
4 1016 1019 1015 1034
4 3430 3446 3438 3471
4 3430 3446 3471 3444
4 3438 3430 3471 3422
4 3438 3430 3422 3384
4 1660 1659 1640 1647
4 3575 3592 3588 3560
4 3575 3592 3560 3570
4 3560 3575 3570 3544
4 3560 3575 3544 3548
4 3570 3560 3544 3559
4 3030 3029 3000 3024
4 2839 2854 2841 2822
4 2854 2841 2822 2842
4 2839 2854 2822 2836
4 2854 2822 2836 2842
4 2822 2839 2836 2808
4 2839 2854 2836 2846
4 2836 2822 2808 2825
4 2836 2822 2825 2842
4 2279 2275 2256 2263
4 2256 2279 2263 2266
4 460 445 455 456
4 1533 1524 1542 1545
4 2094 2110 2096 2083
4 3303 3293 3282 3323
4 3750 3724 3735 3728
4 3750 3724 3728 3746
4 3728 3750 3746 3763
4 3728 3750 3763 3735
4 3750 3746 3763 3790
4 3763 3750 3790 3780
4 3746 3728 3763 3759
4 2179 2192 2178 2196
4 1658 1666 1642 1654
4 3303 3334 3323 3279
4 2815 2832 2842 2828
4 3823 3848 3835 3845
4 781 794 786 784
4 491 499 498 501
4 3767 3741 3747 3786
4 397 410 403 398
4 1126 1108 1114 1122
4 2196 2191 2178 2180
4 2196 2191 2180 2211
4 2178 2196 2180 2188
4 2178 2196 2188 2179
4 1858 1878 1857 1881
4 2231 2252 2249 2238
4 1738 1721 1736 1724
4 1095 1108 1098 1100
4 1098 1095 1100 1081
4 461 470 456 460
4 1759 1758 1763 1737
4 3165 3147 3140 3148
4 3165 3147 3148 3174
4 3147 3148 3174 3146
4 3147 3140 3148 3127
4 3147 3148 3146 3125
4 3148 3147 3127 3125
4 1238 1230 1223 1239
4 224 236 235 232
4 652 647 661 659
4 2547 2551 2530 2513
4 2016 1991 1992 2000
4 2016 1991 2000 2021
4 1992 2016 2000 2017
4 3466 3449 3429 3441
4 3466 3449 3441 3484
4 3429 3466 3441 3470
4 3429 3466 3470 3467
4 4232 4267 4269 4252
4 4232 4267 4252 4234
4 4267 4269 4252 4301
4 4269 4232 4252 4221
4 1637 1639 1655 1635
4 1637 1639 1635 1620
4 185 186 195 175
4 2417 2393 2391 2423
4 2320 2351 2333 2323
4 3438 3469 3428 3470
4 3411 3418 3444 3460
4 3418 3444 3460 3446
4 3444 3411 3460 3434
4 2284 2279 2256 2285
4 2239 2235 2243 2211
4 3511 3499 3534 3544
4 3589 3570 3560 3592
4 3560 3589 3592 3582
4 2372 2380 2397 2385
4 2372 2380 2385 2356
4 1566 1550 1576 1560
4 3961 3948 3980 3989
4 3217 3240 3231 3224
4 1122 1127 1126 1135
4 3724 3713 3728 3746
4 3713 3728 3746 3720
4 4069 4065 4058 4094
4 4069 4065 4094 4104
4 4058 4069 4094 4048
4 815 820 828 817
4 1739 1733 1744 1725
4 1744 1739 1725 1745
4 2869 2863 2873 2853
4 3399 3396 3423 3384
4 799 785 792 790
4 345 343 349 338
4 1692 1675 1673 1681
4 1692 1675 1681 1698
4 1681 1692 1698 1696
4 1681 1692 1696 1673
4 1692 1698 1696 1713
4 1698 1681 1696 1687
4 1675 1673 1681 1666
4 1673 1681 1666 1686
4 440 433 427 430
4 427 440 430 444
4 3768 3790 3746 3750
4 3746 3768 3750 3741
4 3768 3750 3741 3786
4 3044 3043 3030 3064
4 3767 3785 3747 3742
4 2606 2626 2618 2628
4 3841 3821 3838 3868
4 201 204 202 193
4 3924 3891 3917 3902
4 3924 3891 3902 3905
4 3891 3917 3902 3885
4 3902 3924 3905 3944
4 3902 3924 3944 3917
4 393 406 401 405
4 2715 2709 2692 2696
4 2715 2709 2696 2726
4 2692 2715 2696 2698
4 3416 3401 3415 3441
4 3416 3401 3441 3432
4 554 545 561 563
4 3429 3415 3404 3401
4 752 756 767 755
4 4086 4069 4048 4094
4 4086 4069 4094 4125
4 3810 3841 3838 3846
4 1824 1823 1801 1817
4 1975 1988 1984 2023
4 3353 3343 3361 3325
4 484 478 467 464
4 1872 1896 1877 1886
4 1877 1872 1886 1859
4 1872 1896 1886 1894
4 1896 1877 1886 1910
4 4123 4104 4092 4082
4 549 532 531 543
4 3316 3285 3310 3311
4 903 904 912 906
4 903 904 906 894
4 912 903 906 894
4 912 903 894 896
4 3669 3666 3675 3633
4 3758 3730 3743 3740
4 3758 3730 3740 3734
4 499 491 485 486
4 3290 3273 3257 3263
4 4273 4274 4241 4260
4 4274 4241 4260 4250
4 4241 4273 4260 4240
4 838 845 846 834
4 1542 1556 1536 1548
4 2152 2163 2171 2144
4 2514 2512 2491 2505
4 2512 2491 2505 2509
4 2491 2514 2505 2485
4 2505 2512 2509 2531
4 1622 1642 1630 1638
4 1856 1866 1840 1830
4 888 905 896 895
4 672 677 660 663
4 3444 3409 3420 3433
4 1925 1924 1917 1944
4 201 211 208 202
4 2885 2887 2861 2865
4 1247 1238 1257 1248
4 1257 1247 1248 1256
4 1247 1238 1248 1230
4 1238 1248 1230 1239
4 1248 1247 1230 1246
4 1238 1257 1248 1252
4 1257 1248 1252 1265
4 3123 3129 3095 3100
4 1474 1481 1464 1467
4 4017 4027 4030 3989
4 3306 3278 3280 3292
4 564 578 579 574
4 856 871 864 862
4 2787 2776 2801 2782
4 196 202 201 208
4 1381 1365 1379 1370
4 3488 3480 3516 3493
4 3488 3480 3493 3469
4 3493 3488 3469 3496
4 3480 3516 3493 3508
4 3516 3488 3493 3532
4 3480 3493 3469 3471
4 3469 3493 3496 3470
4 3493 3516 3532 3508
4 3480 3493 3471 3508
4 3469 3493 3470 3471
4 1435 1451 1444 1426
4 3097 3100 3076 3088
4 2279 2272 2263 2290
4 4076 4068 4102 4109
4 4245 4242 4211 4246
4 150 141 154 152
4 154 150 152 163
4 141 154 152 132
4 2072 2065 2071 2084
4 2832 2815 2805 2828
4 2879 2877 2903 2891
4 2877 2903 2891 2890
4 2879 2877 2891 2859
4 1292 1310 1299 1304
4 1299 1292 1304 1293
4 1944 1942 1924 1931
4 4245 4266 4242 4286
4 2963 2961 2994 2976
4 2963 2961 2976 2949
4 2961 2994 2976 3002
4 2994 2976 3002 3000
4 2976 3002 3000 2995
4 3002 2994 3000 3030
4 2994 2976 3000 2963
4 3000 3002 3030 3024
4 1852 1839 1840 1827
4 1900 1924 1899 1917
4 2109 2128 2117 2116
4 2117 2109 2116 2087
4 2109 2128 2116 2099
4 2116 2109 2099 2087
4 190 182 189 192
4 4104 4125 4094 4069
4 344 350 338 345
4 338 344 345 330
4 344 345 330 331
4 1964 1975 1984 1956
4 3145 3146 3172 3162
4 3278 3253 3288 3280
4 3278 3253 3280 3267
4 2543 2528 2530 2556
4 1016 1005 998 1015
4 2037 2036 2016 2045
4 3948 3929 3923 3882
4 1385 1381 1379 1405
4 3218 3207 3205 3232
4 3155 3131 3150 3134
4 3279 3303 3282 3323
4 2528 2516 2506 2497
4 2728 2733 2725 2756
4 202 205 204 211
4 953 951 963 952
4 953 951 952 942
4 952 953 942 967
4 951 963 952 960
4 963 953 952 967
4 1537 1549 1538 1533
4 1538 1537 1533 1527
4 1549 1538 1533 1545
4 1533 1549 1545 1537
4 1538 1537 1527 1547
4 1533 1538 1527 1518
4 1533 1538 1518 1521
4 1538 1533 1545 1521
4 1538 1527 1518 1539
4 1527 1533 1518 1537
4 1549 1538 1545 1550
4 2565 2551 2573 2572
4 1070 1087 1072 1078
4 1072 1070 1078 1069
4 1070 1087 1078 1073
4 1078 1070 1073 1069
4 1073 1078 1069 1090
4 1073 1078 1090 1089
4 1073 1078 1089 1087
4 1078 1090 1089 1092
4 3595 3606 3626 3589
4 3595 3606 3589 3559
4 1561 1580 1560 1576
4 3367 3377 3382 3344
4 3367 3377 3344 3332
4 3377 3382 3344 3372
4 3382 3367 3344 3348
4 3377 3344 3332 3372
4 3377 3382 3372 3420
4 1049 1063 1051 1061
4 3690 3654 3661 3667
4 1347 1335 1340 1354
4 1335 1340 1354 1352
4 1347 1335 1354 1346
4 1335 1354 1346 1336
4 1785 1801 1784 1780
4 4111 4102 4076 4066
4 3502 3527 3548 3509
4 774 776 765 766
4 3935 3917 3897 3902
4 3935 3917 3902 3944
4 3897 3935 3902 3947
4 1843 1854 1847 1834
4 1843 1854 1834 1826
4 1847 1843 1834 1822
4 1834 1843 1826 1822
4 2872 2859 2841 2879
4 2320 2326 2300 2311
4 2320 2326 2311 2329
4 2320 2326 2329 2356
4 771 766 777 768
4 3666 3676 3697 3662
4 279 273 285 284
4 2469 2455 2471 2442
4 2469 2455 2442 2453
4 4213 4186 4184 4212
4 4184 4213 4212 4218
4 3823 3813 3833 3798
4 3823 3813 3798 3785
4 2812 2822 2802 2790
4 2802 2812 2790 2773
4 3556 3545 3574 3536
4 1866 1887 1859 1883
4 612 620 603 605
4 2615 2604 2605 2588
4 1749 1769 1757 1759
4 224 217 223 227
4 418 434 430 433
4 1786 1777 1793 1802
4 2128 2154 2145 2123
4 2145 2128 2123 2116
4 2123 2145 2116 2129
4 2145 2128 2116 2149
4 2128 2123 2116 2099
4 2123 2116 2099 2098
4 3640 3626 3650 3644
4 2730 2723 2733 2711
4 2919 2929 2949 2927
4 2919 2929 2927 2903
4 2927 2919 2903 2918
4 2929 2949 2927 2961
4 2949 2919 2927 2939
4 1858 1857 1838 1855
4 2820 2817 2843 2841
4 2280 2253 2258 2284
4 219 223 231 224
4 219 223 224 212
4 2711 2706 2726 2696
4 2711 2706 2696 2682
4 3269 3280 3298 3246
4 769 755 764 767
4 2060 2071 2065 2084
4 2060 2071 2084 2058
4 2760 2775 2783 2804
4 1802 1800 1792 1777
4 623 624 616 614
4 1013 1018 1002 1010
4 3064 3070 3089 3088
4 486 470 478 485
4 486 470 485 479
4 2631 2649 2633 2617
4 1839 1856 1840 1830
4 1550 1562 1576 1559
4 1739 1750 1749 1759
4 983 995 985 986
4 2235 2249 2263 2238
4 2263 2235 2238 2248
4 271 275 265 266
4 1601 1608 1593 1606
4 1608 1593 1606 1607
4 1593 1606 1607 1583
4 1388 1378 1368 1399
4 1290 1275 1280 1286
4 1035 1044 1036 1042
4 3730 3711 3740 3734
4 830 833 845 834
4 2766 2776 2756 2746
4 3938 3922 3957 3944
4 1549 1562 1550 1545
4 3411 3444 3420 3434
4 812 803 817 807
4 1660 1675 1659 1666
4 584 569 563 579
4 1293 1311 1290 1291
4 3511 3510 3499 3544
4 2095 2094 2075 2083
4 3273 3279 3282 3248
4 212 202 209 208
4 209 212 208 219
4 208 209 219 218
4 202 209 208 196
4 209 208 196 197
4 208 209 218 197
4 1988 1987 2009 1993
4 1987 2009 1993 2021
4 2009 1988 1993 2023
4 2009 1993 2021 2023
4 1993 2021 2023 2000
4 2021 2009 2023 2031
4 1993 2021 2000 1991
4 2023 1993 2000 1975
4 1988 1987 1993 1975
4 2021 2023 2000 2045
4 1993 2000 1975 1957
4 1993 1988 1975 2023
4 2824 2815 2842 2825
4 565 579 574 564
4 2653 2648 2628 2675
4 2653 2648 2675 2655
4 781 785 794 784
4 1869 1866 1859 1840
4 1044 1054 1050 1034
4 3747 3750 3735 3780
4 3432 3468 3455 3445
4 1828 1826 1817 1837
4 1817 1828 1837 1823
4 2173 2191 2181 2180
4 2173 2191 2180 2178
4 2191 2181 2180 2211
4 1777 1759 1763 1783
4 1740 1738 1736 1765
4 316 325 312 317
4 2631 2636 2649 2619
4 742 730 737 740
4 2275 2284 2256 2253
4 3415 3429 3449 3441
4 4050 4065 4082 4061
4 4050 4065 4061 4021
4 4065 4082 4061 4092
4 4061 4065 4092 4058
4 4061 4065 4058 4033
4 4061 4065 4033 4021
4 279 266 273 270
4 2633 2615 2618 2617
4 1597 1604 1620 1616
4 1597 1604 1616 1585
4 1604 1620 1616 1628
4 1655 1654 1635 1647
4 1073 1060 1069 1070
4 2249 2239 2267 2273
4 2239 2267 2273 2257
4 2267 2249 2273 2272
4 1410 1417 1408 1399
4 1737 1727 1710 1739
4 2099 2101 2123 2098
4 3089 3074 3068 3083
4 1875 1872 1877 1847
4 1785 1764 1766 1780
4 1159 1157 1163 1146
4 820 807 818 817
4 2776 2770 2758 2746
4 1879 1892 1900 1881
4 3396 3371 3367 3382
4 4233 4205 4211 4242
4 3834 3816 3835 3845
4 2200 2193 2217 2174
4 1073 1082 1080 1087
4 3287 3262 3278 3279
4 2154 2126 2144 2123
4 2126 2144 2123 2124
4 2144 2123 2124 2151
4 2144 2123 2151 2145
4 2151 2144 2145 2178
4 2144 2123 2145 2154
4 2124 2144 2151 2146
4 2145 2144 2154 2178
4 2144 2151 2146 2163
4 2123 2151 2145 2129
4 2144 2151 2163 2178
4 2146 2144 2163 2124
4 1253 1234 1246 1230
4 3785 3769 3805 3762
4 3785 3769 3762 3742
4 505 498 508 523
4 2584 2572 2565 2573
4 1413 1429 1419 1418
4 3262 3251 3278 3279
4 785 799 794 790
4 2284 2280 2283 2258
4 4072 4086 4048 4087
4 4072 4086 4087 4124
4 4144 4115 4119 4162
4 3353 3370 3340 3345
4 3812 3797 3793 3821
4 3797 3793 3821 3774
4 3812 3797 3821 3813
4 3797 3793 3774 3734
4 2766 2763 2756 2787
4 2766 2763 2787 2794
4 2763 2756 2787 2778
4 2763 2787 2794 2778
4 619 615 600 617
4 619 615 617 628
4 2294 2310 2290 2279
4 2294 2310 2279 2284
4 2437 2444 2458 2466
4 663 680 669 672
4 2442 2436 2423 2422
4 2442 2436 2422 2453
4 2423 2442 2422 2432
4 3289 3285 3316 3292
4 3289 3285 3292 3267
4 3285 3316 3292 3311
4 398 385 397 393
4 599 617 614 600
4 3703 3676 3720 3713
4 337 329 326 325
4 1377 1385 1371 1391
4 2514 2534 2512 2505
4 594 585 592 579
4 3045 3043 3064 3029
4 3043 3064 3029 3030
4 1903 1882 1894 1896
4 275 282 288 279
4 1226 1230 1241 1219
4 1226 1230 1219 1211
4 2666 2655 2679 2661
4 3929 3890 3923 3882
4 2125 2132 2113 2096
4 651 652 667 665
4 2946 2927 2925 2940
4 762 765 749 751
4 3269 3261 3280 3253
4 3280 3269 3253 3246
4 1102 1119 1112 1110
4 1102 1119 1110 1106
4 1119 1112 1110 1130
4 1112 1102 1110 1092
4 1110 1102 1106 1090
4 357 366 370 364
4 1727 1737 1745 1739
4 2803 2808 2783 2788
4 3935 3942 3972 3954
4 3097 3126 3100 3129
4 3211 3217 3231 3224
4 3231 3211 3224 3201
4 3211 3217 3224 3216
4 3224 3211 3216 3192
4 1448 1455 1434 1453
4 1448 1455 1453 1472
4 1455 1434 1453 1447
4 69 70 77 91
4 69 70 91 101
4 1005 1019 1010 1001
4 1010 1005 1001 995
4 1005 1001 995 985
4 2056 2075 2055 2058
4 445 433 440 442
4 4043 4068 4044 4028
4 2072 2091 2087 2084
4 275 288 284 279
4 1754 1758 1737 1732
4 773 781 786 784
4 4258 4242 4266 4289
4 4258 4242 4289 4267
4 4266 4258 4289 4298
4 4258 4289 4298 4267
4 2990 3019 3005 2984
4 3592 3596 3628 3640
4 3468 3461 3455 3502
4 1900 1878 1879 1881
4 3144 3142 3130 3162
4 2128 2126 2154 2123
4 2382 2373 2393 2391
4 1729 1721 1707 1711
4 330 338 325 329
4 763 748 755 756
4 3248 3241 3218 3223
4 4008 4000 4033 3994
4 4008 4000 3994 3966
4 4033 4008 3994 4011
4 2037 2016 2017 2024
4 2037 2016 2024 2045
4 2017 2037 2024 2018
4 2024 2017 2018 2000
4 2024 2037 2045 2057
4 3666 3653 3651 3640
4 3762 3765 3798 3754
4 343 329 337 338
4 4115 4146 4127 4131
4 4115 4146 4131 4162
4 4146 4131 4162 4174
4 4146 4127 4131 4174
4 3852 3836 3834 3820
4 3852 3836 3820 3837
4 660 663 669 672
4 954 950 953 967
4 729 736 725 741
4 1593 1591 1601 1606
4 1773 1775 1793 1754
4 1182 1173 1175 1168
4 1173 1175 1168 1160
4 1173 1175 1160 1172
4 1175 1168 1160 1149
4 3205 3197 3215 3185
4 3205 3197 3185 3168
4 1800 1820 1827 1830
4 1820 1827 1830 1839
4 1785 1784 1764 1780
4 4145 4167 4143 4122
4 4145 4167 4122 4123
4 1280 1275 1266 1286
4 789 793 776 777
4 1710 1703 1698 1687
4 2421 2438 2458 2444
4 2438 2458 2444 2440
4 2421 2438 2444 2417
4 3703 3666 3697 3694
4 468 460 455 456
4 455 468 456 472
4 1050 1038 1039 1048
4 1264 1279 1281 1269
4 1020 1010 1018 1019
4 1020 1010 1019 1021
4 1010 1019 1021 1001
4 4115 4110 4119 4091
4 4110 4119 4091 4134
4 4119 4115 4091 4067
4 4091 4119 4067 4093
4 2216 2205 2186 2203
4 2216 2205 2203 2223
4 2205 2186 2203 2182
4 1618 1623 1606 1627
4 1618 1623 1627 1640
4 918 922 928 931
4 2607 2615 2617 2572
4 3131 3159 3150 3139
4 3710 3687 3690 3661
4 3687 3690 3661 3667
4 1365 1385 1379 1374
4 3384 3399 3383 3425
4 4143 4134 4102 4122
4 4134 4102 4122 4126
4 1839 1838 1824 1837
4 677 680 663 672
4 677 680 672 684
4 211 214 217 205
4 214 217 205 206
4 2794 2810 2820 2791
4 2312 2334 2324 2310
4 2324 2312 2310 2301
4 2310 2324 2301 2313
4 393 401 387 389
4 2369 2354 2372 2351
4 2372 2369 2351 2364
4 2351 2372 2364 2356
4 1310 1305 1299 1316
4 275 271 279 266
4 2304 2284 2300 2313
4 3236 3256 3268 3249
4 3236 3256 3249 3222
4 3268 3236 3249 3235
4 473 478 464 467
4 737 722 732 740
4 3409 3411 3420 3382
4 349 343 337 338
4 3785 3803 3786 3816
4 3786 3785 3816 3814
4 3785 3803 3816 3823
4 3527 3497 3499 3520
4 680 692 684 688
4 1385 1365 1371 1368
4 884 871 881 879
4 1139 1157 1149 1148
4 1157 1149 1148 1167
4 1149 1139 1148 1128
4 1148 1149 1128 1140
4 1371 1378 1377 1391
4 2267 2235 2263 2248
4 765 762 766 751
4 1533 1516 1545 1495
4 2295 2280 2311 2258
4 484 474 464 467
4 3129 3122 3095 3088
4 857 851 864 862
4 3468 3432 3441 3445
4 1050 1055 1048 1066
4 3424 3425 3462 3428
4 3823 3835 3803 3816
4 614 612 603 595
4 1673 1658 1678 1668
4 473 464 458 467
4 464 458 467 462
4 3419 3428 3404 3383
4 3600 3593 3574 3580
4 1246 1234 1222 1233
4 1246 1234 1233 1230
4 1234 1233 1230 1222
4 3900 3880 3858 3874
4 2095 2075 2077 2068
4 2110 2113 2096 2125
4 251 239 248 250
4 3293 3273 3282 3252
4 2031 2026 2051 2021
4 712 710 694 695
4 2832 2824 2842 2851
4 2832 2824 2851 2831
4 2851 2832 2831 2867
4 2842 2832 2851 2860
4 3676 3666 3651 3662
4 4054 4033 4026 4069
4 704 710 718 706
4 590 586 594 603
4 1300 1290 1306 1296
4 3185 3182 3201 3161
4 228 239 234 238
4 2212 2219 2196 2200
4 564 563 548 549
4 2249 2252 2272 2263
4 1763 1758 1773 1732
4 302 312 298 304
4 1615 1622 1619 1638
4 1230 1226 1223 1211
4 2530 2524 2547 2513
4 2593 2579 2581 2572
4 1478 1474 1459 1467
4 317 304 314 312
4 3429 3428 3467 3470
4 3093 3089 3120 3131
4 1826 1807 1817 1799
4 1807 1817 1799 1788
4 2871 2893 2888 2863
4 189 181 182 178
4 2351 2340 2333 2354
4 1028 1036 1018 1033
4 2664 2657 2678 2669
4 2664 2657 2669 2633
4 3499 3500 3515 3466
4 1728 1739 1749 1740
4 2235 2267 2243 2248
4 1658 1642 1638 1654
4 1931 1930 1902 1917
4 1902 1931 1917 1899
4 1931 1930 1917 1944
4 1930 1902 1917 1918
4 3129 3144 3130 3162
4 3129 3144 3162 3145
4 2825 2852 2836 2853
4 3678 3695 3662 3693
4 3678 3695 3693 3723
4 3695 3693 3723 3681
4 3695 3662 3693 3681
4 1745 1764 1744 1739
4 815 828 823 817
4 2790 2776 2758 2786
4 2084 2071 2083 2058
4 3629 3614 3654 3659
4 792 785 777 783
4 91 93 98 110
4 91 93 110 114
4 3159 3139 3164 3150
4 1694 1673 1678 1686
4 427 417 412 414
4 412 427 414 415
4 4026 4006 4029 3994
4 2746 2728 2748 2758
4 219 221 232 218
4 2142 2137 2115 2151
4 2410 2388 2401 2405
4 3632 3655 3621 3639
4 3621 3632 3639 3607
4 3621 3632 3607 3587
4 3639 3621 3607 3610
4 3655 3621 3639 3642
4 3632 3639 3607 3634
4 3401 3390 3415 3404
4 2562 2556 2572 2579
4 3253 3231 3224 3267
4 752 767 759 755
4 2310 2312 2290 2301
4 2312 2290 2301 2302
4 2290 2301 2302 2273
4 1330 1329 1335 1322
4 1335 1330 1322 1336
4 3499 3497 3484 3468
4 3499 3497 3468 3520
4 748 754 741 751
4 1896 1875 1877 1895
4 437 431 421 438
4 3666 3703 3675 3694
4 3940 3935 3972 3960
4 624 614 617 616
4 895 911 904 900
4 904 895 900 889
4 911 904 900 916
4 904 900 916 908
4 2491 2512 2494 2496
4 2512 2494 2496 2513
4 2494 2496 2513 2466
4 905 918 917 912
4 3630 3621 3655 3642
4 449 461 456 460
4 2879 2891 2885 2859
4 1238 1223 1237 1239
4 1530 1525 1548 1537
4 1687 1686 1672 1681
4 616 619 600 617
4 93 91 70 101
4 112 110 93 114
4 2662 2669 2671 2632
4 1087 1102 1092 1089
4 1089 1098 1095 1102
4 1016 1028 1019 1034
4 2516 2528 2517 2497
4 2517 2516 2497 2484
4 2615 2622 2632 2641
4 2622 2632 2641 2639
4 1591 1593 1576 1606
4 358 365 350 364
4 3072 3076 3066 3088
4 3012 3031 3022 3048
4 1042 1035 1033 1036
4 966 954 967 950
4 3953 3908 3931 3934
4 2795 2804 2783 2775
4 1450 1436 1431 1453
4 1450 1436 1453 1460
4 1436 1431 1453 1434
4 1431 1450 1453 1447
4 1453 1431 1447 1434
4 1431 1447 1434 1421
4 1431 1447 1421 1432
4 1434 1431 1421 1419
4 1436 1431 1434 1419
4 1453 1436 1434 1448
4 1453 1436 1448 1460
4 1472 1478 1459 1467
4 1472 1478 1467 1466
4 1472 1478 1466 1480
4 1472 1478 1480 1493
4 1472 1478 1493 1491
4 1478 1493 1491 1498
4 1827 1800 1830 1815
4 1830 1827 1815 1859
4 3586 3556 3593 3579
4 3556 3593 3579 3580
4 3593 3586 3579 3614
4 3579 3593 3614 3610
4 3593 3614 3610 3600
4 3610 3593 3600 3580
4 3610 3593 3580 3579
4 1877 1886 1910 1859
4 4205 4211 4242 4197
4 4205 4211 4197 4176
4 4211 4242 4197 4223
4 4197 4211 4223 4195
4 4197 4211 4195 4176
4 518 499 511 512
4 511 518 512 542
4 3097 3098 3125 3108
4 3098 3125 3108 3127
4 3125 3097 3108 3129
4 3108 3125 3129 3148
4 1623 1606 1627 1631
4 1627 1623 1631 1640
4 2145 2154 2173 2178
4 3656 3636 3667 3661
4 2783 2795 2775 2762
4 1175 1178 1192 1167
4 594 592 605 579
4 1686 1696 1694 1673
4 1044 1051 1049 1057
4 1580 1561 1578 1576
4 1478 1481 1498 1491
4 3697 3666 3662 3681
4 2386 2385 2364 2372
4 2385 2364 2372 2356
4 1430 1419 1418 1431
4 3560 3544 3527 3548
4 3527 3560 3548 3568
4 2984 2996 3019 3029
4 1178 1175 1172 1167
4 3762 3792 3805 3785
4 3906 3937 3907 3936
4 1620 1635 1630 1639
4 2123 2124 2151 2115
4 3326 3312 3345 3331
4 3345 3326 3331 3335
4 3345 3326 3335 3334
4 3331 3345 3335 3348
4 3345 3326 3334 3341
4 2613 2593 2598 2596
4 2949 2924 2939 2947
4 3985 4002 3957 3944
4 2601 2597 2576 2590
4 2597 2576 2590 2574
4 2576 2601 2590 2583
4 3045 3019 3029 3025
4 3019 3029 3025 2984
4 3045 3019 3025 3005
4 3019 3025 3005 2984
4 4065 4094 4104 4092
4 4065 4094 4092 4058
4 4104 4065 4092 4082
4 4094 4092 4058 4126
4 3559 3571 3595 3606
4 2500 2509 2471 2481
4 1221 1213 1222 1230
4 1221 1213 1230 1223
4 1591 1576 1578 1582
4 1591 1576 1582 1597
4 1582 1591 1597 1578
4 1591 1597 1578 1601
4 1591 1597 1601 1606
4 1576 1578 1582 1566
4 1582 1576 1566 1585
4 1576 1582 1597 1585
4 1597 1601 1606 1618
4 1597 1601 1618 1603
4 1597 1601 1603 1589
4 1601 1603 1589 1605
4 1601 1603 1605 1619
4 1591 1576 1597 1606
4 1597 1582 1578 1589
4 3792 3797 3781 3813
4 3792 3797 3813 3798
4 3813 3792 3798 3785
4 852 855 850 866
4 2016 2017 2024 2000
4 2024 2016 2000 2045
4 3289 3325 3298 3306
4 4184 4166 4170 4212
4 4184 4166 4212 4186
4 3723 3693 3730 3689
4 365 376 361 364
4 807 815 803 817
4 815 803 817 808
4 1580 1593 1583 1576
4 3897 3880 3868 3848
4 951 952 942 936
4 1774 1780 1750 1761
4 1774 1780 1761 1784
4 2372 2369 2364 2386
4 840 826 834 833
4 4056 4072 4048 4029
4 3695 3697 3681 3723
4 3404 3428 3422 3438
4 3428 3422 3438 3470
4 1181 1180 1199 1200
4 2305 2300 2285 2284
4 2711 2701 2682 2689
4 2711 2701 2689 2700
4 2701 2689 2700 2671
4 2711 2701 2700 2730
4 2701 2682 2689 2671
4 2689 2711 2700 2714
4 2689 2700 2671 2688
4 733 719 712 731
4 2852 2863 2846 2836
4 2852 2863 2836 2853
4 2326 2311 2329 2356
4 1455 1448 1467 1472
4 1800 1792 1777 1791
4 1792 1777 1791 1783
4 1792 1777 1783 1780
4 1783 1792 1780 1799
4 1783 1792 1799 1791
4 1792 1780 1799 1817
4 1780 1783 1799 1790
4 1783 1799 1790 1794
4 1792 1799 1791 1800
4 1799 1783 1791 1794
4 2310 2324 2313 2333
4 2310 2324 2333 2334
4 2324 2333 2334 2355
4 1817 1811 1823 1801
4 4033 4008 4011 4036
4 805 812 821 813
4 4219 4207 4234 4197
4 4219 4207 4197 4179
4 1713 1696 1702 1725
4 1233 1230 1222 1219
4 3800 3775 3752 3753
4 3972 3942 3966 3994
4 2037 2024 2018 2057
4 1310 1324 1305 1316
4 2756 2787 2778 2782
4 2742 2759 2741 2737
4 2759 2741 2737 2760
4 3713 3697 3728 3703
4 3697 3728 3703 3694
4 3728 3713 3703 3720
4 3703 3728 3720 3727
4 1710 1727 1725 1739
4 3816 3845 3814 3823
4 3816 3845 3823 3835
4 2382 2374 2361 2389
4 3880 3907 3868 3874
4 4086 4072 4118 4124
4 1505 1500 1518 1497
4 1505 1500 1497 1493
4 1892 1879 1856 1852
4 792 803 797 801
4 792 803 801 793
4 1180 1179 1200 1181
4 1180 1179 1181 1171
4 4177 4161 4176 4197
4 4177 4161 4197 4179
4 3423 3396 3430 3384
4 3690 3699 3654 3667
4 2050 2058 2026 2027
4 4273 4295 4274 4260
4 3031 3026 3055 3048
4 3644 3652 3678 3693
4 3148 3174 3146 3162
4 2344 2343 2323 2351
4 661 676 673 668
4 3424 3459 3467 3462
4 3459 3467 3462 3504
4 3424 3459 3462 3504
4 4112 4122 4078 4092
4 2310 2279 2284 2313
4 2984 2990 2966 3005
4 3441 3468 3445 3474
4 478 473 485 470
4 4197 4205 4234 4242
4 1360 1365 1370 1350
4 2509 2505 2531 2519
4 2509 2505 2519 2506
4 2509 2505 2506 2473
4 2505 2519 2506 2485
4 2509 2505 2473 2491
4 2505 2519 2485 2514
4 2505 2519 2514 2534
4 2506 2505 2485 2473
4 2505 2485 2473 2491
4 2485 2473 2491 2476
4 2485 2473 2476 2432
4 4167 4180 4208 4199
4 2217 2233 2236 2234
4 2233 2236 2234 2258
4 790 784 798 794
4 2065 2072 2087 2084
4 2655 2663 2679 2675
4 2382 2369 2391 2381
4 3917 3897 3902 3885
4 1230 1239 1224 1223
4 1550 1552 1547 1560
4 2438 2430 2451 2432
4 1894 1903 1896 1930
4 2012 1987 1995 2021
4 3984 3980 3956 4004
4 3984 3980 4004 4015
4 1444 1451 1459 1464
4 823 828 839 834
4 1119 1110 1106 1122
4 1110 1106 1122 1109
4 1110 1106 1109 1090
4 1122 1110 1109 1128
4 1119 1110 1122 1130
4 4015 4027 3986 3980
4 2077 2068 2057 2098
4 1881 1884 1904 1899
4 1647 1642 1666 1654
4 1666 1647 1654 1655
4 3049 3050 3073 3056
4 3050 3073 3056 3084
4 3073 3049 3056 3072
4 4125 4129 4094 4136
4 4094 4125 4136 4086
4 2528 2506 2519 2497
4 1006 1003 988 993
4 1006 1003 993 1002
4 1003 993 1002 995
4 1006 1003 1002 1018
4 4236 4244 4208 4217
4 4236 4244 4217 4250
4 4208 4236 4217 4199
4 4236 4217 4199 4250
4 2266 2237 2244 2250
4 2266 2237 2250 2256
4 2244 2266 2250 2248
4 2250 2244 2248 2223
4 2237 2244 2250 2223
4 2266 2250 2248 2269
4 2250 2248 2269 2263
4 2269 2250 2263 2266
4 2250 2248 2263 2238
4 2263 2250 2238 2236
4 2250 2248 2238 2223
4 2248 2269 2263 2267
4 2250 2238 2236 2223
4 2458 2481 2468 2466
4 4077 4067 4044 4091
4 4077 4067 4091 4115
4 1530 1527 1537 1547
4 2657 2669 2633 2649
4 2633 2657 2649 2650
4 2657 2649 2650 2666
4 2657 2649 2666 2669
4 2650 2657 2666 2678
4 2657 2666 2678 2669
4 2649 2650 2666 2636
4 2666 2650 2678 2668
4 2941 2940 2918 2927
4 2940 2918 2927 2925
4 4129 4139 4171 4166
4 378 364 374 376
4 374 378 376 387
4 376 374 387 395
4 2110 2124 2140 2126
4 1924 1942 1933 1931
4 634 652 651 659
4 3905 3938 3881 3911
4 3905 3938 3911 3947
4 3881 3905 3911 3873
4 3881 3905 3873 3859
4 3382 3344 3372 3358
4 3975 3953 3931 3949
4 3975 3953 3949 4003
4 3953 3931 3949 3934
4 1605 1594 1595 1589
4 2808 2836 2819 2839
4 2836 2819 2839 2846
4 1401 1411 1396 1410
4 2788 2783 2759 2762
4 2783 2759 2762 2760
4 3327 3325 3289 3331
4 1840 1852 1827 1859
4 4195 4208 4235 4244
4 3194 3174 3165 3180
4 3194 3174 3180 3182
4 3174 3180 3182 3148
4 3180 3182 3148 3161
4 3165 3194 3180 3196
4 3174 3165 3180 3148
4 3165 3194 3196 3188
4 3180 3165 3196 3160
4 3180 3194 3182 3201
4 3182 3180 3201 3161
4 3180 3194 3201 3196
4 3201 3180 3196 3164
4 3194 3201 3196 3213
4 3196 3194 3213 3188
4 3165 3180 3148 3160
4 3399 3381 3383 3393
4 3381 3383 3393 3361
4 4008 3995 3966 3972
4 4008 3995 3972 4021
4 365 379 376 378
4 3891 3902 3905 3873
4 3902 3905 3873 3911
4 3891 3902 3873 3848
4 3902 3905 3911 3947
4 2182 2177 2161 2172
4 2161 2182 2172 2162
4 2177 2161 2172 2163
4 2182 2177 2172 2202
4 2161 2182 2162 2156
4 2182 2172 2162 2188
4 2182 2172 2188 2202
4 2172 2161 2162 2151
4 2172 2161 2151 2163
4 2172 2162 2188 2180
4 2161 2162 2151 2142
4 2161 2162 2142 2156
4 2162 2142 2156 2129
4 1864 1855 1881 1894
4 3565 3580 3538 3549
4 3565 3580 3549 3587
4 3538 3565 3549 3547
4 3565 3549 3547 3587
4 3153 3181 3164 3161
4 2763 2756 2778 2749
4 3083 3093 3114 3101
4 3083 3093 3101 3089
4 3093 3101 3089 3131
4 3093 3114 3101 3131
4 3114 3101 3131 3103
4 3101 3083 3089 3068
4 3093 3114 3131 3120
4 3101 3083 3068 3065
4 3089 3101 3068 3078
4 3966 3942 3971 3994
4 1493 1486 1495 1500
4 1493 1486 1500 1497
4 713 725 716 711
4 713 725 711 728
4 725 711 728 731
4 2410 2429 2434 2432
4 1824 1816 1839 1837
4 3748 3734 3777 3797
4 1801 1785 1792 1780
4 3253 3240 3246 3224
4 3064 3029 3030 3056
4 3734 3748 3706 3711
4 1721 1719 1736 1704
4 1721 1719 1704 1698
4 1247 1256 1241 1233
4 1241 1247 1233 1230
4 1233 1241 1230 1219
4 1247 1233 1230 1246
4 1233 1241 1219 1228
4 3074 3045 3064 3068
4 3074 3045 3068 3083
4 1907 1896 1903 1930
4 2669 2662 2641 2632
4 236 239 235 247
4 235 236 247 242
4 235 236 242 232
4 790 775 784 785
4 1837 1842 1826 1854
4 2633 2641 2615 2632
4 2615 2633 2632 2617
4 2633 2641 2632 2669
4 3107 3088 3130 3108
4 3107 3088 3108 3086
4 3130 3107 3108 3124
4 3088 3108 3086 3072
4 2514 2491 2495 2485
4 3579 3557 3536 3578
4 3579 3557 3578 3606
4 3557 3536 3578 3553
4 3536 3578 3553 3549
4 3578 3557 3553 3606
4 3758 3765 3730 3734
4 3122 3130 3094 3088
4 3890 3881 3923 3882
4 3890 3881 3882 3852
4 3881 3882 3852 3876
4 3881 3882 3876 3911
4 3473 3460 3501 3479
4 3473 3460 3479 3444
4 3460 3479 3444 3478
4 3473 3460 3444 3446
4 3501 3473 3479 3508
4 3479 3473 3444 3471
4 3479 3473 3471 3508
4 1945 1930 1931 1957
4 4129 4123 4122 4167
4 1957 1960 1987 1961
4 1175 1182 1168 1184
4 1168 1175 1184 1177
4 1175 1182 1184 1192
4 1182 1184 1192 1201
4 1184 1175 1192 1177
4 1168 1175 1177 1167
4 1435 1416 1426 1428
4 1416 1426 1428 1411
4 1416 1426 1411 1396
4 2208 2219 2228 2211
4 262 266 260 270
4 260 262 270 268
4 2509 2506 2471 2473
4 2506 2471 2473 2469
4 2471 2473 2469 2442
4 2471 2509 2473 2481
4 2473 2471 2481 2468
4 2481 2473 2468 2491
4 2473 2468 2491 2476
4 1721 1729 1719 1711
4 2995 3023 3022 3024
4 2311 2320 2304 2300
4 2320 2304 2300 2323
4 2304 2300 2323 2313
4 3139 3153 3164 3124
4 1322 1317 1300 1306
4 1317 1300 1306 1296
4 1322 1317 1306 1319
4 1317 1306 1319 1296
4 1322 1317 1319 1336
4 1306 1319 1296 1307
4 4091 4119 4093 4134
4 2287 2285 2266 2282
4 2266 2287 2282 2269
4 2282 2266 2269 2263
4 2269 2282 2263 2279
4 2269 2282 2279 2301
4 2287 2282 2269 2301
4 2263 2269 2279 2301
4 2282 2263 2279 2266
4 2287 2285 2282 2305
4 2285 2266 2282 2279
4 2037 2056 2057 2064
4 2513 2509 2512 2531
4 2513 2509 2531 2530
4 2512 2513 2531 2529
4 2513 2531 2529 2555
4 2509 2531 2530 2519
4 2531 2513 2530 2551
4 2530 2531 2551 2560
4 2249 2252 2263 2238
4 2252 2263 2238 2236
4 2963 2965 2937 2949
4 2963 2965 2949 2984
4 2965 2937 2949 2947
4 3182 3192 3200 3211
4 3182 3192 3211 3201
4 978 989 983 986
4 405 389 400 401
4 400 405 401 412
4 401 400 412 415
4 4075 4091 4044 4068
4 4075 4091 4068 4109
4 759 767 773 764
4 600 595 616 614
4 750 764 759 758
4 2976 2961 3002 2962
4 1857 1878 1868 1881
4 3513 3496 3504 3542
4 1050 1039 1034 1054
4 1050 1039 1054 1048
4 1376 1367 1371 1361
4 2890 2892 2915 2902
4 2892 2915 2902 2913
4 2915 2890 2902 2918
4 2892 2915 2913 2899
4 2913 2892 2899 2880
4 2915 2902 2913 2939
4 2403 2421 2409 2397
4 2013 1988 2023 1984
4 2013 1988 1984 1997
4 1984 2013 1997 2014
4 1997 1984 2014 1967
4 262 256 269 268
4 256 269 268 259
4 269 262 268 273
4 268 269 273 281
4 268 269 281 277
4 3141 3153 3120 3130
4 3237 3269 3246 3253
4 3538 3532 3508 3549
4 1087 1072 1078 1092
4 1078 1087 1092 1089
4 284 288 298 289
4 1296 1286 1290 1306
4 1296 1286 1306 1307
4 1286 1290 1306 1291
4 1286 1290 1291 1280
4 1788 1774 1796 1784
4 176 175 154 169
4 922 918 912 931
4 2391 2372 2397 2385
4 1399 1408 1405 1419
4 3342 3338 3348 3327
4 3348 3342 3327 3353
4 3327 3348 3353 3331
4 3353 3327 3331 3325
4 3327 3348 3331 3311
4 3331 3327 3311 3289
4 3348 3353 3331 3345
4 3327 3348 3311 3338
4 273 285 284 281
4 1784 1764 1780 1761
4 2305 2323 2300 2313
4 4111 4122 4143 4102
4 4111 4122 4102 4066
4 4122 4102 4066 4081
4 1019 1021 1001 1015
4 1019 1021 1015 1039
4 2477 2498 2484 2497
4 2484 2477 2497 2467
4 2477 2498 2497 2469
4 2484 2477 2467 2453
4 2497 2484 2467 2493
4 2467 2484 2453 2470
4 2497 2484 2493 2517
4 4000 3994 4026 4033
4 944 942 941 931
4 1675 1681 1698 1679
4 1675 1681 1679 1666
4 1681 1698 1679 1682
4 812 826 821 818
4 896 888 895 894
4 3986 4017 3989 4027
4 3383 3353 3361 3381
4 3130 3129 3162 3148
4 742 737 750 747
4 3321 3293 3323 3322
4 2430 2403 2405 2416
4 2430 2403 2416 2421
4 2405 2430 2416 2432
4 2403 2416 2421 2397
4 2416 2430 2421 2423
4 2421 2416 2423 2417
4 2416 2423 2417 2391
4 2416 2423 2391 2401
4 3598 3610 3607 3621
4 3607 3598 3621 3587
4 3316 3292 3311 3289
4 713 700 711 703
4 2128 2111 2126 2123
4 2111 2126 2123 2101
4 1745 1759 1764 1739
4 4092 4061 4058 4081
4 3211 3215 3185 3205
4 3185 3211 3205 3201
4 3205 3185 3201 3161
4 1987 1993 1975 1957
4 1336 1346 1360 1354
4 2171 2178 2154 2144
4 1839 1840 1827 1830
4 1840 1827 1830 1859
4 235 227 228 224
4 3199 3211 3182 3200
4 3098 3073 3099 3086
4 1451 1448 1459 1467
4 3763 3750 3780 3735
4 3560 3575 3548 3588
4 2223 2221 2202 2222
4 3597 3606 3571 3557
4 1892 1869 1886 1872
4 3205 3207 3181 3164
4 364 349 360 350
4 3211 3217 3216 3200
4 1417 1410 1401 1399
4 3942 3972 3954 3994
4 1854 1864 1882 1894
4 3723 3724 3697 3735
4 2065 2060 2084 2068
4 2060 2084 2068 2058
4 2068 2060 2058 2045
4 2060 2058 2045 2021
4 2058 2068 2045 2056
4 2065 2060 2068 2057
4 2068 2060 2045 2057
4 2045 2058 2056 2055
4 2045 2068 2057 2056
4 2084 2068 2058 2083
4 2084 2068 2083 2095
4 2068 2058 2083 2075
4 2083 2068 2075 2095
4 3864 3822 3843 3844
4 1624 1618 1601 1630
4 1624 1618 1630 1640
4 1618 1601 1630 1619
4 1630 1618 1619 1620
4 1428 1444 1426 1435
4 4033 4026 4069 4048
4 4069 4033 4048 4058
4 2806 2803 2788 2808
4 3593 3556 3574 3580
4 314 304 299 312
4 505 501 504 518
4 2538 2528 2556 2539
4 2538 2528 2539 2497
4 4267 4252 4234 4242
4 1780 1788 1790 1799
4 3902 3935 3944 3947
4 4134 4102 4126 4093
4 2228 2235 2211 2219
4 3333 3321 3350 3352
4 1635 1655 1647 1639
4 731 716 725 711
4 3900 3937 3942 3907
4 3937 3942 3907 3936
4 3334 3303 3313 3279
4 3728 3746 3720 3759
4 754 741 751 762
4 751 754 762 766
4 2151 2145 2129 2162
4 1571 1578 1556 1552
4 1962 1945 1957 1975
4 1957 1962 1975 1987
4 2096 2108 2110 2125
4 1127 1126 1135 1145
4 871 864 862 879
4 682 676 693 689
4 3745 3761 3793 3734
4 3745 3761 3734 3715
4 2560 2534 2537 2519
4 1837 1844 1865 1857
4 2976 3000 2963 2984
4 2976 3000 2984 2998
4 3848 3856 3891 3885
4 1149 1148 1167 1161
4 775 763 769 772
4 769 775 772 784
4 763 769 772 767
4 775 763 772 771
4 772 769 784 773
4 775 772 784 785
4 769 772 767 773
4 772 775 771 785
4 2626 2647 2631 2628
4 3640 3626 3644 3606
4 2231 2252 2238 2236
4 3462 3488 3504 3467
4 1388 1402 1399 1387
4 1299 1292 1293 1285
4 1299 1292 1285 1281
4 3580 3598 3607 3587
4 3306 3278 3292 3311
4 3292 3306 3311 3289
4 1518 1533 1521 1495
4 443 447 438 446
4 260 247 248 254
4 2815 2806 2792 2786
4 3894 3906 3936 3939
4 3906 3936 3939 3937
4 3031 3022 3048 3056
4 1160 1168 1150 1149
4 1928 1931 1904 1899
4 863 855 866 867
4 2662 2671 2639 2632
4 2996 2984 2963 3000
4 2996 2984 3000 3029
4 485 499 486 511
4 1606 1618 1627 1616
4 821 826 835 827
4 4219 4209 4179 4187
4 4219 4209 4187 4221
4 4209 4187 4221 4174
4 4209 4187 4174 4179
4 4187 4221 4174 4198
4 4187 4174 4179 4162
4 4179 4187 4162 4197
4 1696 1681 1673 1686
4 1696 1681 1686 1687
4 612 603 595 602
4 1383 1378 1401 1391
4 3415 3429 3441 3401
4 2790 2791 2801 2820
4 2284 2304 2310 2313
4 2742 2741 2719 2737
4 2741 2719 2737 2718
4 2512 2494 2513 2529
4 1902 1894 1892 1918
4 3765 3797 3774 3734
4 3765 3797 3734 3748
4 3734 3765 3748 3758
4 4008 3994 4011 3972
4 4241 4227 4240 4260
4 4241 4227 4260 4250
4 1828 1811 1833 1823
4 2052 2060 2038 2031
4 2038 2052 2031 2028
4 1799 1816 1817 1834
4 2887 2885 2910 2898
4 3493 3470 3471 3515
4 3874 3893 3894 3846
4 4273 4260 4240 4276
4 4240 4273 4276 4256
4 1070 1072 1055 1069
4 2325 2323 2305 2313
4 4112 4145 4123 4147
4 4123 4112 4147 4082
4 4123 4112 4082 4092
4 2869 2854 2836 2842
4 2869 2854 2842 2841
4 2869 2854 2841 2877
4 2842 2869 2841 2859
4 2841 2842 2859 2820
4 1481 1485 1464 1503
4 1003 1010 1002 1018
4 993 986 1002 995
4 659 673 668 661
4 2715 2710 2737 2718
4 1630 1622 1638 1619
4 1630 1622 1619 1601
4 1417 1416 1435 1428
4 3907 3897 3868 3912
4 4266 4268 4296 4286
4 2928 2937 2947 2910
4 804 798 813 805
4 343 345 332 331
4 1892 1901 1900 1917
4 3064 3089 3078 3086
4 4082 4050 4061 4021
4 2836 2823 2819 2846
4 1346 1362 1360 1371
4 1666 1668 1673 1686
4 3762 3765 3754 3730
4 3754 3762 3730 3723
4 4041 4027 4044 4067
4 4041 4027 4067 4030
4 3072 3073 3098 3086
4 3129 3123 3145 3126
4 3129 3123 3126 3100
4 3123 3145 3126 3100
4 2116 2123 2129 2098
4 739 751 741 749
4 3153 3141 3161 3130
4 2844 2865 2845 2875
4 2844 2865 2875 2859
4 3224 3212 3235 3229
4 3030 3029 3024 3056
4 2890 2893 2873 2877
4 1343 1339 1335 1329
4 2051 2060 2031 2021
4 289 279 285 284
4 1823 1838 1833 1837
4 1777 1773 1793 1791
4 3742 3723 3743 3762
4 1213 1203 1202 1217
4 1213 1203 1217 1230
4 3883 3864 3843 3857
4 3883 3864 3857 3908
4 3864 3843 3857 3844
4 3857 3864 3844 3884
4 4033 4065 4025 4021
4 2094 2075 2083 2067
4 3236 3235 3229 3249
4 3229 3236 3249 3222
4 2151 2146 2163 2161
4 2764 2759 2742 2762
4 3536 3556 3579 3578
4 3327 3316 3338 3311
4 3327 3316 3311 3289
4 4195 4206 4176 4211
4 4195 4206 4211 4245
4 3212 3194 3213 3201
4 577 584 563 568
4 584 563 568 579
4 1548 1536 1553 1556
4 2663 2666 2679 2692
4 350 365 361 364
4 1290 1285 1299 1293
4 1290 1285 1293 1280
4 1293 1290 1280 1291
4 4142 4161 4110 4134
4 4142 4161 4134 4176
4 3390 3401 3369 3380
4 3892 3895 3847 3882
4 3892 3895 3882 3928
4 3892 3895 3928 3941
4 3882 3892 3928 3929
4 3892 3928 3929 3941
4 3928 3929 3941 3948
4 3928 3929 3948 3882
4 3941 3928 3948 3950
4 3334 3321 3323 3350
4 951 947 958 943
4 812 817 826 818
4 2632 2607 2617 2613
4 2410 2434 2405 2432
4 3401 3392 3369 3378
4 1060 1044 1050 1057
4 1060 1054 1069 1050
4 3423 3438 3399 3384
4 904 911 912 916
4 2711 2728 2725 2715
4 3987 3960 3959 3972
4 3527 3509 3520 3568
4 1010 1005 995 1002
4 804 790 798 799
4 2354 2369 2355 2333
4 2927 2946 2961 2940
4 531 532 519 543
4 1750 1739 1744 1764
4 1142 1149 1160 1150
4 3703 3675 3694 3727
4 1733 1713 1723 1725
4 793 789 792 777
4 2995 3022 2997 3002
4 2023 2021 2031 2060
4 1758 1737 1732 1763
4 2266 2259 2237 2256
4 1529 1527 1547 1539
4 3666 3653 3640 3633
4 548 564 549 573
4 3182 3172 3171 3200
4 3172 3171 3200 3145
4 4134 4143 4176 4167
4 389 378 386 387
4 4110 4091 4109 4134
4 3597 3614 3606 3579
4 3527 3548 3509 3568
4 2680 2679 2661 2666
4 1930 1926 1903 1907
4 4235 4245 4206 4195
4 1984 1964 1956 1966
4 1984 1964 1966 1997
4 1966 1984 1997 1967
4 1956 1984 1966 1967
4 1964 1956 1966 1935
4 1224 1208 1213 1223
4 1335 1339 1325 1329
4 3428 3404 3383 3438
4 2410 2401 2429 2432
4 3798 3823 3785 3814
4 3798 3823 3814 3833
4 3814 3798 3833 3774
4 3785 3798 3814 3780
4 3823 3814 3833 3845
4 563 568 561 577
4 3659 3699 3689 3667
4 3659 3699 3667 3654
4 3689 3659 3667 3642
4 3659 3667 3642 3654
4 1739 1733 1725 1713
4 242 247 254 248
4 242 247 248 236
4 3711 3730 3706 3734
4 1750 1733 1761 1744
4 3785 3747 3742 3762
4 1221 1224 1223 1230
4 247 250 248 239
4 1033 1020 1024 1018
4 1020 1024 1018 1006
4 1033 1020 1018 1028
4 1020 1018 1028 1019
4 1070 1063 1067 1060
4 2347 2337 2367 2350
4 2347 2337 2350 2325
4 2367 2347 2350 2381
4 3409 3444 3430 3433
4 1420 1408 1419 1421
4 1811 1817 1788 1801
4 2794 2787 2801 2782
4 918 928 917 931
4 826 840 835 833
4 401 396 400 415
4 3873 3859 3835 3845
4 3873 3859 3845 3881
4 3845 3873 3881 3876
4 851 856 862 846
4 3212 3224 3192 3201
4 3306 3317 3343 3325
4 3205 3195 3168 3181
4 2386 2403 2385 2391
4 369 382 375 383
4 3819 3837 3847 3852
4 1273 1277 1256 1266
4 3425 3438 3428 3383
4 1603 1597 1620 1618
4 1816 1824 1801 1817
4 1816 1824 1817 1837
4 518 531 519 512
4 2593 2607 2598 2572
4 2157 2145 2173 2181
4 1248 1253 1265 1266
4 1253 1265 1266 1268
4 1266 1253 1268 1246
4 3049 3048 3022 3056
4 2804 2819 2823 2846
4 2223 2202 2205 2188
4 3944 3960 3985 4001
4 963 964 972 969
4 963 964 969 960
4 972 963 969 967
4 969 963 960 952
4 969 963 952 967
4 421 411 410 417
4 1615 1622 1638 1595
4 2573 2588 2572 2590
4 904 912 906 921
4 349 337 347 338
4 2320 2333 2314 2304
4 1744 1764 1761 1750
4 3596 3589 3626 3640
4 2458 2460 2440 2442
4 1279 1281 1269 1285
4 1805 1799 1826 1834
4 1865 1855 1837 1857
4 2853 2825 2824 2842
4 2824 2853 2842 2851
4 2853 2842 2851 2869
4 2853 2842 2869 2836
4 1552 1537 1547 1548
4 3586 3593 3600 3614
4 485 468 472 479
4 468 472 479 456
4 472 485 479 511
4 1975 1964 1945 1956
4 2449 2435 2458 2466
4 1780 1769 1750 1759
4 3636 3642 3667 3641
4 3636 3642 3641 3614
4 3642 3667 3641 3654
4 3667 3636 3641 3661
4 3636 3641 3661 3586
4 3642 3641 3614 3654
4 3641 3636 3614 3586
4 2644 2633 2626 2631
4 2018 2024 2000 2014
4 2388 2386 2368 2381
4 2368 2388 2381 2367
4 2386 2368 2381 2364
4 2388 2386 2381 2405
4 3326 3313 3286 3279
4 2841 2822 2842 2820
4 766 777 768 774
4 766 777 774 776
4 4125 4104 4084 4069
4 2423 2442 2432 2438
4 4078 4066 4046 4061
4 2086 2096 2110 2083
4 2086 2096 2083 2067
4 1580 1560 1576 1583
4 3278 3251 3267 3279
4 1837 1855 1854 1852
4 1855 1854 1852 1894
4 1837 1855 1852 1838
4 864 857 862 879
4 616 612 614 595
4 2574 2597 2594 2573
4 2594 2574 2573 2577
4 3765 3758 3781 3748
4 254 260 268 262
4 1402 1401 1399 1417
4 3217 3224 3216 3246
4 1561 1548 1553 1556
4 3610 3580 3607 3578
4 3610 3580 3578 3579
4 2581 2572 2604 2607
4 2128 2117 2116 2149
4 3813 3833 3798 3797
4 2285 2300 2283 2284
4 1354 1365 1360 1350
4 3606 3589 3559 3553
4 586 594 603 605
4 852 840 834 833
4 3711 3690 3740 3710
4 3740 3711 3710 3748
4 805 821 814 813
4 3528 3545 3536 3532
4 3536 3528 3532 3504
4 3528 3545 3532 3504
4 3545 3536 3532 3574
4 2831 2832 2805 2838
4 2831 2832 2838 2867
4 2222 2219 2200 2202
4 4227 4222 4199 4250
4 2776 2790 2801 2786
4 2764 2742 2745 2752
4 2764 2742 2752 2758
4 2745 2764 2752 2774
4 2231 2219 2238 2235
4 3256 3268 3249 3296
4 248 246 256 254
4 246 256 254 259
4 256 254 259 268
4 256 254 268 262
4 256 254 262 248
4 1367 1355 1371 1361
4 1737 1719 1732 1740
4 3785 3816 3814 3823
4 725 739 741 736
4 1844 1837 1833 1857
4 2058 2051 2026 2021
4 4274 4295 4294 4290
4 4274 4295 4290 4260
4 4290 4274 4260 4250
4 2344 2323 2325 2331
4 2344 2323 2331 2351
4 2323 2325 2331 2313
4 2325 2344 2331 2347
4 3935 3917 3944 3960
4 4122 4111 4078 4066
4 2196 2180 2188 2203
4 799 812 805 804
4 2843 2859 2844 2820
4 1642 1630 1638 1654
4 4112 4078 4082 4092
4 3207 3205 3232 3201
4 798 784 791 794
4 2451 2430 2434 2432
4 3344 3332 3372 3328
4 3344 3332 3328 3310
4 251 239 250 244
4 884 888 879 894
4 1654 1635 1647 1630
4 1635 1647 1630 1639
4 1654 1635 1630 1638
4 1904 1884 1898 1899
4 1884 1898 1899 1868
4 529 523 508 513
4 1408 1417 1419 1399
4 889 879 894 884
4 2237 2234 2221 2236
4 2234 2221 2236 2217
4 1505 1498 1503 1491
4 1505 1498 1491 1493
4 2140 2125 2113 2110
4 2397 2417 2391 2416
4 2890 2918 2893 2903
4 1347 1355 1361 1371
4 4147 4123 4171 4167
4 304 289 299 298
4 1933 1942 1959 1960
4 3809 3804 3819 3790
4 3804 3819 3790 3820
4 3819 3790 3820 3780
4 3931 3908 3883 3901
4 3931 3908 3901 3934
4 3908 3883 3901 3857
4 3192 3182 3194 3201
4 1383 1401 1396 1391
4 4028 4015 4004 3980
4 4004 4028 3980 3992
4 2788 2759 2764 2762
4 236 232 246 242
4 232 246 242 240
4 246 236 242 248
4 242 246 248 254
4 242 246 254 259
4 246 242 240 259
4 2718 2731 2741 2760
4 2618 2626 2633 2631
4 2618 2626 2631 2628
4 2633 2618 2631 2617
4 1991 1992 2000 1963
4 1324 1325 1329 1316
4 1329 1324 1316 1305
4 2161 2177 2160 2163
4 2177 2160 2163 2174
4 3273 3282 3252 3248
4 3223 3241 3257 3248
4 942 953 941 950
4 2368 2364 2344 2359
4 2364 2344 2359 2351
4 2359 2364 2351 2369
4 2351 2359 2369 2333
4 2344 2368 2359 2347
4 2344 2359 2351 2331
4 2351 2359 2333 2331
4 2333 2351 2331 2323
4 2359 2333 2331 2350
4 2344 2359 2331 2347
4 2331 2333 2323 2304
4 3734 3745 3777 3793
4 3790 3763 3780 3819
4 3790 3763 3819 3809
4 732 718 721 727
4 1142 1135 1149 1150
4 1975 1984 1956 1981
4 2787 2794 2778 2782
4 3251 3262 3232 3248
4 3232 3251 3248 3267
4 3251 3262 3248 3279
4 3292 3285 3311 3284
4 3292 3285 3284 3267
4 3284 3292 3267 3279
4 3311 3292 3284 3279
4 2491 2494 2468 2481
4 3881 3888 3923 3905
4 3881 3888 3905 3859
4 3497 3502 3468 3455
4 1887 1897 1892 1918
4 1887 1897 1918 1919
4 705 711 692 703
4 1931 1943 1945 1957
4 1931 1943 1957 1942
4 2215 2222 2217 2236
4 3693 3659 3689 3681
4 1759 1766 1764 1780
4 3022 3023 3049 3056
4 2123 2151 2129 2115
4 1385 1379 1374 1387
4 1374 1385 1387 1368
4 1387 1374 1368 1352
4 2285 2259 2266 2256
4 1145 1146 1137 1126
4 2509 2496 2512 2491
4 700 684 692 688
4 1999 2032 2018 2019
4 2032 2018 2019 2042
4 2018 1999 2019 1990
4 800 805 814 813
4 3614 3629 3606 3644
4 2698 2679 2680 2687
4 2698 2679 2687 2696
4 2680 2698 2687 2703
4 2680 2698 2703 2704
4 2797 2809 2805 2831
4 360 349 347 350
4 3273 3257 3263 3248
4 2863 2871 2846 2888
4 1647 1640 1630 1618
4 2351 2343 2356 2364
4 2351 2343 2364 2344
4 231 235 242 232
4 242 231 232 240
4 231 235 232 224
4 232 231 224 219
4 232 231 219 218
4 231 232 240 218
4 3280 3289 3306 3292
4 3280 3289 3292 3267
4 1273 1275 1290 1286
4 175 176 186 195
4 2369 2354 2351 2333
4 1183 1199 1192 1202
4 3048 3066 3055 3031
4 3048 3066 3031 3056
4 4032 4002 4036 3992
4 1459 1448 1460 1472
4 1486 1476 1495 1456
4 2641 2662 2639 2632
4 941 950 935 942
4 1698 1691 1675 1679
4 689 704 698 693
4 3438 3469 3470 3471
4 693 706 704 698
4 3942 3935 3907 3954
4 3493 3496 3470 3515
4 784 780 791 786
4 3331 3306 3343 3325
4 2405 2403 2386 2416
4 620 612 627 605
4 3639 3607 3634 3619
4 2179 2178 2163 2172
4 2179 2178 2172 2188
4 2178 2172 2188 2180
4 2172 2179 2188 2202
4 1858 1838 1852 1855
4 1852 1858 1855 1881
4 1855 1852 1881 1894
4 808 815 823 817
4 3306 3331 3311 3289
4 4245 4244 4246 4195
4 130 132 141 152
4 3072 3098 3097 3108
4 2808 2795 2783 2790
4 235 238 239 228
4 942 936 931 944
4 783 789 777 792
4 2202 2221 2198 2200
4 2221 2198 2200 2217
4 2198 2200 2217 2174
4 3207 3198 3189 3223
4 279 275 266 270
4 1178 1180 1198 1199
4 1450 1430 1456 1443
4 1456 1450 1443 1465
4 548 531 542 543
4 542 548 543 573
4 1820 1800 1793 1830
4 3747 3735 3723 3754
4 3822 3775 3800 3801
4 710 712 718 706
4 1668 1654 1658 1638
4 299 289 285 298
4 3200 3192 3216 3211
4 379 393 387 378
4 2177 2202 2198 2179
4 2249 2235 2231 2238
4 255 262 260 248
4 262 260 248 254
4 4131 4115 4162 4119
4 4162 4131 4119 4149
4 4131 4115 4119 4067
4 4162 4131 4149 4187
4 2993 2961 2960 2997
4 846 838 834 839
4 3942 3937 3971 3936
4 3859 3834 3845 3852
4 2528 2538 2517 2497
4 1578 1573 1556 1561
4 2976 2963 2949 2984
4 491 478 485 486
4 3280 3265 3298 3246
4 4027 4028 4067 4037
4 4027 4028 4037 3980
4 331 330 329 343
4 2664 2669 2641 2633
4 1038 1039 1048 1030
4 1038 1039 1030 1021
4 1039 1048 1030 1041
4 2110 2094 2095 2083
4 722 730 712 723
4 722 730 723 740
4 2537 2534 2514 2519
4 2514 2537 2519 2523
4 3438 3425 3399 3384
4 3940 3959 3960 3972
4 3940 3959 3972 3966
4 1078 1069 1090 1072
4 3211 3224 3201 3192
4 741 728 735 739
4 1467 1451 1464 1459
4 4242 4245 4286 4246
4 2995 2998 3023 3024
4 872 863 879 881
4 3432 3455 3412 3407
4 3412 3432 3407 3389
4 2285 2283 2259 2284
4 1902 1904 1931 1899
4 732 740 747 737
4 3841 3838 3846 3874
4 3231 3232 3205 3201
4 4252 4232 4234 4219
4 4252 4232 4219 4221
4 2180 2173 2178 2145
4 3240 3217 3246 3224
4 564 565 549 574
4 1378 1388 1401 1391
4 2745 2742 2724 2752
4 2438 2421 2423 2417
4 1365 1385 1374 1368
4 374 364 360 361
4 360 374 361 372
4 364 360 361 350
4 3237 3235 3261 3267
4 3666 3697 3694 3681
4 1811 1788 1796 1801
4 1033 1043 1036 1024
4 2058 2070 2071 2083
4 2058 2070 2083 2067
4 1399 1391 1410 1401
4 1854 1847 1834 1851
4 1834 1854 1851 1852
4 1720 1713 1739 1725
4 1739 1720 1725 1710
4 1739 1720 1710 1737
4 3075 3076 3100 3088
4 3161 3162 3148 3130
4 1852 1840 1869 1859
4 2851 2832 2867 2860
4 2961 2946 2960 2940
4 905 896 895 894
4 3961 3986 3989 3980
4 3278 3280 3292 3267
4 3292 3278 3267 3279
4 715 706 721 718
4 2434 2430 2405 2432
4 2869 2874 2873 2890
4 2869 2874 2890 2902
4 152 154 163 175
4 152 154 175 169
4 2058 2050 2067 2055
4 944 951 942 936
4 1005 1015 1001 994
4 3972 3935 3954 3947
4 3049 3072 3048 3056
4 2730 2733 2756 2739
4 2730 2733 2739 2714
4 2733 2756 2739 2725
4 2733 2739 2714 2725
4 3935 3897 3907 3912
4 4244 4268 4266 4286
4 3168 3153 3161 3181
4 2237 2221 2223 2236
4 1703 1714 1732 1708
4 1703 1714 1708 1669
4 1714 1732 1708 1735
4 1931 1928 1933 1899
4 2910 2924 2947 2909
4 2910 2924 2909 2885
4 2924 2947 2909 2939
4 1784 1801 1796 1788
4 3430 3471 3422 3433
4 2324 2312 2301 2302
4 3843 3822 3800 3815
4 3843 3822 3815 3844
4 3822 3800 3815 3801
4 3815 3822 3801 3844
4 3801 3815 3844 3825
4 1993 1987 2021 1991
4 2890 2874 2892 2902
4 1703 1687 1682 1698
4 3987 4001 3960 3972
4 1887 1866 1897 1883
4 2895 2891 2919 2924
4 2891 2919 2924 2902
4 1286 1277 1273 1266
4 3944 3963 3947 3992
4 425 421 437 433
4 4297 4295 4273 4291
4 4297 4295 4291 4336
4 4295 4273 4291 4260
4 4273 4291 4260 4276
4 4273 4297 4291 4276
4 4291 4260 4276 4277
4 4297 4291 4276 4322
4 1019 1035 1021 1039
4 3728 3763 3759 3727
4 1119 1135 1130 1122
4 1428 1417 1419 1436
4 1417 1419 1436 1435
4 1757 1740 1759 1763
4 1759 1757 1763 1783
4 1757 1740 1763 1765
4 1759 1757 1783 1769
4 1757 1763 1783 1765
4 414 412 415 401
4 414 412 401 405
4 2622 2632 2639 2608
4 4102 4122 4126 4081
4 4208 4195 4167 4217
4 4094 4129 4092 4126
4 895 904 894 889
4 2776 2801 2782 2786
4 3432 3441 3445 3389
4 2451 2468 2449 2458
4 2468 2449 2458 2466
4 2000 1993 1991 1957
4 3841 3874 3858 3868
4 820 818 833 826
4 3455 3432 3445 3407
4 1713 1694 1723 1702
4 2056 2077 2057 2064
4 3030 3031 3066 3056
4 262 273 270 268
4 3049 3023 3050 3056
4 1020 1003 1006 1018
4 2237 2259 2234 2256
4 1886 1872 1894 1892
4 4102 4134 4091 4093
4 3798 3762 3754 3747
4 578 564 573 574
4 573 578 574 592
4 1944 1961 1942 1957
4 3344 3367 3332 3338
4 3344 3367 3338 3348
4 2179 2163 2174 2177
4 1223 1224 1237 1239
4 2619 2597 2601 2590
4 3509 3497 3520 3455
4 3758 3792 3781 3818
4 110 112 119 130
4 110 112 130 125
4 110 112 125 114
4 3285 3261 3268 3267
4 3589 3592 3582 3640
4 379 387 376 378
4 3730 3699 3706 3689
4 3699 3706 3689 3667
4 3706 3689 3667 3683
4 3699 3706 3667 3690
4 1675 1691 1680 1679
4 1655 1672 1666 1671
4 1655 1672 1671 1669
4 1672 1666 1671 1681
4 1666 1671 1681 1679
4 1671 1681 1679 1682
4 1679 1671 1682 1669
4 1671 1682 1669 1687
4 1671 1682 1687 1681
4 1672 1666 1681 1686
4 1671 1672 1681 1687
4 1671 1672 1687 1669
4 721 737 732 727
4 1442 1430 1418 1456
4 3600 3610 3642 3614
4 3429 3404 3422 3401
4 186 196 195 197
4 195 186 197 176
4 196 195 197 208
4 3905 3902 3944 3947
4 3607 3639 3610 3619
4 3675 3666 3694 3648
4 794 799 805 798
4 3468 3455 3445 3489
4 1379 1381 1370 1392
4 1702 1686 1694 1678
4 1480 1478 1498 1493
4 2802 2817 2820 2822
4 2284 2256 2253 2258
4 2891 2885 2859 2869
4 3384 3371 3396 3382
4 2607 2613 2598 2617
4 2598 2607 2617 2572
4 998 1005 1002 995
4 2927 2919 2918 2939
4 4082 4061 4092 4078
4 3098 3099 3127 3124
4 2205 2202 2182 2188
4 2650 2631 2633 2644
4 1537 1552 1556 1548
4 1450 1456 1460 1472
4 4153 4139 4166 4171
4 1430 1450 1431 1443
4 3530 3536 3553 3515
4 2986 2982 3014 2983
4 2982 3014 2983 3013
4 2986 2982 2983 2956
4 2983 2982 3013 2980
4 2982 2983 2956 2954
4 4067 4027 4037 4042
4 676 661 671 668
4 661 671 668 639
4 671 676 668 693
4 2588 2606 2618 2594
4 1228 1241 1249 1233
4 460 468 470 456
4 468 470 456 479
4 3556 3579 3578 3580
4 361 360 372 348
4 361 360 348 350
4 4250 4274 4294 4290
4 3606 3626 3589 3640
4 785 777 783 775
4 1444 1451 1464 1426
4 4252 4234 4242 4219
4 1655 1639 1664 1647
4 2266 2287 2269 2264
4 2269 2266 2264 2248
4 2264 2269 2248 2267
4 2266 2264 2248 2244
4 2264 2248 2244 2245
4 2264 2248 2245 2260
4 2248 2244 2245 2203
4 2244 2264 2245 2277
4 3675 3666 3648 3633
4 4078 4046 4082 4061
4 4046 4082 4061 4021
4 578 579 574 592
4 578 579 592 585
4 592 578 585 606
4 592 578 606 573
4 2859 2844 2820 2828
4 2844 2820 2828 2818
4 2820 2828 2818 2801
4 2820 2828 2801 2842
4 2828 2844 2818 2838
4 2818 2828 2838 2805
4 2818 2828 2805 2801
4 2859 2844 2828 2860
4 2844 2820 2818 2845
4 2818 2820 2801 2794
4 889 894 906 904
4 3628 3592 3640 3633
4 2259 2283 2258 2284
4 3009 3012 3022 3048
4 3500 3466 3485 3470
4 3500 3466 3470 3515
4 269 256 261 259
4 256 261 259 246
4 261 269 259 277
4 259 261 277 274
4 261 259 246 241
4 261 259 241 258
4 261 259 258 274
4 1413 1419 1402 1418
4 592 605 579 574
4 862 851 846 857
4 911 922 912 916
4 746 755 752 747
4 4211 4195 4245 4246
4 3758 3781 3748 3740
4 3758 3781 3740 3818
4 3748 3758 3740 3734
4 4019 4003 3975 3996
4 4019 4003 3996 4038
4 4003 3975 3996 3949
4 3975 4019 3996 3998
4 3975 3996 3949 3955
4 3838 3810 3846 3808
4 3846 3838 3808 3827
4 3838 3810 3808 3793
4 3944 3935 3960 4001
4 378 382 383 393
4 1745 1759 1739 1737
4 2661 2655 2636 2666
4 2236 2256 2263 2250
4 2256 2263 2250 2266
4 2236 2256 2250 2237
4 2236 2256 2237 2234
4 2236 2256 2234 2258
4 3814 3833 3845 3876
4 3218 3232 3248 3207
4 3148 3165 3160 3140
4 3165 3160 3140 3154
4 3160 3140 3154 3115
4 3444 3479 3471 3433
4 1943 1931 1933 1942
4 840 852 850 844
4 3353 3361 3381 3342
4 445 433 442 434
4 364 374 376 361
4 374 376 361 372
4 374 376 372 395
4 70 69 90 101
4 1865 1844 1868 1857
4 1844 1868 1857 1833
4 3678 3662 3644 3693
4 612 604 606 605
4 604 606 605 592
4 606 605 592 607
4 604 606 592 585
4 606 605 607 637
4 393 406 405 397
4 1997 2013 2028 2014
4 581 589 600 588
4 589 575 595 588
4 285 289 284 298
4 284 285 298 294
4 935 928 931 917
4 1163 1160 1157 1172
4 1466 1472 1480 1489
4 2178 2172 2180 2151
4 2178 2172 2151 2163
4 3731 3685 3707 3709
4 3707 3731 3709 3752
4 2440 2423 2444 2438
4 2440 2423 2438 2458
4 2423 2438 2458 2442
4 345 330 331 343
4 345 330 343 338
4 769 764 780 773
4 1507 1491 1505 1503
4 2669 2682 2671 2689
4 2669 2682 2689 2696
4 2671 2669 2689 2665
4 2669 2682 2696 2678
4 2669 2689 2665 2683
4 2689 2671 2665 2688
4 2696 2669 2678 2687
4 2678 2696 2687 2679
4 2687 2678 2679 2666
4 2687 2678 2666 2669
4 2678 2679 2666 2692
4 2666 2678 2692 2668
4 2679 2687 2666 2680
4 2666 2649 2636 2661
4 2666 2649 2661 2683
4 2649 2636 2661 2637
4 773 759 764 758
4 3006 2998 2967 2991
4 3006 2998 2991 3024
4 2967 3006 2991 2969
4 1051 1060 1063 1057
4 3632 3639 3634 3668
4 986 981 998 985
4 2836 2825 2853 2842
4 3159 3181 3189 3184
4 1203 1211 1201 1217
4 1203 1211 1217 1230
4 1211 1201 1217 1219
4 1217 1211 1219 1230
4 1219 1217 1230 1222
4 1201 1217 1219 1204
4 1217 1230 1222 1213
4 1222 1217 1213 1202
4 1222 1217 1202 1204
4 2572 2588 2604 2615
4 3372 3382 3358 3400
4 2021 2012 2027 1995
4 1593 1606 1583 1576
4 325 338 334 337
4 325 338 337 329
4 338 334 337 347
4 1294 1303 1313 1302
4 1303 1313 1302 1327
4 1302 1303 1327 1320
4 1302 1303 1320 1295
4 1302 1303 1295 1284
4 1302 1303 1284 1294
4 440 455 452 444
4 452 440 444 430
4 455 452 444 472
4 1597 1601 1589 1578
4 2337 2367 2350 2352
4 764 755 759 767
4 2832 2842 2828 2860
4 1050 1060 1057 1069
4 2588 2572 2590 2615
4 1725 1744 1723 1733
4 1744 1723 1733 1761
4 1594 1601 1578 1589
4 2805 2832 2828 2838
4 2832 2828 2838 2860
4 2838 2832 2860 2867
4 4295 4294 4290 4331
4 4295 4294 4331 4354
4 4294 4290 4331 4318
4 4290 4295 4331 4291
4 4290 4295 4291 4260
4 4291 4290 4260 4277
4 4331 4290 4291 4320
4 3026 3009 3055 3048
4 766 756 754 763
4 1739 1750 1759 1764
4 445 460 449 456
4 317 326 325 312
4 326 325 312 319
4 3029 3045 3025 3068
4 3045 3025 3068 3041
4 3068 3045 3041 3083
4 3045 3025 3041 3005
4 3041 3068 3083 3065
4 3025 3041 3005 3027
4 3025 3068 3041 3027
4 3606 3614 3644 3622
4 3606 3614 3622 3578
4 3644 3606 3622 3640
4 2178 2171 2163 2144
4 2162 2182 2188 2186
4 2162 2182 2186 2156
4 2186 2162 2156 2167
4 269 268 259 277
4 1904 1902 1881 1899
4 2477 2497 2467 2469
4 2467 2477 2469 2453
4 2497 2467 2469 2485
4 3089 3101 3078 3124
4 1486 1495 1500 1521
4 3432 3445 3407 3389
4 4303 4263 4269 4283
4 4263 4269 4283 4252
4 4263 4269 4252 4221
4 4269 4283 4252 4301
4 3963 3956 3980 4004
4 3980 3963 4004 3992
4 1839 1838 1837 1852
4 1837 1839 1852 1827
4 735 748 741 745
4 2565 2551 2572 2556
4 2551 2572 2556 2560
4 1780 1783 1759 1777
4 2558 2551 2531 2560
4 2182 2205 2188 2203
4 2205 2188 2203 2223
4 2188 2182 2203 2186
4 2361 2332 2330 2342
4 2332 2330 2342 2302
4 381 375 382 383
4 2700 2689 2714 2688
4 3321 3333 3322 3352
4 3148 3146 3125 3129
4 2018 1999 1990 1992
4 3963 3947 3992 3980
4 4088 4038 4062 4053
4 4088 4038 4053 4063
4 4038 4062 4053 4019
4 4062 4088 4053 4108
4 1777 1763 1791 1783
4 3592 3560 3582 3568
4 706 693 702 698
4 693 702 698 671
4 781 772 785 784
4 781 772 784 773
4 2290 2310 2301 2279
4 1894 1886 1892 1918
4 501 486 478 491
4 2077 2095 2068 2098
4 2077 2095 2098 2092
4 3632 3607 3587 3634
4 4080 4067 4115 4131
4 1721 1719 1698 1711
4 2806 2815 2825 2808
4 3334 3333 3350 3378
4 818 820 817 826
4 3145 3146 3162 3129
4 3146 3162 3129 3148
4 2305 2325 2313 2309
4 4102 4068 4081 4091
4 4102 4068 4091 4109
4 2142 2115 2120 2129
4 4033 4026 4048 3994
4 2391 2397 2416 2403
4 2416 2391 2403 2386
4 3610 3642 3614 3622
4 3610 3642 3622 3639
4 3610 3642 3639 3621
4 320 314 307 319
4 307 320 319 323
4 320 314 319 326
4 320 319 323 334
4 320 319 334 326
4 1887 1892 1886 1918
4 3813 3818 3848 3840
4 3813 3818 3840 3812
4 3848 3813 3840 3833
4 3813 3840 3833 3821
4 3813 3840 3821 3812
4 3840 3821 3812 3858
4 3840 3833 3821 3868
4 3840 3848 3833 3868
4 3840 3821 3858 3868
4 3812 3840 3858 3818
4 3834 3845 3852 3820
4 3845 3852 3820 3876
4 1963 1961 1944 1957
4 3536 3556 3578 3580
4 3620 3605 3583 3585
4 3605 3583 3585 3562
4 1896 1886 1894 1918
4 2924 2919 2939 2902
4 2903 2927 2918 2925
4 3874 3894 3868 3846
4 1658 1678 1668 1638
4 2219 2238 2235 2248
4 1072 1092 1086 1090
4 2177 2172 2202 2179
4 2177 2172 2179 2163
4 2745 2764 2774 2767
4 2774 2745 2767 2734
4 4208 4195 4217 4244
4 2965 2984 2966 2947
4 820 830 834 826
4 197 195 176 184
4 325 334 319 326
4 1852 1869 1892 1872
4 1732 1703 1708 1719
4 1703 1708 1719 1704
4 1788 1780 1784 1801
4 3384 3381 3342 3353
4 2588 2618 2615 2590
4 538 537 554 563
4 3305 3326 3286 3279
4 2355 2369 2382 2342
4 3987 4001 3972 4021
4 345 358 350 349
4 358 350 349 364
4 3150 3131 3139 3116
4 3150 3131 3116 3134
4 2752 2745 2774 2725
4 330 329 343 338
4 3562 3519 3540 3543
4 3540 3562 3543 3583
4 1181 1172 1180 1171
4 4136 4124 4170 4151
4 2484 2467 2493 2470
4 4242 4266 4289 4286
4 4266 4289 4286 4296
4 4289 4242 4286 4278
4 4286 4289 4278 4325
4 2391 2372 2385 2386
4 1021 1001 1015 1011
4 1015 1021 1011 1030
4 1011 1015 1030 1023
4 1001 1015 1011 994
4 1015 1021 1030 1039
4 1015 1011 994 1004
4 3099 3073 3084 3086
4 1930 1931 1957 1944
4 2250 2237 2223 2236
4 2873 2869 2890 2877
4 3404 3380 3384 3422
4 1431 1421 1419 1418
4 3078 3064 3086 3056
4 3086 3078 3056 3084
4 3064 3086 3056 3066
4 3468 3497 3455 3520
4 298 312 306 299
4 298 312 299 304
4 3485 3496 3500 3470
4 1450 1453 1447 1468
4 3070 3088 3107 3089
4 3088 3107 3089 3086
4 1928 1904 1898 1899
4 4014 4004 4032 4028
4 4004 4032 4028 3992
4 3848 3856 3885 3818
4 461 470 460 473
4 1547 1550 1560 1539
4 4131 4119 4149 4093
4 2259 2234 2256 2258
4 3029 3000 3024 2984
4 2060 2038 2031 2023
4 2038 2031 2023 2028
4 1370 1379 1392 1384
4 1917 1925 1944 1936
4 1917 1925 1936 1918
4 1925 1936 1918 1934
4 1925 1944 1936 1963
4 1917 1925 1918 1901
4 1925 1918 1901 1934
4 1936 1917 1918 1930
4 1936 1918 1934 1919
4 1936 1917 1930 1944
4 718 704 706 698
4 739 741 736 749
4 4170 4184 4212 4218
4 3883 3931 3901 3903
4 1036 1033 1024 1018
4 2730 2733 2714 2711
4 299 285 295 298
4 2162 2151 2142 2129
4 2151 2142 2129 2115
4 804 807 803 812
4 850 855 867 866
4 3938 3905 3944 3947
4 2919 2903 2918 2890
4 2806 2792 2786 2788
4 2786 2806 2788 2790
4 4273 4297 4276 4256
4 1139 1122 1128 1135
4 3747 3735 3754 3780
4 2812 2795 2790 2773
4 4119 4110 4161 4134
4 4161 4119 4134 4149
4 3493 3488 3496 3532
4 3496 3493 3532 3515
4 2791 2801 2820 2794
4 1182 1192 1198 1201
4 3895 3928 3941 3920
4 531 542 543 519
4 2000 1992 2017 2018
4 2918 2893 2903 2925
4 4185 4137 4163 4152
4 4137 4163 4152 4108
4 4163 4185 4152 4202
4 398 406 397 410
4 2058 2050 2055 2027
4 784 769 780 773
4 389 405 393 401
4 1249 1256 1267 1260
4 1249 1256 1260 1233
4 1267 1249 1260 1255
4 1562 1565 1585 1545
4 2021 2023 2045 2060
4 3045 3064 3068 3029
4 3966 3995 3959 3972
4 1578 1571 1566 1552
4 91 93 114 101
4 485 486 479 511
4 1420 1419 1435 1436
4 1420 1419 1436 1434
4 1420 1419 1434 1421
4 1616 1604 1628 1585
4 1222 1246 1233 1235
4 1110 1109 1128 1112
4 1110 1109 1112 1092
4 1924 1944 1931 1917
4 1931 1924 1917 1899
4 3880 3858 3874 3868
4 1834 1847 1822 1835
4 931 936 921 932
4 2715 2692 2718 2695
4 2715 2692 2695 2698
4 2692 2718 2695 2675
4 2695 2692 2675 2679
4 2695 2692 2679 2698
4 2867 2851 2860 2874
4 4240 4212 4218 4276
4 284 288 289 279
4 288 289 279 282
4 3278 3292 3311 3279
4 1854 1847 1851 1872
4 1851 1854 1872 1852
4 1854 1872 1852 1894
4 3557 3579 3597 3606
4 3963 4002 3992 3944
4 2696 2715 2726 2711
4 2696 2715 2711 2703
4 3707 3685 3663 3665
4 3685 3663 3665 3645
4 1365 1379 1370 1358
4 1365 1379 1358 1374
4 1379 1370 1358 1384
4 3420 3409 3382 3400
4 3420 3409 3400 3433
4 3409 3382 3400 3422
4 232 246 240 241
4 246 240 241 259
4 240 232 241 220
4 240 241 259 258
4 394 403 398 397
4 1720 1728 1729 1740
4 1816 1792 1817 1801
4 3393 3381 3361 3424
4 1793 1800 1777 1791
4 1793 1800 1791 1815
4 1793 1800 1815 1830
4 273 279 270 284
4 270 273 284 280
4 270 273 280 268
4 1764 1759 1780 1750
4 1379 1374 1387 1369
4 4043 4068 4028 4032
4 4043 4068 4032 4036
4 4068 4028 4032 4037
4 4028 4043 4032 4014
4 4043 4032 4014 4036
4 4068 4032 4036 4081
4 3841 3838 3874 3868
4 4153 4166 4186 4171
4 2726 2728 2715 2737
4 3534 3499 3515 3520
4 3499 3515 3520 3474
4 3499 3515 3474 3466
4 3474 3499 3466 3468
4 3474 3499 3468 3520
4 1729 1740 1719 1720
4 3644 3659 3693 3681
4 499 511 512 486
4 523 529 522 513
4 3293 3282 3323 3291
4 2782 2776 2786 2752
4 1556 1573 1553 1561
4 1173 1180 1172 1171
4 2058 2083 2075 2067
4 3645 3605 3620 3623
4 3620 3645 3623 3663
4 763 768 766 771
4 828 823 817 834
4 1306 1322 1319 1323
4 3148 3180 3161 3160
4 2790 2801 2786 2815
4 2724 2745 2752 2725
4 2423 2438 2417 2444
4 748 754 751 756
4 3422 3430 3433 3409
4 3422 3430 3409 3396
4 1805 1822 1794 1806
4 1805 1822 1806 1834
4 1822 1794 1806 1808
4 1794 1805 1806 1799
4 1805 1806 1799 1834
4 1822 1806 1834 1835
4 1095 1087 1082 1089
4 1894 1902 1930 1918
4 1837 1817 1823 1824
4 2506 2471 2469 2498
4 2393 2391 2423 2404
4 2393 2391 2404 2382
4 2391 2423 2404 2401
4 2391 2404 2382 2381
4 1933 1928 1898 1899
4 3843 3883 3857 3865
4 719 728 712 731
4 2730 2756 2763 2739
4 2045 2058 2055 2021
4 1659 1640 1647 1643
4 1659 1640 1643 1631
4 1640 1647 1643 1627
4 1643 1640 1627 1631
4 1627 1643 1631 1645
4 3064 3089 3086 3088
4 4291 4276 4322 4277
4 3420 3444 3433 3479
4 834 826 817 820
4 2764 2752 2774 2786
4 2764 2752 2786 2758
4 2774 2764 2786 2792
4 2774 2764 2792 2767
4 2786 2774 2792 2805
4 2752 2786 2758 2776
4 2764 2786 2792 2788
4 2792 2774 2767 2805
4 2758 2752 2776 2728
4 2764 2786 2788 2758
4 2560 2574 2558 2573
4 2574 2558 2573 2577
4 1703 1719 1698 1704
4 3745 3757 3761 3715
4 3064 3070 3088 3066
4 2162 2172 2151 2180
4 425 418 417 433
4 418 417 433 430
4 1150 1162 1141 1151
4 1150 1162 1151 1168
4 1162 1141 1151 1154
4 1141 1150 1151 1130
4 3432 3412 3416 3392
4 3432 3412 3392 3401
4 3432 3412 3401 3389
4 3412 3392 3401 3378
4 3401 3432 3389 3441
4 3389 3401 3441 3422
4 1266 1268 1286 1260
4 1266 1268 1260 1246
4 3484 3499 3468 3466
4 4080 4074 4030 4042
4 3441 3468 3474 3466
4 3474 3441 3466 3470
4 3466 3474 3470 3515
4 3441 3468 3466 3484
4 839 851 857 846
4 2778 2756 2782 2739
4 3556 3574 3580 3536
4 1961 1942 1957 1960
4 735 728 731 739
4 2485 2506 2473 2469
4 2473 2485 2469 2432
4 1098 1106 1108 1102
4 3956 3938 3980 3948
4 3938 3980 3948 3947
4 3837 3819 3820 3852
4 3819 3820 3852 3876
4 2019 2018 1990 2042
4 1550 1576 1560 1559
4 1560 1550 1559 1539
4 1576 1560 1559 1583
4 3949 3953 3934 3979
4 818 813 827 821
4 737 750 747 734
4 3530 3500 3496 3515
4 3068 3064 3078 3029
4 2186 2216 2203 2199
4 3994 3971 3982 3936
4 3382 3344 3358 3348
4 1081 1061 1067 1080
4 2865 2829 2845 2847
4 2829 2845 2847 2813
4 2845 2865 2847 2881
4 2845 2847 2813 2835
4 2847 2845 2881 2835
4 1257 1273 1256 1266
4 3048 3072 3066 3056
4 3786 3785 3814 3780
4 4072 4048 4029 4049
4 398 411 410 403
4 4289 4266 4298 4296
4 2696 2711 2682 2689
4 513 522 537 529
4 4244 4268 4286 4282
4 4244 4268 4282 4250
4 2077 2057 2064 2098
4 3640 3662 3666 3681
4 799 792 797 790
4 3642 3636 3600 3614
4 4143 4134 4122 4167
4 307 299 295 306
4 295 307 306 308
4 307 299 306 314
4 306 307 314 319
4 306 307 319 323
4 1385 1399 1405 1400
4 1385 1399 1400 1387
4 2556 2538 2539 2561
4 2968 2970 2942 2957
4 2970 2942 2957 2943
4 2942 2968 2957 2938
4 2145 2116 2129 2143
4 3882 3852 3876 3850
4 2597 2621 2594 2618
4 1067 1073 1080 1070
4 2875 2844 2859 2860
4 1253 1248 1230 1246
4 3114 3083 3101 3103
4 337 326 333 334
4 326 333 334 320
4 333 334 320 323
4 333 337 334 347
4 334 333 347 340
4 3536 3530 3496 3515
4 312 319 306 314
4 2505 2512 2531 2534
4 2512 2531 2534 2529
4 4127 4115 4131 4080
4 1721 1707 1711 1698
4 676 682 673 689
4 673 676 689 668
4 1783 1768 1765 1794
4 2887 2898 2865 2875
4 2000 2016 2021 2045
4 445 455 456 442
4 455 456 442 452
4 455 456 452 472
4 1109 1110 1090 1092
4 706 721 718 702
4 4124 4136 4086 4087
4 703 688 700 692
4 2745 2724 2734 2725
4 57 56 81 90
4 3468 3455 3489 3520
4 3325 3342 3361 3353
4 3835 3873 3845 3848
4 3873 3845 3848 3897
4 3380 3404 3390 3401
4 2282 2287 2305 2313
4 3353 3380 3345 3348
4 2915 2913 2899 2930
4 2913 2899 2930 2917
4 2915 2913 2930 2939
4 4126 4102 4081 4093
4 1039 1034 1054 1045
4 1039 1034 1045 1026
4 1039 1034 1026 1015
4 1045 1039 1026 1041
4 1054 1039 1045 1048
4 1039 1045 1048 1041
4 1926 1935 1907 1930
4 1371 1378 1391 1399
4 1378 1391 1399 1388
4 1606 1627 1631 1621
4 2067 2050 2027 2055
4 3207 3218 3223 3248
4 3868 3894 3912 3867
4 2359 2369 2333 2342
4 1527 1511 1497 1510
4 1655 1664 1669 1671
4 1664 1669 1671 1679
4 1671 1664 1679 1647
4 1655 1664 1671 1647
4 491 499 501 486
4 499 501 486 512
4 2075 2055 2058 2067
4 967 976 983 972
4 4162 4131 4187 4174
4 1042 1049 1044 1036
4 2495 2514 2485 2519
4 2495 2514 2519 2523
4 777 771 768 775
4 175 176 195 184
4 175 176 184 169
4 2874 2892 2902 2880
4 1092 1103 1086 1093
4 1092 1103 1093 1112
4 1103 1086 1093 1094
4 1086 1092 1093 1090
4 1092 1093 1090 1109
4 1093 1090 1109 1101
4 1093 1090 1101 1083
4 1101 1093 1083 1094
4 1093 1090 1083 1086
4 1109 1093 1101 1103
4 1101 1093 1094 1103
4 3460 3501 3479 3478
4 629 627 618 606
4 3030 3044 3064 3066
4 1247 1248 1256 1246
4 1538 1518 1521 1539
4 1837 1855 1838 1857
4 1838 1837 1857 1833
4 1354 1371 1346 1360
4 2758 2790 2786 2788
4 3382 3377 3411 3420
4 3335 3331 3348 3311
4 3335 3331 3311 3326
4 3348 3335 3311 3344
4 1607 1606 1631 1621
4 396 387 400 395
4 396 387 395 376
4 400 396 395 415
4 1256 1277 1267 1260
4 2759 2762 2760 2737
4 2759 2762 2737 2742
4 2687 2680 2703 2683
4 2703 2687 2683 2696
4 2687 2680 2683 2666
4 2680 2703 2683 2673
4 755 742 750 747
4 3466 3470 3467 3485
4 2386 2405 2416 2391
4 2970 2968 3001 2957
4 3460 3444 3434 3478
4 818 804 813 812
4 378 389 393 387
4 1228 1249 1240 1242
4 1228 1249 1242 1233
4 1240 1228 1242 1220
4 676 693 689 668
4 2842 2851 2869 2860
4 2998 3023 3024 3006
4 2758 2748 2737 2728
4 2739 2730 2714 2717
4 417 427 430 414
4 427 430 414 423
4 427 430 423 444
4 3938 3911 3947 3948
4 3942 3907 3936 3954
4 4145 4123 4147 4167
4 2997 3002 2993 2961
4 1761 1774 1784 1796
4 152 154 169 156
4 152 154 156 132
4 564 573 574 549
4 1419 1417 1402 1399
4 314 326 312 319
4 1811 1833 1823 1796
4 1823 1811 1796 1801
4 3469 3438 3446 3471
4 406 414 405 417
4 747 732 737 727
4 1184 1192 1201 1186
4 403 413 411 410
4 1711 1720 1729 1719
4 3728 3703 3694 3727
4 3130 3129 3148 3108
4 3130 3129 3108 3088
4 3129 3108 3088 3097
4 3108 3088 3097 3072
4 2494 2468 2481 2466
4 2851 2874 2869 2860
4 1999 2019 1990 1998
4 1112 1130 1123 1128
4 2036 2015 2021 2027
4 2381 2388 2405 2401
4 2381 2388 2401 2367
4 3009 2993 2960 2997
4 433 440 442 430
4 440 442 430 452
4 1805 1826 1822 1834
4 2530 2551 2556 2546
4 2530 2551 2546 2560
4 3644 3629 3659 3614
4 1518 1527 1505 1497
4 3120 3089 3107 3118
4 3089 3107 3118 3124
4 3107 3118 3124 3130
4 3107 3118 3130 3120
4 1329 1335 1322 1325
4 1335 1322 1325 1323
4 2222 2200 2217 2221
4 2222 2200 2221 2202
4 1050 1055 1066 1069
4 2359 2364 2369 2381
4 2369 2359 2381 2342
4 820 828 817 834
4 779 788 795 778
4 795 779 778 787
4 779 788 778 770
4 778 779 770 760
4 778 779 760 757
4 788 795 778 796
4 788 795 796 802
4 795 778 796 787
4 795 796 802 811
4 795 796 811 787
4 4297 4291 4322 4336
4 2663 2675 2692 2679
4 3344 3332 3310 3338
4 4028 4044 4067 4068
4 2036 2016 2045 2021
4 3931 3975 3949 3955
4 1707 1721 1724 1704
4 1707 1721 1704 1698
4 1698 1691 1679 1707
4 437 433 434 425
4 1606 1607 1583 1596
4 358 354 364 349
4 1858 1852 1879 1881
4 4166 4136 4170 4169
4 4166 4136 4169 4129
4 1702 1725 1723 1713
4 2756 2776 2782 2752
4 1248 1253 1266 1246
4 2301 2310 2313 2279
4 2928 2947 2966 2938
4 2928 2947 2938 2909
4 2966 2928 2938 2968
4 2928 2947 2909 2910
4 2576 2574 2560 2590
4 3883 3901 3857 3865
4 2619 2597 2590 2618
4 3553 3534 3515 3520
4 3211 3231 3205 3201
4 2982 2983 2954 2980
4 835 840 850 844
4 2099 2084 2098 2082
4 1866 1859 1840 1830
4 4127 4074 4080 4095
4 4074 4080 4095 4042
4 4127 4074 4095 4099
4 712 710 695 706
4 1480 1497 1489 1486
4 2330 2324 2355 2342
4 2330 2324 2342 2302
4 2355 2330 2342 2361
4 4048 4026 4029 3994
4 1199 1203 1200 1198
4 1199 1203 1198 1192
4 1199 1203 1192 1202
4 548 538 549 563
4 2198 2177 2179 2174
4 3800 3843 3815 3817
4 1763 1773 1791 1771
4 2380 2397 2385 2409
4 849 833 844 852
4 2941 2962 2940 2927
4 2269 2263 2267 2301
4 2126 2123 2101 2124
4 2123 2101 2124 2098
4 4276 4240 4256 4218
4 3894 3936 3912 3867
4 2601 2619 2590 2617
4 1680 1691 1707 1679
4 651 665 659 652
4 2902 2892 2913 2880
4 3383 3393 3424 3399
4 884 895 894 889
4 383 370 369 378
4 285 281 295 294
4 281 295 294 292
4 295 285 294 298
4 294 295 298 306
4 294 295 306 309
4 3765 3798 3754 3774
4 3798 3754 3774 3780
4 3754 3765 3774 3734
4 3089 3078 3086 3124
4 1942 1961 1959 1960
4 3902 3873 3848 3897
4 3902 3873 3897 3910
4 3897 3902 3910 3947
4 2538 2517 2497 2493
4 1886 1896 1910 1918
4 2528 2556 2539 2519
4 2539 2528 2519 2497
4 2619 2621 2597 2618
4 4008 3994 3972 3966
4 2845 2844 2875 2838
4 2995 2997 2962 3002
4 548 549 543 573
4 2181 2173 2180 2145
4 3467 3462 3428 3424
4 1005 998 1015 994
4 1601 1603 1619 1618
4 852 849 866 858
4 3023 3050 3056 3024
4 3023 3050 3024 3006
4 280 284 294 281
4 294 280 281 293
4 280 284 281 273
4 281 280 273 268
4 281 280 268 278
4 3382 3409 3396 3422
4 1694 1723 1702 1678
4 2903 2914 2925 2888
4 1763 1759 1737 1740
4 668 659 661 638
4 3723 3747 3754 3762
4 4240 4227 4212 4276
4 1533 1545 1521 1495
4 4067 4091 4093 4081
4 904 900 908 897
4 3099 3084 3115 3102
4 3099 3084 3102 3086
4 3084 3115 3102 3104
4 3115 3099 3102 3124
4 3180 3201 3161 3164
4 780 791 786 782
4 794 805 800 798
4 421 425 417 433
4 2863 2869 2836 2853
4 830 833 834 826
4 2842 2815 2828 2801
4 3845 3820 3814 3876
4 2401 2410 2405 2432
4 2509 2473 2481 2491
4 3237 3224 3235 3267
4 2698 2687 2703 2696
4 4171 4186 4199 4227
4 2320 2333 2304 2323
4 3131 3153 3139 3120
4 2865 2845 2875 2881
4 983 985 969 981
4 3793 3821 3774 3838
4 918 917 912 931
4 1112 1123 1103 1113
4 1112 1123 1113 1128
4 1123 1103 1113 1115
4 1103 1112 1113 1109
4 2084 2101 2098 2095
4 3797 3821 3813 3833
4 3797 3821 3833 3774
4 1964 1945 1956 1935
4 1618 1627 1616 1639
4 1627 1616 1639 1629
4 1122 1110 1128 1130
4 1899 1878 1881 1868
4 2285 2282 2305 2279
4 1241 1256 1249 1233
4 1311 1322 1306 1323
4 3858 3880 3885 3840
4 3858 3880 3840 3868
4 3720 3703 3727 3696
4 3852 3881 3876 3845
4 3852 3881 3845 3859
4 4137 4088 4108 4100
4 4088 4108 4100 4053
4 4108 4137 4100 4152
4 3499 3534 3544 3527
4 833 818 827 826
4 326 337 325 334
4 1267 1277 1288 1278
4 1267 1277 1278 1260
4 1288 1267 1278 1276
4 1278 1267 1260 1276
4 3471 3430 3444 3433
4 2815 2806 2786 2790
4 2887 2885 2898 2875
4 3632 3655 3639 3668
4 1606 1597 1618 1616
4 1597 1618 1616 1620
4 2324 2301 2313 2342
4 895 884 900 889
4 1899 1900 1917 1881
4 1666 1647 1655 1671
4 1666 1647 1671 1679
4 2473 2471 2468 2458
4 2473 2471 2458 2442
4 2468 2473 2458 2451
4 2468 2473 2451 2476
4 1720 1719 1737 1740
4 2925 2946 2940 2960
4 2217 2233 2234 2258
4 2869 2841 2859 2877
4 786 794 800 791
4 1833 1823 1837 1828
4 2422 2423 2432 2401
4 2435 2421 2458 2466
4 2637 2636 2619 2649
4 3730 3706 3734 3689
4 2733 2711 2725 2714
4 3821 3841 3858 3868
4 1055 1072 1066 1069
4 4086 4048 4087 4094
4 1620 1616 1628 1639
4 1616 1628 1639 1629
4 2442 2422 2432 2467
4 3342 3348 3384 3353
4 3348 3384 3353 3380
4 1884 1881 1868 1899
4 1536 1531 1553 1503
4 1736 1738 1724 1752
4 1724 1736 1752 1741
4 881 884 879 889
4 4211 4242 4223 4246
4 1736 1721 1704 1724
4 3761 3793 3734 3774
4 3761 3793 3774 3808
4 3734 3761 3774 3726
4 3261 3235 3268 3267
4 1868 1857 1881 1865
4 941 928 944 931
4 2045 2024 2057 2038
4 2045 2024 2038 2023
4 2024 2038 2023 2014
4 2038 2023 2014 2028
4 2045 2024 2023 2000
4 2024 2023 2000 2014
4 2038 2045 2023 2060
4 2038 2045 2060 2057
4 1719 1740 1736 1732
4 2110 2101 2095 2098
4 1148 1149 1140 1161
4 1379 1381 1392 1405
4 1668 1686 1678 1673
4 2820 2817 2841 2822
4 1956 1966 1935 1967
4 370 365 364 378
4 365 364 378 376
4 863 872 867 881
4 2560 2558 2534 2531
4 2558 2534 2531 2529
4 2382 2369 2381 2342
4 2198 2202 2200 2179
4 2200 2198 2179 2174
4 1847 1834 1851 1835
4 221 209 220 218
4 209 220 218 197
4 220 221 218 232
4 1130 1141 1123 1131
4 1130 1141 1131 1151
4 1141 1123 1131 1132
4 1123 1130 1131 1128
4 1141 1131 1151 1132
4 3923 3938 3948 3881
4 3371 3348 3367 3382
4 3305 3278 3311 3279
4 857 864 878 879
4 1149 1139 1128 1135
4 3298 3317 3325 3361
4 4078 4066 4061 4092
4 4066 4061 4092 4081
4 3000 3002 3024 2995
4 3844 3857 3884 3861
4 1456 1450 1465 1472
4 3775 3731 3752 3753
4 3216 3217 3246 3200
4 3800 3815 3801 3772
4 3815 3801 3772 3825
4 833 827 844 835
4 1180 1198 1199 1200
4 2995 2964 2998 2976
4 964 981 972 969
4 3344 3372 3358 3328
4 411 406 410 417
4 2156 2142 2120 2129
4 1975 1984 1981 2000
4 1453 1455 1447 1466
4 1453 1455 1466 1472
4 1466 1453 1472 1468
4 1466 1453 1468 1447
4 922 928 931 944
4 1817 1816 1837 1834
4 2267 2263 2272 2290
4 4267 4252 4242 4289
4 1130 1135 1150 1149
4 2611 2601 2583 2598
4 2019 2032 2042 2048
4 3050 3042 3084 3058
4 3050 3042 3058 3024
4 3534 3553 3560 3520
4 3282 3293 3252 3291
4 745 739 741 735
4 1869 1886 1872 1859
4 3838 3846 3874 3868
4 2273 2267 2272 2290
4 2273 2267 2290 2301
4 1902 1917 1918 1892
4 1902 1917 1892 1881
4 1902 1917 1881 1899
4 3140 3148 3127 3124
4 2815 2805 2828 2801
4 4217 4208 4199 4167
4 1630 1647 1618 1639
4 1999 2032 2019 1998
4 2416 2430 2423 2432
4 2423 2416 2432 2401
4 2737 2715 2718 2719
4 2737 2715 2719 2752
4 2032 2018 2042 2057
4 3095 3088 3100 3129
4 3201 3196 3213 3229
4 3196 3213 3229 3222
4 916 932 922 921
4 3786 3820 3780 3814
4 2863 2877 2893 2888
4 1252 1239 1238 1237
4 2891 2919 2902 2890
4 3694 3675 3648 3682
4 4002 4001 3992 3944
4 299 314 312 306
4 3224 3237 3246 3253
4 3224 3237 3253 3267
4 2368 2364 2359 2381
4 2359 2368 2381 2347
4 2368 2381 2347 2367
4 889 872 879 881
4 2434 2451 2432 2459
4 3532 3538 3574 3580
4 1453 1450 1460 1472
4 1453 1450 1472 1468
4 1460 1453 1472 1448
4 3235 3229 3249 3267
4 3229 3249 3267 3247
4 3229 3249 3247 3221
4 2386 2381 2405 2391
4 2325 2331 2313 2350
4 1072 1086 1066 1074
4 1086 1066 1074 1076
4 1066 1072 1074 1069
4 1072 1074 1069 1090
4 1074 1069 1090 1083
4 1074 1069 1083 1062
4 1083 1074 1062 1076
4 1074 1069 1062 1066
4 1083 1074 1076 1086
4 1090 1074 1083 1086
4 3420 3411 3434 3397
4 3434 3420 3397 3414
4 2036 2045 2055 2021
4 1106 1089 1090 1102
4 594 586 579 605
4 2417 2397 2421 2416
4 1072 1078 1092 1090
4 2588 2573 2606 2594
4 2588 2573 2594 2597
4 612 618 627 606
4 2222 2217 2236 2221
4 2236 2222 2221 2223
4 4067 4027 4042 4030
4 3662 3644 3693 3681
4 409 420 429 428
4 429 409 428 423
4 428 429 423 448
4 428 429 448 439
4 420 429 428 439
4 409 420 428 408
4 428 409 408 423
4 409 420 408 402
4 408 409 402 390
4 408 409 390 396
4 408 409 396 423
4 409 402 390 391
4 390 409 391 396
4 391 390 396 372
4 402 390 391 384
4 390 391 384 372
4 429 448 439 450
4 448 439 450 459
4 429 448 450 444
4 448 450 444 466
4 448 450 466 459
4 466 448 459 465
4 459 466 465 477
4 466 448 465 452
4 466 465 477 487
4 466 465 487 472
4 465 466 452 472
4 477 466 487 488
4 487 477 488 503
4 466 487 488 472
4 488 487 503 509
4 488 487 509 511
4 487 488 472 511
4 503 488 509 510
4 509 503 510 524
4 488 509 510 511
4 510 509 524 533
4 510 509 533 511
4 3982 3971 3939 3936
4 4008 4033 4021 4036
4 919 933 925 924
4 925 919 924 910
4 924 925 910 915
4 933 925 924 938
4 925 924 938 929
4 925 924 929 915
4 919 924 910 909
4 924 910 909 914
4 910 919 909 902
4 909 910 902 893
4 909 910 893 899
4 910 909 914 899
4 933 925 938 939
4 925 938 939 930
4 938 933 939 948
4 939 938 948 956
4 939 938 956 945
4 939 938 945 930
4 2018 2032 2037 2057
4 3521 3501 3478 3505
4 3521 3501 3505 3547
4 3478 3521 3505 3507
4 3249 3268 3235 3267
4 3249 3268 3267 3284
4 3249 3268 3284 3296
4 3267 3249 3284 3247
4 3268 3267 3284 3285
4 3284 3268 3285 3296
4 1428 1417 1436 1435
4 1104 1097 1084 1105
4 1084 1104 1105 1091
4 1104 1097 1105 1117
4 1105 1104 1117 1124
4 1105 1104 1124 1111
4 1117 1105 1124 1125
4 1105 1124 1125 1111
4 1124 1117 1125 1138
4 1125 1124 1138 1143
4 1125 1124 1143 1133
4 1125 1124 1133 1111
4 1105 1104 1111 1091
4 1138 1125 1143 1144
4 1125 1143 1144 1133
4 1143 1138 1144 1158
4 1144 1143 1158 1164
4 1144 1143 1164 1156
4 1144 1143 1156 1133
4 1158 1144 1164 1165
4 1144 1164 1165 1156
4 1164 1158 1165 1176
4 1165 1164 1176 1195
4 1164 1165 1156 1194
4 2941 2918 2915 2939
4 4244 4286 4246 4282
4 2350 2347 2325 2331
4 2742 2724 2752 2719
4 4289 4242 4278 4252
4 3235 3229 3267 3224
4 770 753 760 761
4 753 760 761 743
4 760 761 743 757
4 760 770 761 779
4 761 760 779 757
4 753 760 743 744
4 760 743 744 757
4 743 753 744 738
4 744 743 738 724
4 744 743 724 734
4 4290 4291 4320 4277
4 1065 1075 1085 1084
4 1085 1065 1084 1071
4 1075 1085 1084 1097
4 1085 1084 1097 1105
4 1085 1084 1105 1088
4 1084 1085 1071 1088
4 1065 1075 1084 1064
4 1084 1065 1064 1071
4 1065 1075 1064 1056
4 1064 1065 1056 1047
4 1064 1065 1047 1052
4 1065 1064 1071 1052
4 1056 1064 1047 1046
4 1064 1047 1046 1052
4 1047 1056 1046 1037
4 1046 1047 1037 1027
4 1046 1047 1027 1031
4 1047 1046 1052 1031
4 1037 1046 1027 1025
4 1046 1027 1025 1031
4 1027 1037 1025 1017
4 1025 1027 1017 1008
4 1025 1027 1008 1012
4 1027 1025 1031 1012
4 1017 1025 1008 1007
4 1025 1008 1007 1012
4 1008 1017 1007 999
4 1007 1008 999 991
4 1007 1008 991 997
4 1007 1008 997 1012
4 999 1007 991 990
4 1007 991 990 997
4 991 999 990 982
4 990 991 982 974
4 990 991 974 980
4 991 990 997 980
4 982 990 974 973
4 990 974 973 980
4 974 982 973 965
4 973 974 965 957
4 973 974 957 961
4 974 973 980 961
4 965 973 957 956
4 973 957 956 961
4 957 965 956 948
4 956 957 948 939
4 956 957 939 945
4 957 956 961 945
4 4187 4219 4221 4225
4 4187 4219 4225 4192
4 1313 1294 1302 1314
4 1313 1294 1314 1301
4 1302 1313 1314 1326
4 1313 1314 1326 1334
4 1313 1314 1334 1301
4 2238 2231 2236 2222
4 2236 2238 2222 2223
4 1379 1358 1374 1369
4 2287 2305 2313 2309
4 2867 2899 2892 2880
4 3592 3588 3560 3568
4 3424 3425 3428 3383
4 1984 1956 1981 1967
4 4062 4019 4040 4053
4 953 942 967 950
4 886 870 875 876
4 870 875 876 861
4 875 876 861 868
4 875 886 876 892
4 876 875 892 882
4 876 875 882 868
4 870 875 861 859
4 875 861 859 865
4 861 870 859 854
4 859 861 854 843
4 859 861 843 848
4 861 859 865 848
4 886 876 892 893
4 876 892 893 883
4 892 886 893 902
4 893 892 902 909
4 893 892 909 898
4 893 892 898 883
4 854 859 843 842
4 859 843 842 847
4 843 854 842 836
4 842 843 836 825
4 842 843 825 832
4 843 842 847 832
4 836 842 825 824
4 842 825 824 832
4 825 836 824 819
4 824 825 819 811
4 824 825 811 816
4 825 824 832 816
4 819 824 811 810
4 824 811 810 816
4 811 819 810 802
4 810 811 802 796
4 810 811 796 787
4 811 810 816 787
4 1481 1498 1491 1503
4 1682 1679 1669 1708
4 1074 1062 1076 1066
4 3181 3207 3189 3184
4 3407 3412 3389 3378
4 4167 4180 4199 4147
4 3697 3694 3681 3735
4 368 352 359 355
4 352 359 355 339
4 359 355 339 348
4 359 355 348 372
4 359 355 372 371
4 355 372 371 348
4 359 355 371 368
4 372 359 371 368
4 372 371 348 360
4 372 371 360 374
4 372 371 374 395
4 372 371 395 391
4 372 371 391 384
4 2386 2381 2391 2369
4 964 951 958 960
4 2633 2632 2617 2649
4 2633 2632 2649 2669
4 3139 3150 3116 3151
4 921 927 913 926
4 2284 2279 2285 2305
4 2430 2438 2423 2432
4 1576 1566 1560 1561
4 1350 1370 1359 1358
4 1350 1370 1358 1365
4 798 791 806 800
4 791 806 800 782
4 240 241 258 243
4 240 241 243 229
4 4078 4066 4092 4122
4 981 964 975 969
4 1945 1930 1957 1956
4 1945 1930 1956 1935
4 606 612 605 627
4 3005 3025 3027 2984
4 1418 1430 1431 1443
4 3948 3928 3882 3911
4 4272 4226 4243 4238
4 4272 4226 4238 4254
4 4226 4243 4238 4202
4 4243 4272 4238 4284
4 510 524 535 533
4 524 535 533 550
4 535 510 533 511
4 535 533 550 556
4 535 533 556 542
4 550 535 556 557
4 556 550 557 570
4 535 556 557 542
4 557 556 570 582
4 557 556 582 573
4 535 533 542 511
4 570 557 582 583
4 582 570 583 593
4 557 582 583 573
4 583 582 593 609
4 3002 3030 3024 3022
4 985 1001 994 1005
4 2013 2023 2028 2014
4 2013 2023 2014 1984
4 1987 1960 1995 1961
4 3508 3538 3549 3547
4 3445 3441 3474 3433
4 2980 2954 2951 2945
4 3639 3655 3642 3671
4 3639 3655 3671 3668
4 2421 2437 2458 2466
4 2903 2877 2888 2893
4 2903 2877 2893 2890
4 2888 2903 2893 2925
4 3256 3249 3222 3244
4 3404 3380 3422 3401
4 3808 3757 3782 3788
4 3808 3757 3788 3761
4 3757 3788 3761 3726
4 3757 3782 3788 3736
4 3782 3808 3788 3827
4 817 812 807 818
4 889 906 897 904
4 906 897 904 913
4 1704 1736 1724 1726
4 1254 1231 1243 1244
4 1231 1243 1244 1216
4 1243 1254 1244 1261
4 1244 1243 1261 1251
4 1244 1243 1251 1229
4 1244 1243 1229 1216
4 3935 3944 3947 4001
4 3108 3107 3086 3124
4 737 721 734 727
4 721 734 727 702
4 734 737 727 747
4 2438 2458 2442 2432
4 947 944 932 936
4 2918 2941 2927 2939
4 3229 3249 3221 3222
4 3408 3387 3373 3375
4 3387 3373 3375 3349
4 3373 3408 3375 3395
4 3373 3375 3349 3330
4 3373 3375 3330 3346
4 1219 1217 1222 1204
4 3642 3614 3622 3659
4 1918 1897 1934 1919
4 4303 4263 4283 4305
4 2649 2666 2669 2683
4 1736 1738 1752 1765
4 1493 1472 1486 1480
4 3937 3971 3936 3939
4 3409 3400 3433 3422
4 2551 2546 2560 2556
4 3869 3846 3827 3867
4 1847 1851 1872 1877
4 1851 1872 1877 1859
4 3761 3774 3726 3788
4 3761 3774 3788 3808
4 3420 3411 3397 3377
4 1872 1894 1892 1852
4 295 299 298 306
4 800 786 791 782
4 3765 3754 3730 3734
4 3666 3694 3648 3681
4 715 706 718 712
4 2842 2869 2859 2860
4 2714 2739 2717 2722
4 2714 2739 2722 2725
4 2970 3001 3003 2989
4 2970 3001 2989 2957
4 2989 2970 2957 2943
4 3001 3003 2989 3036
4 3003 2970 2989 2972
4 637 638 659 668
4 2869 2874 2902 2880
4 3718 3715 3668 3705
4 3718 3715 3705 3757
4 3668 3718 3705 3692
4 454 447 462 451
4 2696 2669 2687 2683
4 2669 2687 2683 2666
4 2977 2980 2951 2978
4 1371 1385 1368 1399
4 1894 1881 1892 1852
4 2538 2539 2561 2536
4 3982 3939 3965 3969
4 3982 3939 3969 3936
4 3939 3969 3936 3919
4 3939 3965 3969 3919
4 3965 3982 3969 4009
4 2696 2711 2689 2703
4 2669 2689 2683 2696
4 3881 3882 3911 3948
4 3399 3381 3393 3424
4 3908 3901 3934 3884
4 3908 3901 3884 3857
4 3901 3884 3857 3861
4 3901 3934 3884 3913
4 3164 3159 3150 3184
4 3159 3150 3184 3189
4 1701 1716 1688 1715
4 1716 1688 1715 1697
4 1701 1716 1715 1730
4 1211 1203 1223 1230
4 2096 2094 2083 2067
4 3160 3148 3140 3124
4 3707 3663 3686 3680
4 3707 3663 3680 3665
4 3686 3707 3680 3725
4 3663 3680 3665 3638
4 1086 1066 1076 1079
4 1026 1016 1009 1015
4 1016 1009 1015 998
4 1009 1026 1015 1023
4 1026 1016 1015 1034
4 1106 1119 1122 1108
4 3730 3754 3723 3689
4 2818 2844 2845 2838
4 2266 2287 2264 2277
4 2287 2264 2277 2298
4 2404 2422 2389 2398
4 2404 2422 2398 2401
4 1277 1286 1288 1278
4 1277 1286 1278 1260
4 1286 1288 1278 1297
4 1278 1286 1297 1291
4 1288 1278 1297 1276
4 1278 1286 1291 1268
4 1286 1297 1291 1306
4 1278 1286 1268 1260
4 1286 1297 1306 1307
4 1268 1278 1260 1258
4 1260 1268 1258 1246
4 3470 3438 3471 3422
4 4049 4029 4009 4034
4 4049 4029 4034 4048
4 4029 4034 4048 3994
4 4029 4009 4034 3982
4 4009 4049 4034 4035
4 1203 1213 1223 1230
4 1412 1421 1432 1422
4 1412 1421 1422 1405
4 1432 1412 1422 1425
4 716 703 713 711
4 951 952 936 943
4 951 952 943 960
4 3882 3852 3850 3847
4 1175 1192 1177 1167
4 3703 3675 3727 3696
4 697 717 708 707
4 708 697 707 687
4 707 708 687 702
4 717 708 707 726
4 708 707 726 702
4 697 707 687 686
4 707 687 686 702
4 687 697 686 678
4 686 687 678 664
4 686 687 664 671
4 903 912 917 896
4 1410 1391 1396 1401
4 1257 1273 1266 1265
4 3431 3387 3408 3410
4 3408 3431 3410 3453
4 3410 3408 3453 3427
4 3387 3408 3410 3375
4 3408 3410 3375 3395
4 3408 3410 3395 3427
4 3369 3341 3345 3364
4 3369 3341 3364 3378
4 3345 3369 3364 3380
4 3341 3364 3378 3334
4 3341 3364 3334 3345
4 3364 3369 3378 3401
4 3364 3345 3380 3335
4 3364 3334 3345 3335
4 3364 3369 3401 3380
4 3345 3380 3335 3348
4 764 780 773 758
4 921 936 927 932
4 871 863 881 879
4 849 844 858 852
4 1969 1994 1996 1986
4 1969 1994 1986 1967
4 1994 1996 1986 2033
4 4211 4223 4195 4246
4 4197 4219 4179 4187
4 4197 4219 4187 4192
4 2619 2601 2611 2617
4 3232 3248 3207 3247
4 3232 3248 3247 3267
4 2998 2967 2991 2964
4 2991 2998 2964 2984
4 3632 3587 3608 3634
4 1826 1817 1837 1834
4 969 977 960 975
4 1307 1319 1328 1321
4 1328 1307 1321 1318
4 1307 1319 1321 1306
4 1319 1321 1306 1323
4 1319 1328 1321 1336
4 1892 1879 1852 1881
4 1944 1936 1963 1957
4 3140 3127 3115 3124
4 852 845 833 834
4 4092 4129 4122 4126
4 3429 3422 3470 3441
4 3127 3148 3125 3108
4 3817 3800 3776 3772
4 3496 3467 3504 3488
4 1548 1561 1552 1556
4 2052 2062 2028 2038
4 3843 3857 3844 3815
4 3857 3844 3815 3825
4 3843 3857 3815 3817
4 3168 3161 3205 3181
4 3549 3547 3587 3566
4 3224 3212 3229 3201
4 2924 2909 2885 2902
4 1992 1963 1965 1981
4 3072 3098 3108 3086
4 3098 3108 3086 3124
4 3692 3668 3647 3672
4 3692 3668 3672 3705
4 3647 3692 3672 3674
4 3668 3672 3705 3671
4 4122 4134 4126 4167
4 2788 2783 2762 2790
4 1384 1392 1404 1393
4 1404 1384 1393 1398
4 1404 1384 1398 1397
4 3444 3420 3434 3478
4 1529 1527 1539 1510
4 2801 2782 2786 2805
4 1070 1057 1060 1069
4 1248 1257 1256 1266
4 1248 1257 1266 1265
4 4058 4061 4033 4011
4 4033 4058 4011 4048
4 1192 1183 1202 1185
4 1192 1183 1185 1167
4 1202 1192 1185 1187
4 1185 1192 1167 1177
4 1185 1192 1177 1187
4 1167 1185 1177 1187
4 2980 2977 3010 2978
4 1680 1656 1659 1679
4 1900 1892 1917 1881
4 717 738 724 726
4 738 724 726 744
4 724 717 726 708
4 726 724 708 702
4 724 726 744 734
4 3248 3251 3279 3267
4 2970 2972 2943 2989
4 3818 3813 3781 3812
4 1374 1365 1368 1352
4 287 274 278 277
4 274 278 277 259
4 278 287 277 293
4 277 278 293 281
4 278 277 259 268
4 277 278 281 268
4 287 277 293 292
4 277 293 292 281
4 293 287 292 303
4 292 293 303 309
4 292 293 309 294
4 292 293 294 281
4 303 292 309 308
4 292 309 308 295
4 309 303 308 318
4 308 309 318 323
4 308 309 323 306
4 308 309 306 295
4 2805 2815 2792 2786
4 2573 2551 2558 2560
4 3614 3654 3659 3642
4 2957 2942 2938 2921
4 2028 1997 2014 1994
4 1336 1360 1350 1354
4 2285 2259 2256 2284
4 2259 2256 2284 2258
4 2015 1991 2021 1995
4 4137 4100 4152 4113
4 4137 4100 4113 4088
4 2117 2116 2149 2143
4 1763 1791 1783 1765
4 884 881 900 889
4 3994 4033 4011 4048
4 4331 4294 4318 4354
4 866 858 874 867
4 1431 1447 1432 1450
4 1698 1679 1682 1703
4 1679 1682 1703 1708
4 1682 1703 1708 1669
4 1576 1578 1566 1561
4 2719 2742 2737 2752
4 605 592 607 574
4 334 333 340 323
4 1942 1944 1957 1931
4 2385 2403 2409 2397
4 1664 1639 1628 1644
4 1639 1628 1644 1629
4 1644 1639 1629 1627
4 1664 1639 1644 1643
4 1628 1644 1629 1651
4 1644 1639 1627 1643
4 1639 1627 1643 1647
4 1629 1644 1627 1645
4 1664 1639 1643 1647
4 1627 1644 1643 1645
4 1859 1887 1886 1910
4 4151 4124 4097 4128
4 4151 4124 4128 4136
4 4124 4128 4136 4087
4 4097 4151 4128 4130
4 3734 3706 3715 3705
4 1392 1405 1412 1400
4 3014 2986 2983 2987
4 3014 2986 2987 3028
4 2986 2983 2987 2956
4 2987 2986 2956 2955
4 2983 3014 2987 3032
4 3014 2987 3032 3028
4 2986 2987 3028 2988
4 2986 2987 2988 2955
4 2983 2987 2956 2936
4 2987 2956 2936 2955
4 2983 3014 3032 3018
4 3669 3675 3696 3649
4 3669 3675 3649 3633
4 3675 3696 3649 3682
4 2032 2037 2057 2064
4 2057 2032 2064 2042
4 2689 2711 2714 2703
4 2266 2264 2244 2277
4 3519 3475 3495 3498
4 3495 3519 3498 3540
4 3475 3495 3498 3456
4 3498 3495 3540 3518
4 3495 3498 3456 3477
4 3555 3542 3504 3496
4 2116 2117 2087 2104
4 2573 2588 2590 2597
4 130 132 152 156
4 1857 1858 1881 1855
4 1291 1286 1280 1268
4 2943 2972 2944 2953
4 2943 2972 2953 2989
4 2972 2944 2953 2974
4 4123 4129 4171 4167
4 1877 1896 1895 1910
4 1895 1877 1910 1891
4 814 821 829 827
4 2698 2719 2695 2715
4 2719 2695 2715 2718
4 751 745 741 748
4 1518 1500 1495 1521
4 395 396 376 372
4 3358 3344 3328 3335
4 3358 3344 3335 3348
4 3328 3358 3335 3323
4 3108 3130 3124 3148
4 3659 3644 3614 3622
4 3659 3644 3622 3681
4 2203 2188 2186 2175
4 2203 2188 2175 2180
4 2186 2203 2175 2199
4 3706 3734 3689 3705
4 1083 1093 1086 1094
4 1618 1616 1620 1639
4 3998 3975 3955 3996
4 3548 3502 3509 3522
4 3502 3509 3522 3481
4 3502 3509 3481 3455
4 3509 3522 3481 3506
4 2632 2639 2608 2613
4 2639 2608 2613 2627
4 2608 2613 2627 2596
4 2613 2627 2596 2612
4 3445 3468 3489 3474
4 3468 3489 3474 3520
4 1062 1083 1076 1077
4 1141 1123 1132 1134
4 1132 1141 1134 1154
4 1134 1132 1154 1136
4 1134 1132 1136 1120
4 1134 1132 1120 1123
4 1136 1134 1120 1147
4 3694 3675 3682 3727
4 2534 2560 2531 2519
4 1072 1086 1074 1090
4 3614 3610 3622 3578
4 3213 3201 3229 3212
4 1368 1354 1352 1365
4 3224 3231 3201 3229
4 3224 3231 3229 3267
4 1298 1307 1318 1308
4 1318 1298 1308 1312
4 1307 1318 1308 1321
4 1318 1298 1312 1315
4 1308 1318 1312 1331
4 1308 1307 1321 1297
4 1321 1308 1297 1309
4 1308 1297 1309 1282
4 1321 1308 1309 1331
4 1308 1307 1297 1298
4 1307 1321 1297 1306
4 1297 1321 1309 1291
4 1321 1297 1306 1291
4 1149 1157 1160 1175
4 2361 2332 2342 2348
4 2495 2485 2490 2519
4 1448 1459 1467 1472
4 3667 3689 3642 3671
4 3667 3689 3671 3683
4 3642 3667 3671 3655
4 3671 3667 3683 3655
4 3683 3671 3655 3668
4 2469 2467 2453 2442
4 2469 2467 2442 2432
4 3013 3010 3038 3017
4 1030 1015 1039 1026
4 1039 1030 1026 1041
4 1739 1720 1737 1740
4 4242 4252 4219 4223
4 2243 2267 2257 2270
4 2243 2267 2270 2248
4 2257 2243 2270 2246
4 4147 4171 4199 4167
4 2942 2968 2938 2928
4 2062 2065 2087 2082
4 2062 2065 2082 2053
4 2062 2065 2053 2038
4 2065 2082 2053 2057
4 2065 2087 2082 2084
4 2065 2053 2038 2057
4 2082 2065 2084 2068
4 2746 2728 2758 2776
4 2505 2519 2534 2531
4 3893 3846 3869 3867
4 4167 4195 4176 4168
4 4167 4195 4168 4190
4 4167 4195 4190 4217
4 2965 2984 2947 2949
4 1252 1265 1269 1257
4 1421 1431 1432 1422
4 1421 1431 1422 1418
4 3118 3124 3130 3153
4 2962 2964 2995 2976
4 1708 1732 1719 1736
4 4234 4242 4219 4197
4 3495 3475 3453 3456
4 3475 3453 3456 3431
4 3453 3495 3456 3465
4 3456 3453 3465 3410
4 3453 3456 3431 3410
4 2607 2593 2581 2572
4 1354 1335 1352 1336
4 992 981 975 977
4 1627 1606 1616 1613
4 1627 1606 1613 1621
4 3634 3639 3619 3672
4 3323 3334 3350 3358
4 1933 1943 1942 1960
4 3936 3907 3912 3954
4 2820 2859 2828 2842
4 2310 2304 2333 2313
4 900 904 889 897
4 4028 4032 4037 3992
4 3605 3620 3623 3585
4 3293 3297 3257 3276
4 3293 3297 3276 3322
4 3276 3293 3322 3291
4 1168 1175 1167 1149
4 1405 1408 1421 1419
4 3809 3819 3847 3829
4 1121 1109 1101 1113
4 1121 1109 1113 1128
4 1101 1121 1113 1115
4 1109 1101 1113 1103
4 1109 1113 1128 1112
4 1121 1113 1115 1123
4 1113 1121 1128 1131
4 1113 1121 1131 1123
4 1121 1128 1131 1140
4 1128 1131 1140 1149
4 1131 1121 1140 1132
4 1128 1113 1131 1123
4 1128 1131 1149 1130
4 1140 1131 1132 1151
4 1140 1131 1151 1149
4 1131 1151 1149 1130
4 1113 1101 1115 1103
4 1121 1131 1123 1132
4 1151 1140 1149 1161
4 1151 1140 1161 1154
4 1149 1151 1161 1177
4 942 941 931 935
4 1387 1374 1352 1369
4 728 711 712 731
4 614 617 616 600
4 2906 2943 2912 2922
4 2943 2912 2922 2953
4 2912 2906 2922 2878
4 2922 2943 2953 2957
4 3108 3098 3127 3124
4 3445 3407 3389 3400
4 3066 3072 3088 3086
4 3088 3066 3086 3064
4 1034 1039 1019 1015
4 3580 3607 3578 3549
4 3578 3580 3549 3536
4 3445 3455 3407 3442
4 1328 1336 1350 1338
4 1328 1336 1338 1321
4 1336 1350 1338 1352
4 1350 1328 1338 1342
4 1338 1328 1321 1331
4 640 653 664 658
4 664 640 658 639
4 653 664 658 678
4 664 658 678 686
4 664 658 686 671
4 998 981 992 985
4 3332 3377 3372 3351
4 3377 3372 3351 3397
4 3377 3372 3397 3420
4 3372 3351 3397 3379
4 986 1002 995 998
4 4315 4313 4341 4327
4 4315 4313 4327 4284
4 4313 4341 4327 4348
4 4341 4315 4327 4356
4 4327 4315 4284 4317
4 4315 4284 4317 4272
4 2124 2110 2115 2098
4 1887 1859 1883 1891
4 2928 2898 2910 2909
4 2898 2910 2909 2885
4 2928 2898 2909 2938
4 4081 4126 4093 4096
4 3455 3461 3412 3435
4 3455 3461 3435 3481
4 3435 3455 3481 3457
4 1887 1897 1919 1883
4 3333 3350 3378 3352
4 1252 1259 1237 1257
4 3326 3305 3311 3279
4 1961 1963 1991 1957
4 1992 2000 1963 1981
4 3608 3587 3566 3591
4 3608 3587 3591 3634
4 3566 3608 3591 3594
4 3591 3608 3634 3617
4 3150 3155 3134 3175
4 3134 3150 3175 3156
4 2964 2962 2941 2939
4 1306 1290 1311 1291
4 2467 2497 2493 2487
4 1559 1576 1583 1575
4 3310 3296 3332 3328
4 630 653 640 631
4 640 630 631 610
4 653 640 631 658
4 640 631 658 639
4 2550 2538 2561 2536
4 1269 1257 1259 1252
4 2778 2756 2739 2749
4 3516 3488 3532 3504
4 284 285 294 281
4 2899 2913 2880 2917
4 295 294 292 309
4 2324 2333 2355 2342
4 2324 2333 2342 2313
4 1763 1773 1771 1732
4 3056 3073 3072 3086
4 3056 3073 3086 3084
4 2014 2038 2028 2053
4 4124 4072 4097 4087
4 4072 4097 4087 4049
4 4097 4087 4049 4073
4 2116 2099 2098 2082
4 2494 2513 2529 2466
4 3798 3785 3747 3780
4 3422 3404 3438 3384
4 2216 2245 2244 2203
4 3759 3763 3809 3779
4 3759 3763 3779 3727
4 3809 3759 3779 3784
4 3759 3779 3784 3737
4 3779 3784 3737 3760
4 3779 3809 3784 3829
4 3784 3779 3829 3807
4 2822 2808 2825 2815
4 1780 1788 1799 1817
4 1150 1130 1149 1151
4 1149 1150 1151 1168
4 1681 1698 1682 1687
4 1450 1443 1465 1457
4 1062 1054 1045 1048
4 4217 4199 4250 4227
4 4217 4199 4227 4171
4 4217 4199 4171 4167
4 4283 4263 4252 4225
4 2864 2863 2846 2888
4 3833 3848 3845 3868
4 2287 2269 2264 2267
4 4290 4331 4318 4320
4 4193 4170 4151 4169
4 4048 4072 4087 4049
4 3323 3293 3291 3322
4 3995 3959 3972 4021
4 813 806 822 814
4 806 822 814 809
4 2885 2859 2869 2880
4 2671 2669 2665 2632
4 2380 2385 2356 2409
4 1198 1178 1199 1192
4 4226 4185 4202 4194
4 4226 4185 4194 4204
4 4185 4202 4194 4152
4 4202 4226 4194 4238
4 4194 4185 4152 4164
4 4226 4194 4238 4204
4 2099 2116 2087 2082
4 3165 3196 3160 3154
4 872 889 880 881
4 1286 1277 1266 1260
4 1960 1959 1995 1961
4 2018 2024 2014 2038
4 2018 2024 2038 2057
4 2590 2597 2574 2573
4 1971 1969 1996 1986
4 1875 1877 1895 1862
4 1875 1877 1862 1847
4 1877 1895 1862 1891
4 3689 3693 3681 3723
4 2724 2719 2698 2715
4 1703 1708 1704 1679
4 3757 3718 3736 3739
4 3757 3718 3739 3705
4 3718 3739 3705 3692
4 3718 3736 3739 3692
4 3736 3757 3739 3788
4 3757 3739 3788 3726
4 867 872 880 881
4 1938 1971 1946 1954
4 1971 1946 1954 1973
4 1946 1938 1954 1912
4 3127 3099 3115 3124
4 1069 1054 1062 1066
4 3237 3261 3253 3267
4 3261 3253 3267 3280
4 2382 2404 2389 2398
4 2382 2404 2398 2381
4 3583 3585 3562 3543
4 4085 4062 4040 4053
4 2885 2891 2924 2902
4 2885 2891 2902 2869
4 3728 3720 3727 3759
4 3936 3894 3939 3919
4 3959 3987 3972 4021
4 349 347 350 338
4 350 349 338 345
4 3455 3445 3489 3442
4 4027 4037 4042 3999
4 1376 1383 1396 1391
4 3078 3064 3056 3029
4 1240 1249 1255 1242
4 2792 2797 2805 2767
4 1578 1594 1589 1595
4 2590 2601 2617 2598
4 2617 2590 2598 2572
4 2156 2162 2129 2143
4 2728 2746 2756 2776
4 3519 3540 3543 3498
4 3013 2980 3010 2981
4 821 835 829 827
4 3006 3042 3050 3024
4 3607 3634 3619 3591
4 3607 3634 3591 3587
4 3591 3607 3587 3549
4 2239 2243 2257 2227
4 2239 2243 2227 2211
4 2243 2257 2227 2246
4 3031 3030 3022 3056
4 2264 2245 2277 2260
4 1896 1907 1895 1910
4 1896 1907 1910 1930
4 2828 2838 2860 2844
4 3118 3089 3124 3101
4 3118 3089 3101 3131
4 3101 3118 3131 3116
4 3101 3118 3116 3124
4 3131 3101 3116 3103
4 3118 3131 3116 3139
4 3118 3131 3139 3120
4 3118 3131 3120 3089
4 3116 3118 3139 3124
4 3118 3139 3124 3153
4 3118 3139 3153 3120
4 3939 3893 3919 3894
4 985 983 986 981
4 3429 3441 3401 3422
4 3534 3560 3527 3520
4 3560 3527 3520 3568
4 1452 1462 1469 1461
4 1462 1469 1461 1484
4 1461 1462 1484 1473
4 1461 1462 1473 1454
4 1461 1462 1454 1439
4 1461 1462 1439 1452
4 1469 1452 1461 1471
4 1469 1452 1471 1458
4 1461 1469 1471 1483
4 1469 1471 1483 1494
4 1469 1471 1494 1458
4 702 706 698 718
4 3422 3430 3396 3384
4 1335 1340 1352 1323
4 1009 998 992 994
4 2579 2593 2596 2561
4 3735 3723 3754 3689
4 3343 3317 3361 3325
4 1956 1975 1981 1936
4 592 606 607 574
4 2422 2424 2389 2412
4 2422 2424 2412 2446
4 2422 2424 2446 2453
4 2424 2446 2453 2443
4 2424 2412 2446 2443
4 2424 2389 2412 2408
4 2412 2424 2408 2443
4 2408 2412 2443 2420
4 2446 2422 2453 2467
4 2453 2446 2467 2470
4 2412 2446 2443 2420
4 2408 2412 2420 2379
4 2408 2412 2379 2389
4 2412 2422 2446 2426
4 2446 2453 2443 2470
4 1286 1296 1288 1307
4 1102 1110 1092 1090
4 1432 1447 1457 1450
4 3056 3023 3024 3022
4 2110 2101 2098 2124
4 2110 2101 2124 2126
4 1192 1184 1177 1186
4 1184 1177 1186 1168
4 2829 2794 2820 2818
4 2820 2829 2818 2845
4 3902 3891 3885 3848
4 220 218 197 213
4 220 218 213 229
4 220 218 229 240
4 3053 3013 3038 3018
4 3053 3013 3018 3014
4 3013 3038 3018 3017
4 3013 3018 3014 2983
4 3107 3089 3086 3124
4 906 921 913 904
4 863 866 881 867
4 2822 2802 2790 2820
4 1971 1996 2002 1989
4 1971 1996 1989 1986
4 3534 3499 3520 3527
4 3289 3325 3306 3331
4 880 889 897 891
4 3876 3881 3911 3873
4 4294 4290 4318 4282
4 4294 4290 4282 4250
4 4290 4318 4282 4320
4 4318 4294 4282 4296
4 4290 4282 4250 4260
4 4290 4282 4260 4277
4 4282 4294 4250 4268
4 4282 4318 4296 4286
4 4282 4318 4286 4320
4 751 741 749 762
4 4306 4305 4337 4323
4 4306 4305 4323 4271
4 4305 4337 4323 4353
4 4337 4306 4323 4343
4 3800 3815 3772 3817
4 3042 3084 3058 3062
4 3201 3196 3229 3221
4 3101 3068 3078 3077
4 3614 3606 3579 3578
4 4161 4176 4197 4168
4 4197 4161 4168 4149
4 4161 4168 4149 4134
4 4161 4168 4134 4176
4 4168 4149 4134 4126
4 4134 4168 4126 4167
4 4134 4168 4167 4176
4 2287 2277 2309 2298
4 4268 4296 4286 4282
4 4268 4296 4282 4294
4 3647 3632 3608 3634
4 4053 4088 4063 4100
4 1808 1821 1795 1810
4 1821 1795 1810 1809
4 1821 1795 1809 1812
4 1795 1810 1809 1781
4 921 912 931 922
4 803 799 797 804
4 1123 1103 1115 1120
4 3050 3056 3024 3058
4 3050 3056 3058 3084
4 1489 1497 1510 1499
4 1489 1497 1499 1486
4 1497 1510 1499 1527
4 1510 1489 1499 1501
4 2631 2621 2619 2618
4 2631 2621 2618 2628
4 3532 3493 3508 3514
4 3532 3493 3514 3515
4 4068 4081 4091 4067
4 4091 4068 4067 4044
4 3797 3798 3774 3833
4 2968 2957 2938 2979
4 792 785 783 790
4 4227 4240 4260 4276
4 813 798 806 800
4 3196 3180 3160 3164
4 1561 1577 1573 1553
4 2301 2302 2273 2289
4 1893 1923 1909 1905
4 1923 1909 1905 1939
4 1909 1893 1905 1873
4 1905 1909 1873 1911
4 1905 1909 1911 1939
4 3496 3500 3470 3515
4 3800 3752 3776 3772
4 3196 3165 3188 3154
4 2927 2949 2939 2976
4 2416 2405 2432 2401
4 2661 2649 2637 2673
4 2573 2594 2577 2606
4 1388 1368 1387 1399
4 2099 2084 2082 2087
4 1358 1365 1374 1352
4 1203 1198 1192 1201
4 1392 1412 1404 1393
4 3326 3335 3334 3279
4 3282 3323 3291 3328
4 2689 2665 2683 2694
4 3881 3923 3882 3948
4 2943 2944 2912 2953
4 829 835 841 837
4 841 829 837 831
4 2519 2506 2485 2497
4 3400 3420 3433 3442
4 3668 3632 3647 3634
4 3279 3282 3248 3247
4 3248 3279 3247 3267
4 2742 2752 2758 2737
4 985 994 977 992
4 2267 2273 2257 2270
4 2267 2273 2270 2301
4 3538 3532 3549 3580
4 3321 3323 3350 3352
4 2962 2940 2927 2961
4 2838 2818 2805 2814
4 1391 1399 1388 1401
4 3903 3883 3865 3901
4 2301 2324 2302 2342
4 2145 2116 2143 2149
4 2143 2145 2149 2181
4 2794 2763 2778 2781
4 2763 2778 2781 2749
4 2778 2781 2749 2771
4 998 1005 995 985
4 4092 4066 4081 4122
4 1918 1936 1930 1956
4 4068 4032 4081 4037
4 2758 2752 2728 2737
4 1342 1350 1359 1358
4 3683 3715 3706 3705
4 3683 3715 3705 3668
4 2613 2598 2617 2620
4 2598 2617 2620 2611
4 4295 4331 4291 4336
4 4295 4331 4336 4354
4 3868 3894 3867 3846
4 2026 2021 2027 2058
4 3285 3310 3311 3284
4 3285 3310 3284 3296
4 2972 3003 3004 2992
4 2972 3003 2992 2989
4 3004 2972 2992 2974
4 3003 2992 2989 3034
4 2961 2976 2949 2927
4 969 985 977 981
4 3740 3711 3748 3734
4 2971 2969 2932 2958
4 2971 2969 2958 3016
4 2932 2971 2958 2933
4 4038 4053 4063 4022
4 352 335 339 340
4 339 352 340 355
4 340 339 355 348
4 335 339 340 323
4 339 340 323 334
4 340 339 348 334
4 1925 1936 1934 1963
4 2947 2938 2909 2931
4 2947 2938 2931 2979
4 2381 2386 2364 2369
4 3310 3344 3338 3311
4 1274 1254 1261 1262
4 1254 1261 1262 1244
4 1261 1262 1244 1251
4 1261 1274 1262 1283
4 1262 1261 1283 1272
4 1262 1261 1272 1251
4 3148 3161 3130 3153
4 791 784 786 794
4 3311 3335 3326 3279
4 975 964 958 960
4 1817 1826 1799 1834
4 2661 2680 2666 2683
4 4185 4137 4152 4164
4 1112 1110 1130 1128
4 3919 3893 3869 3867
4 4027 3986 3980 3999
4 195 197 208 218
4 195 197 218 213
4 195 197 213 200
4 195 197 200 184
4 2752 2774 2786 2782
4 2774 2786 2782 2805
4 2782 2774 2805 2767
4 1806 1794 1799 1791
4 1799 1806 1791 1800
4 1806 1794 1791 1808
4 1806 1791 1800 1815
4 1647 1659 1643 1664
4 718 721 727 702
4 3372 3382 3400 3420
4 1561 1560 1552 1566
4 698 689 693 668
4 2756 2763 2739 2749
4 1827 1800 1815 1806
4 2495 2490 2523 2519
4 947 951 936 943
4 3515 3520 3474 3505
4 2458 2438 2451 2432
4 2405 2416 2391 2401
4 936 943 927 940
4 3399 3425 3424 3383
4 3479 3501 3508 3549
4 1759 1739 1737 1740
4 881 866 874 867
4 3139 3164 3150 3151
4 1083 1101 1094 1096
4 4218 4170 4193 4169
4 2805 2797 2831 2814
4 700 692 711 703
4 1969 1971 1938 1954
4 1630 1618 1620 1639
4 4314 4316 4340 4328
4 4314 4316 4328 4279
4 4316 4340 4328 4356
4 4340 4314 4328 4345
4 3857 3864 3884 3908
4 3846 3838 3827 3867
4 1995 2015 2027 2021
4 4286 4289 4325 4296
4 2947 2966 2938 2979
4 3566 3547 3521 3505
4 1103 1086 1094 1099
4 3560 3589 3582 3553
4 3697 3728 3694 3735
4 2401 2396 2429 2406
4 2401 2396 2406 2377
4 2401 2396 2377 2367
4 2396 2377 2367 2383
4 2396 2429 2406 2413
4 2406 2396 2413 2383
4 2413 2406 2383 2400
4 2396 2406 2377 2383
4 2406 2401 2377 2398
4 2429 2406 2413 2445
4 2406 2401 2398 2426
4 2406 2401 2426 2429
4 2401 2398 2426 2422
4 2401 2377 2398 2381
4 2426 2406 2429 2445
4 2377 2367 2383 2352
4 4212 4170 4218 4169
4 2403 2385 2391 2397
4 1161 1140 1152 1154
4 3056 3024 3058 3029
4 1680 1707 1695 1704
4 1707 1695 1704 1724
4 1695 1704 1724 1712
4 1799 1806 1800 1827
4 3051 3054 3087 3063
4 3051 3054 3063 3007
4 3087 3051 3063 3062
4 1641 1667 1652 1650
4 1652 1641 1650 1626
4 1650 1652 1626 1636
4 1667 1652 1650 1674
4 1652 1650 1674 1661
4 1652 1650 1661 1636
4 1650 1674 1661 1663
4 1661 1650 1663 1633
4 1663 1661 1633 1665
4 1663 1661 1665 1688
4 1674 1661 1663 1688
4 1661 1633 1665 1636
4 1665 1661 1636 1652
4 1665 1661 1652 1676
4 1661 1633 1636 1650
4 1633 1663 1665 1649
4 1661 1665 1688 1676
4 1674 1652 1661 1676
4 1674 1652 1676 1667
4 1676 1674 1667 1689
4 1661 1674 1676 1688
4 1676 1674 1689 1700
4 1676 1674 1700 1688
4 1633 1665 1636 1632
4 1641 1650 1626 1625
4 1650 1626 1625 1636
4 1626 1641 1625 1617
4 1625 1626 1617 1600
4 1625 1626 1600 1614
4 1626 1625 1636 1614
4 1665 1663 1688 1684
4 1665 1663 1684 1649
4 1688 1665 1684 1697
4 1689 1676 1700 1701
4 1676 1700 1701 1688
4 1700 1689 1701 1722
4 1700 1701 1688 1715
4 1701 1700 1722 1730
4 1701 1700 1730 1715
4 1617 1625 1600 1599
4 1625 1600 1599 1614
4 1600 1617 1599 1592
4 1599 1600 1592 1579
4 1599 1600 1579 1586
4 1599 1600 1586 1614
4 1688 1700 1715 1684
4 1715 1688 1684 1697
4 1722 1701 1730 1731
4 1701 1730 1731 1716
4 1730 1722 1731 1747
4 1731 1730 1747 1760
4 1731 1730 1760 1743
4 1730 1731 1716 1743
4 1600 1592 1579 1581
4 1579 1600 1581 1586
4 1581 1579 1586 1568
4 1592 1579 1581 1570
4 1579 1581 1570 1555
4 1579 1581 1555 1568
4 1747 1731 1760 1762
4 1731 1760 1762 1743
4 1760 1747 1762 1779
4 1762 1760 1779 1787
4 1762 1760 1787 1772
4 1762 1760 1772 1743
4 1779 1762 1787 1789
4 1762 1787 1789 1772
4 1787 1779 1789 1804
4 1789 1787 1804 1818
4 1789 1787 1818 1803
4 1789 1787 1803 1772
4 1804 1789 1818 1819
4 1789 1818 1819 1803
4 1818 1804 1819 1832
4 1818 1819 1803 1829
4 1819 1818 1832 1841
4 1819 1818 1841 1829
4 1832 1819 1841 1845
4 1819 1841 1845 1829
4 1841 1832 1845 1860
4 1845 1841 1860 1871
4 1845 1841 1871 1853
4 1841 1845 1829 1853
4 2593 2579 2572 2561
4 3636 3600 3614 3586
4 1688 1700 1684 1674
4 1684 1688 1674 1663
4 3318 3349 3330 3329
4 3349 3330 3329 3373
4 3330 3329 3373 3346
4 3330 3318 3329 3295
4 3329 3330 3295 3308
4 3318 3329 3295 3294
4 3295 3318 3294 3274
4 3329 3295 3294 3308
4 3294 3295 3274 3255
4 3294 3295 3255 3272
4 3329 3330 3308 3346
4 3294 3295 3272 3308
4 2551 2573 2572 2560
4 3610 3622 3578 3619
4 3610 3622 3619 3639
4 3622 3619 3639 3689
4 3622 3578 3619 3582
4 1977 1979 2007 2006
4 1979 2007 2006 2008
4 2007 2006 2008 2044
4 2007 1977 2006 2005
4 2006 2007 2005 2041
4 1235 1225 1245 1242
4 1245 1235 1242 1258
4 1235 1242 1258 1246
4 1235 1242 1246 1233
4 1235 1242 1233 1204
4 1242 1246 1233 1260
4 1246 1233 1260 1256
4 3880 3840 3868 3848
4 3558 3540 3518 3535
4 3518 3558 3535 3523
4 3540 3518 3535 3498
4 3518 3558 3523 3533
4 4037 4067 4042 4093
4 4037 4067 4093 4081
4 1496 1473 1483 1484
4 1473 1483 1484 1461
4 1483 1484 1461 1469
4 1483 1496 1484 1504
4 1484 1483 1504 1494
4 1483 1484 1469 1494
4 1496 1484 1504 1506
4 1484 1504 1506 1494
4 1504 1496 1506 1520
4 1506 1504 1520 1534
4 1506 1504 1534 1517
4 1506 1504 1517 1494
4 1520 1506 1534 1535
4 1506 1534 1535 1517
4 1534 1520 1535 1546
4 1535 1534 1546 1554
4 1535 1534 1554 1544
4 1535 1534 1544 1517
4 1546 1535 1554 1555
4 1535 1554 1555 1544
4 1554 1546 1555 1570
4 1555 1554 1570 1579
4 1555 1554 1579 1568
4 1555 1554 1568 1544
4 852 840 833 844
4 2006 1976 2004 2005
4 3938 3881 3911 3948
4 1996 1989 1986 2025
4 3623 3665 3646 3638
4 3623 3665 3638 3663
4 3665 3646 3638 3680
4 3665 3646 3680 3684
4 4289 4298 4267 4301
4 4291 4320 4277 4322
4 1996 2002 1989 2035
4 2241 2261 2276 2274
4 2276 2241 2274 2254
4 2261 2276 2274 2292
4 2276 2274 2292 2307
4 2276 2274 2307 2286
4 2276 2274 2286 2254
4 2274 2286 2254 2255
4 2286 2254 2255 2268
4 2254 2274 2255 2240
4 2255 2254 2240 2224
4 2255 2254 2224 2268
4 1154 1166 1147 1152
4 3207 3181 3164 3184
4 3003 3036 3039 3034
4 3036 3039 3034 3085
4 922 916 921 912
4 2703 2680 2704 2673
4 2704 2703 2673 2694
4 3585 3602 3563 3584
4 3602 3563 3584 3573
4 3563 3585 3584 3535
4 3602 3563 3573 3581
4 3584 3563 3535 3573
4 1418 1430 1443 1456
4 2941 2964 2939 2915
4 1504 1483 1492 1494
4 1483 1492 1494 1471
4 1492 1494 1471 1482
4 1492 1504 1494 1515
4 1494 1492 1515 1482
4 218 220 232 240
4 2120 2092 2106 2105
4 2120 2092 2105 2098
4 2092 2105 2098 2082
4 2617 2632 2613 2620
4 2539 2556 2561 2569
4 2561 2539 2569 2554
4 2032 2042 2048 2064
4 531 518 542 512
4 3097 3100 3088 3129
4 2188 2175 2180 2162
4 2188 2175 2162 2186
4 2175 2162 2186 2167
4 1911 1905 1939 1920
4 1911 1905 1920 1890
4 1920 1911 1890 1913
4 1920 1911 1913 1950
4 1939 1911 1920 1950
4 1373 1386 1395 1394
4 1395 1373 1394 1382
4 1386 1395 1394 1409
4 1395 1394 1409 1414
4 1395 1394 1414 1403
4 1395 1394 1403 1382
4 1373 1386 1394 1372
4 1394 1373 1372 1382
4 1373 1386 1372 1363
4 1372 1373 1363 1349
4 1372 1373 1349 1356
4 1372 1373 1356 1382
4 1409 1395 1414 1415
4 1395 1414 1415 1403
4 1414 1409 1415 1427
4 1415 1414 1427 1437
4 1415 1414 1437 1424
4 1414 1415 1403 1424
4 1363 1372 1349 1348
4 1372 1349 1348 1356
4 1349 1348 1356 1334
4 1349 1363 1348 1341
4 1348 1349 1341 1327
4 1348 1349 1327 1334
4 1427 1415 1437 1439
4 1415 1437 1439 1424
4 1437 1427 1439 1454
4 1439 1437 1454 1461
4 1439 1437 1461 1452
4 1439 1437 1452 1424
4 1341 1348 1327 1326
4 1348 1327 1326 1334
4 1327 1341 1326 1320
4 1326 1327 1320 1302
4 1326 1327 1302 1313
4 1326 1327 1313 1334
4 4136 4094 4086 4087
4 3895 3882 3928 3899
4 3882 3928 3899 3911
4 3928 3895 3899 3920
4 1550 1559 1539 1551
4 3209 3188 3176 3191
4 3209 3188 3191 3221
4 3188 3176 3191 3154
4 3176 3209 3191 3190
4 3949 3953 3979 4003
4 2815 2805 2801 2786
4 1431 1432 1422 1443
4 1422 1431 1443 1418
4 2885 2887 2865 2875
4 2181 2180 2211 2197
4 3024 3030 3056 3022
4 2331 2323 2313 2304
4 3013 3018 2983 2981
4 3013 3018 2981 3017
4 1780 1788 1817 1801
4 4073 4049 4035 4057
4 4035 4073 4057 4052
4 4049 4035 4057 4034
4 4057 4049 4034 4087
4 4057 4049 4087 4073
4 4049 4034 4087 4048
4 4034 4087 4048 4058
4 4034 4057 4087 4064
4 3407 3445 3442 3400
4 2689 2665 2694 2688
4 1274 1262 1283 1284
4 1262 1283 1284 1272
4 1283 1274 1284 1295
4 1284 1283 1295 1302
4 1284 1283 1302 1289
4 1284 1283 1289 1272
4 3007 2973 3011 2992
4 813 827 821 814
4 931 921 922 932
4 922 931 932 944
4 2080 2107 2090 2088
4 2090 2080 2088 2063
4 2088 2090 2063 2073
4 2107 2090 2088 2118
4 2090 2088 2118 2100
4 2090 2088 2100 2073
4 1854 1837 1852 1834
4 3025 3029 3068 3037
4 3025 3029 3037 2984
4 3068 3025 3037 3027
4 1457 1468 1479 1465
4 752 756 755 748
4 1808 1821 1810 1835
4 3942 3971 3994 3936
4 3282 3248 3247 3252
4 3248 3247 3252 3207
4 3543 3585 3563 3535
4 2244 2223 2216 2203
4 1793 1773 1754 1776
4 1201 1203 1217 1202
4 2079 2064 2048 2042
4 1160 1157 1172 1175
4 3663 3665 3645 3623
4 1165 1164 1195 1194
4 4260 4276 4277 4227
4 3495 3498 3477 3518
4 1048 1050 1066 1054
4 2974 2977 2948 2959
4 2977 2948 2959 2951
4 2948 2974 2959 2944
4 1860 1873 1845 1871
4 1873 1845 1871 1870
4 1860 1873 1871 1893
4 1871 1873 1870 1905
4 1871 1873 1905 1893
4 3515 3553 3520 3505
4 1297 1278 1291 1282
4 1297 1278 1282 1276
4 1291 1297 1282 1309
4 1914 1912 1876 1891
4 1876 1914 1891 1895
4 2531 2530 2519 2560
4 2956 2983 2936 2950
4 2936 2956 2950 2920
4 2936 2956 2920 2955
4 2956 2983 2950 2954
4 2950 2956 2954 2920
4 2983 2950 2954 2981
4 2954 2950 2920 2911
4 2950 2954 2981 2945
4 2954 2950 2911 2945
4 3014 3032 3018 3053
4 3014 3032 3053 3028
4 1979 2010 2007 2008
4 2010 2007 2008 2044
4 1979 2010 2008 1982
4 2010 2008 1982 2022
4 2008 2010 2044 2030
4 2008 2010 2030 2022
4 1979 2010 1982 1983
4 1982 1979 1983 1939
4 2010 1982 1983 2022
4 1983 1982 1939 1955
4 1983 1982 1955 1985
4 1983 1982 1985 2022
4 2008 1979 1982 1978
4 1979 1982 1978 1941
4 2008 1979 1978 2006
4 1979 1978 2006 1977
4 1979 1978 1977 1950
4 1979 1978 1950 1941
4 1048 1066 1059 1062
4 307 306 308 323
4 3222 3188 3209 3221
4 1621 1645 1634 1629
4 320 307 324 323
4 324 320 323 333
4 307 324 323 308
4 324 323 308 318
4 324 323 318 335
4 323 324 333 340
4 323 324 340 335
4 2342 2355 2361 2382
4 2815 2842 2825 2822
4 2815 2842 2822 2801
4 784 780 786 773
4 780 786 773 782
4 773 780 782 758
4 2829 2818 2845 2813
4 1974 1972 1940 1958
4 1974 1972 1958 2003
4 1972 1940 1958 1954
4 1958 1972 1954 1989
4 1940 1974 1958 1948
4 1940 1958 1954 1921
4 1954 1958 1989 2002
4 4131 4119 4093 4067
4 3501 3478 3505 3479
4 3505 3501 3479 3549
4 3478 3505 3479 3463
4 1447 1468 1457 1450
4 4036 4001 4021 4008
4 2000 1991 1963 1957
4 582 583 573 608
4 3010 2977 3008 2999
4 3010 2977 2999 2978
4 2977 3008 2999 2959
4 3008 3010 2999 3052
4 2977 2999 2978 2959
4 2999 2978 2959 2975
4 2978 2959 2975 2935
4 2959 2975 2935 2934
4 2999 2978 2975 3015
4 2999 2978 3015 3017
4 2999 2978 3017 3010
4 3015 2999 3017 3052
4 2978 2959 2935 2951
4 2975 2999 3015 3004
4 2959 2999 2975 3004
4 2959 2975 2934 2953
4 881 874 891 880
4 2763 2730 2739 2749
4 2178 2180 2145 2151
4 3934 3951 3913 3930
4 3951 3913 3930 3933
4 3913 3934 3930 3901
4 3614 3579 3610 3578
4 1256 1277 1260 1266
4 1260 1256 1266 1246
4 3243 3274 3255 3254
4 3274 3255 3254 3294
4 3255 3254 3294 3272
4 3255 3243 3254 3220
4 3254 3255 3220 3234
4 3254 3255 3234 3272
4 2947 2966 2979 2984
4 2966 2979 2984 3005
4 2966 2979 3005 2968
4 2966 2979 2968 2938
4 3589 3582 3553 3606
4 3589 3582 3606 3640
4 2913 2902 2880 2909
4 2957 2942 2921 2943
4 2971 2973 3007 2985
4 2971 2973 2985 2933
4 2973 3007 2985 2992
4 3007 2971 2985 3016
4 1946 1973 1949 1958
4 1946 1973 1958 1954
4 1958 1946 1954 1921
4 1973 1949 1958 1974
4 1949 1946 1958 1921
4 1973 1958 1954 1971
4 1958 1954 1971 2002
4 1973 1958 1971 2002
4 1973 1958 2002 1974
4 3821 3838 3868 3828
4 3821 3838 3828 3774
4 1399 1405 1400 1419
4 4028 4067 4037 4068
4 3735 3754 3780 3726
4 2117 2116 2143 2104
4 3543 3540 3583 3535
4 3543 3540 3535 3498
4 3102 3099 3086 3124
4 3086 3102 3124 3078
4 3086 3102 3078 3084
4 409 391 396 395
4 391 396 395 372
4 396 409 395 415
4 2307 2322 2336 2335
4 2336 2307 2335 2318
4 2322 2336 2335 2353
4 2336 2335 2353 2366
4 2336 2335 2366 2346
4 2336 2335 2346 2318
4 1550 1562 1559 1551
4 1308 1297 1282 1298
4 4074 4099 4051 4095
4 4197 4219 4192 4223
4 4197 4219 4223 4242
4 4219 4192 4223 4225
4 4192 4197 4223 4168
4 4197 4223 4168 4195
4 4168 4197 4195 4176
4 1854 1834 1826 1837
4 3498 3517 3477 3535
4 1950 1977 1948 1952
4 1950 1977 1952 1978
4 1948 1950 1952 1913
4 1952 1950 1978 1941
4 1385 1379 1387 1400
4 1385 1379 1400 1405
4 1379 1387 1400 1393
4 3731 3752 3753 3709
4 2497 2493 2487 2539
4 813 806 814 800
4 806 814 800 809
4 800 806 809 782
4 3252 3282 3291 3258
4 3252 3282 3258 3247
4 3820 3780 3814 3832
4 3814 3820 3832 3876
4 2398 2426 2422 2412
4 2422 2398 2412 2389
4 2398 2426 2412 2406
4 2398 2412 2389 2379
4 3332 3296 3320 3328
4 1670 1695 1685 1683
4 1670 1695 1683 1680
4 1695 1685 1683 1712
4 2877 2891 2859 2869
4 2877 2891 2869 2890
4 983 967 972 969
4 338 334 347 348
4 334 347 348 340
4 347 338 348 350
4 348 347 350 360
4 348 347 360 355
4 348 347 355 340
4 360 348 355 371
4 850 835 844 841
4 1255 1240 1242 1245
4 2064 2092 2077 2098
4 2805 2831 2838 2814
4 4195 4217 4244 4190
4 3489 3445 3474 3433
4 3130 3124 3148 3153
4 900 891 908 897
4 1443 1456 1465 1477
4 3910 3897 3947 3912
4 3910 3897 3912 3868
4 3947 3910 3912 3927
4 3910 3897 3868 3845
4 3811 3782 3764 3795
4 3764 3811 3795 3787
4 3782 3764 3795 3736
4 3764 3811 3787 3789
4 3795 3764 3787 3738
4 3610 3607 3619 3578
4 1919 1887 1883 1891
4 2022 2049 2030 2008
4 1157 1149 1167 1175
4 1764 1780 1761 1750
4 3536 3532 3574 3580
4 3536 3532 3580 3549
4 3536 3532 3549 3515
4 1782 1808 1795 1810
4 916 904 908 913
4 3882 3876 3911 3899
4 3583 3585 3543 3535
4 4038 4053 4022 3996
4 3275 3256 3244 3259
4 3275 3256 3259 3296
4 3256 3244 3259 3249
4 3259 3256 3249 3296
4 3244 3275 3259 3266
4 1450 1431 1443 1432
4 2891 2902 2869 2890
4 2933 2908 2934 2926
4 2933 2908 2926 2932
4 2934 2933 2926 2973
4 3348 3384 3380 3382
4 3739 3788 3726 3755
4 3726 3739 3755 3672
4 3038 3010 3052 3017
4 4243 4272 4284 4315
4 4252 4267 4301 4289
4 1093 1092 1112 1109
4 3869 3827 3853 3854
4 3869 3827 3854 3867
4 3827 3853 3854 3811
4 3853 3869 3854 3896
4 3854 3869 3867 3904
4 3867 3854 3904 3871
4 1920 1890 1916 1913
4 1916 1920 1913 1952
4 3728 3763 3727 3735
4 3642 3639 3671 3689
4 2153 2168 2184 2183
4 2184 2153 2183 2166
4 2183 2184 2166 2194
4 2168 2184 2183 2201
4 2184 2183 2201 2214
4 2184 2183 2214 2194
4 2153 2183 2166 2150
4 2153 2183 2150 2168
4 2166 2153 2150 2131
4 2150 2153 2168 2139
4 2150 2153 2139 2119
4 2150 2153 2119 2131
4 2166 2183 2194 2195
4 2194 2166 2195 2176
4 2183 2166 2150 2164
4 2183 2194 2195 2213
4 2194 2195 2213 2224
4 2194 2195 2224 2176
4 4080 4127 4095 4131
4 4127 4095 4131 4138
4 4095 4080 4131 4067
4 4095 4080 4067 4042
4 4095 4131 4138 4093
4 4131 4127 4138 4174
4 4131 4095 4067 4093
4 4127 4095 4138 4099
4 4080 4067 4042 4030
4 4067 4095 4042 4093
4 4195 4168 4190 4223
4 1559 1575 1551 1562
4 3116 3150 3134 3156
4 1606 1607 1596 1621
4 3508 3501 3547 3549
4 3501 3547 3549 3505
4 1937 1906 1915 1922
4 1906 1915 1922 1889
4 1915 1937 1922 1940
4 1906 1915 1889 1863
4 3164 3139 3124 3138
4 3164 3139 3138 3151
4 3187 3208 3220 3219
4 3220 3187 3219 3206
4 3208 3220 3219 3243
4 3220 3219 3243 3254
4 3220 3219 3254 3234
4 3219 3220 3206 3234
4 3818 3848 3840 3885
4 3675 3648 3682 3649
4 1468 1489 1479 1465
4 2594 2577 2606 2628
4 4053 4063 4022 4039
4 1773 1791 1771 1815
4 2928 2898 2938 2906
4 1552 1561 1566 1578
4 4113 4132 4090 4106
4 4132 4090 4106 4107
4 4113 4132 4106 4164
4 2728 2715 2737 2752
4 3846 3838 3867 3868
4 3177 3208 3187 3186
4 3208 3187 3186 3219
4 3187 3186 3219 3206
4 3187 3177 3186 3149
4 3186 3187 3149 3167
4 3186 3187 3167 3206
4 2860 2838 2867 2882
4 4272 4238 4284 4279
4 2661 2680 2683 2673
4 3583 3620 3585 3584
4 3585 3583 3584 3535
4 4091 4093 4081 4102
4 2968 2957 2979 3001
4 2004 2002 2029 2011
4 2029 2004 2011 2041
4 2004 2002 2011 1974
4 2002 2029 2011 2035
4 4131 4187 4174 4138
4 2377 2367 2352 2350
4 2377 2367 2350 2381
4 755 763 756 767
4 3267 3229 3247 3232
4 3350 3378 3352 3398
4 2110 2095 2115 2098
4 2095 2115 2098 2092
4 1606 1597 1616 1585
4 4099 4127 4156 4138
4 4127 4156 4138 4174
4 4156 4099 4138 4140
4 4318 4296 4286 4325
4 3379 3351 3337 3363
4 3337 3379 3363 3357
4 3351 3337 3363 3320
4 3337 3379 3357 3359
4 1656 1659 1679 1664
4 1810 1821 1809 1836
4 3001 2989 2957 2979
4 2092 2064 2079 2078
4 2092 2064 2078 2082
4 1869 1852 1859 1872
4 4074 4030 4042 4051
4 4030 4042 4051 4010
4 3996 4019 4038 4053
4 4256 4276 4218 4248
4 3471 3479 3508 3514
4 3471 3479 3514 3515
4 2129 2145 2143 2162
4 3135 3115 3104 3138
4 3135 3115 3138 3154
4 3115 3138 3154 3160
4 3138 3135 3154 3176
4 3138 3154 3160 3191
4 3154 3138 3176 3191
4 2554 2537 2523 2539
4 3232 3231 3267 3229
4 3232 3231 3229 3201
4 638 639 661 668
4 1773 1793 1791 1815
4 3936 3942 3954 3994
4 4174 4187 4198 4138
4 2188 2196 2203 2223
4 940 932 926 927
4 2783 2795 2762 2790
4 2632 2639 2613 2656
4 2601 2611 2617 2598
4 2467 2497 2487 2485
4 2107 2139 2119 2118
4 2119 2107 2118 2090
4 2118 2119 2090 2100
4 2139 2119 2118 2150
4 2119 2118 2150 2131
4 2119 2118 2131 2100
4 1393 1404 1398 1407
4 1822 1835 1808 1806
4 3775 3800 3801 3753
4 1121 1140 1132 1136
4 4314 4316 4279 4254
4 4316 4279 4254 4272
4 3582 3560 3553 3520
4 2711 2700 2714 2730
4 2700 2714 2730 2717
4 2995 3022 3002 3024
4 3820 3819 3780 3832
4 3820 3819 3832 3876
4 2138 2120 2106 2105
4 4227 4260 4250 4217
4 3663 3686 3680 3643
4 3642 3622 3639 3689
4 4269 4283 4301 4303
4 1978 1976 2006 1977
4 1978 1976 1977 1952
4 3504 3496 3488 3532
4 1318 1308 1321 1331
4 3965 3919 3945 3946
4 3965 3919 3946 3969
4 3946 3965 3969 4005
4 3919 3945 3946 3904
4 3945 3965 3946 4005
4 3969 3946 4005 3978
4 3946 3919 3904 3936
4 1912 1946 1921 1954
4 2467 2493 2470 2462
4 3150 3116 3151 3156
4 3151 3150 3156 3184
4 1987 1993 1957 1991
4 1583 1596 1575 1584
4 1583 1596 1584 1606
4 1596 1575 1584 1587
4 1575 1583 1584 1576
4 1583 1584 1576 1606
4 2962 2997 2960 2961
4 2762 2758 2742 2764
4 2762 2758 2764 2788
4 427 414 415 423
4 415 427 423 444
4 414 415 423 401
4 423 415 444 429
4 423 415 429 409
4 423 415 409 396
4 4316 4328 4279 4317
4 1647 1666 1659 1679
4 931 936 932 944
4 583 582 609 608
4 4168 4149 4126 4190
4 1510 1539 1526 1521
4 3753 3773 3733 3772
4 3105 3136 3113 3111
4 3136 3113 3111 3152
4 3113 3111 3152 3132
4 3113 3105 3111 3080
4 3111 3113 3080 3096
4 3111 3113 3096 3132
4 4119 4149 4093 4134
4 1659 1675 1680 1679
4 1659 1675 1679 1666
4 2095 2068 2098 2084
4 2068 2098 2084 2082
4 1976 1952 1949 1948
4 2149 2117 2143 2135
4 2143 2149 2135 2165
4 2135 2143 2165 2147
4 1308 1309 1331 1312
4 1308 1309 1312 1282
4 2422 2446 2426 2432
4 2426 2422 2432 2401
4 2432 2426 2401 2429
4 2432 2426 2429 2459
4 3150 3184 3189 3175
4 3150 3184 3175 3156
4 4315 4313 4284 4243
4 1945 1957 1975 1956
4 1957 1975 1956 1936
4 3705 3668 3671 3683
4 3671 3705 3683 3689
4 3671 3705 3689 3672
4 3967 3989 4010 3990
4 4010 3967 3990 3981
4 2473 2458 2451 2432
4 3536 3496 3555 3504
4 3358 3372 3400 3366
4 2062 2028 2038 2053
4 850 867 860 858
4 1618 1627 1639 1647
4 1306 1311 1323 1291
4 1501 1510 1526 1521
4 2406 2413 2445 2420
4 2506 2497 2469 2485
4 2023 2000 2014 1984
4 1972 1970 1937 1954
4 280 281 293 278
4 2443 2446 2470 2462
4 827 813 822 814
4 3382 3358 3400 3422
4 827 822 837 829
4 822 837 829 831
4 827 822 829 814
4 822 829 814 809
4 1749 1739 1759 1740
4 3635 3608 3594 3617
4 3594 3635 3617 3611
4 2601 2590 2583 2598
4 3160 3196 3164 3191
4 3979 4022 4007 3996
4 737 742 740 747
4 2002 1971 1989 1954
4 2292 2322 2307 2303
4 2307 2292 2303 2274
4 2303 2307 2274 2286
4 2303 2307 2286 2318
4 2322 2307 2303 2335
4 2307 2303 2335 2318
4 2274 2303 2286 2288
4 1468 1466 1489 1472
4 2484 2493 2517 2504
4 2484 2493 2504 2470
4 2493 2504 2470 2489
4 2493 2517 2504 2536
4 2504 2493 2536 2522
4 1479 1501 1488 1490
4 1479 1501 1490 1489
4 1488 1479 1490 1470
4 1806 1799 1834 1827
4 3196 3213 3222 3188
4 3222 3196 3188 3221
4 1499 1489 1486 1490
4 3935 3907 3954 3912
4 3754 3730 3734 3689
4 2879 2877 2859 2841
4 798 813 805 800
4 3148 3127 3124 3108
4 1278 1260 1258 1276
4 3536 3553 3515 3549
4 799 794 790 798
4 995 985 986 998
4 3814 3798 3774 3780
4 4027 4042 4030 3990
4 1134 1154 1147 1136
4 805 799 804 798
4 1009 1015 998 994
4 1545 1538 1521 1550
4 241 240 220 229
4 1991 1961 1957 1987
4 1968 1970 1998 1980
4 1968 1970 1980 1947
4 1970 1998 1980 2001
4 1998 1968 1980 1990
4 1968 1970 1947 1929
4 2842 2828 2860 2859
4 1385 1399 1387 1368
4 3322 3321 3352 3323
4 1792 1817 1801 1780
4 1765 1794 1782 1791
4 3002 2976 2962 2995
4 912 904 916 921
4 2517 2538 2536 2493
4 1335 1322 1323 1336
4 858 844 853 850
4 3293 3257 3252 3276
4 2588 2618 2590 2597
4 2969 2932 2958 2917
4 4289 4278 4325 4301
4 2898 2865 2875 2881
4 1101 1121 1115 1116
4 3352 3376 3336 3356
4 3376 3336 3356 3355
4 3376 3336 3355 3360
4 3150 3155 3175 3189
4 2243 2235 2248 2220
4 2243 2235 2220 2211
4 2235 2248 2220 2219
4 2220 2235 2219 2211
4 1973 2002 2004 1974
4 3013 2980 2981 2983
4 3003 3004 2992 3039
4 3461 3455 3502 3481
4 2556 2530 2546 2519
4 2530 2546 2519 2560
4 2546 2519 2560 2537
4 2560 2546 2537 2569
4 2546 2519 2537 2539
4 2546 2519 2539 2556
4 2560 2546 2569 2556
4 2546 2537 2569 2539
4 2539 2546 2556 2569
4 2398 2401 2381 2404
4 1899 1924 1933 1931
4 4271 4306 4265 4288
4 4271 4306 4288 4323
4 4306 4288 4323 4309
4 4265 4271 4288 4215
4 2377 2401 2367 2381
4 2116 2129 2143 2105
4 3464 3434 3414 3443
4 3414 3464 3443 3436
4 3434 3414 3443 3420
4 3443 3434 3420 3463
4 3420 3443 3463 3442
4 3434 3420 3463 3478
4 3414 3464 3436 3439
4 3443 3434 3463 3478
4 798 791 800 794
4 4282 4244 4250 4260
4 1258 1260 1246 1242
4 1258 1260 1242 1255
4 3310 3284 3296 3328
4 3912 3936 3954 3978
4 2263 2279 2290 2301
4 1643 1659 1631 1656
4 1643 1659 1656 1664
4 1631 1643 1656 1645
4 4242 4223 4246 4278
4 4223 4246 4278 4249
4 3153 3118 3120 3130
4 1538 1550 1547 1539
4 1538 1550 1539 1521
4 2560 2574 2573 2590
4 3857 3844 3825 3861
4 1708 1719 1704 1736
4 4095 4074 4042 4051
4 958 947 940 943
4 3880 3897 3885 3848
4 3988 3965 3945 4005
4 1151 1161 1177 1154
4 4137 4164 4113 4152
4 3928 3948 3950 3899
4 3928 3948 3899 3911
4 2230 2261 2241 2240
4 2241 2230 2240 2214
4 2240 2241 2214 2224
4 2261 2241 2240 2274
4 2241 2240 2274 2254
4 2241 2240 2254 2224
4 2874 2892 2880 2867
4 4003 4038 4022 3996
4 4022 4003 3996 3979
4 4003 3996 3979 3949
4 3996 3979 3949 3930
4 1835 1847 1862 1851
4 1847 1862 1851 1877
4 1862 1851 1877 1891
4 4244 4217 4250 4260
4 3587 3566 3591 3549
4 2560 2576 2590 2569
4 2576 2590 2569 2583
4 2560 2576 2569 2554
4 2569 2576 2583 2554
4 2583 2569 2554 2570
4 4242 4278 4252 4223
4 2277 2309 2298 2291
4 3351 3332 3320 3328
4 2752 2774 2782 2725
4 2106 2092 2079 2105
4 4011 4008 3972 4001
4 4008 3972 4001 4021
4 1242 1228 1233 1204
4 4276 4297 4322 4299
4 4297 4322 4299 4346
4 4276 4297 4299 4256
4 4299 4276 4256 4300
4 4322 4276 4299 4300
4 4328 4314 4279 4312
4 3489 3474 3520 3492
4 3520 3489 3492 3506
4 1255 1267 1276 1260
4 1384 1393 1398 1369
4 2001 1972 2003 1989
4 867 880 873 874
4 4058 4092 4081 4126
4 4092 4081 4126 4122
4 4124 4128 4087 4097
4 4128 4087 4097 4073
4 779 778 787 757
4 2711 2725 2714 2703
4 2711 2725 2703 2715
4 2446 2412 2426 2420
4 2042 2019 2048 2034
4 2042 2019 2034 1990
4 2048 2042 2034 2069
4 2019 2048 2034 1998
4 1298 1308 1312 1282
4 3934 3949 3979 3930
4 3934 3949 3930 3901
4 3934 3949 3901 3931
4 3949 3901 3931 3903
4 3949 3930 3901 3903
4 556 557 542 573
4 2974 3004 3008 2959
4 1737 1732 1763 1740
4 574 573 592 606
4 4170 4166 4169 4212
4 3706 3689 3683 3705
4 4128 4136 4087 4120
4 2915 2902 2939 2919
4 3675 3727 3696 3682
4 1284 1302 1294 1289
4 1302 1294 1289 1314
4 1294 1289 1314 1301
4 1294 1284 1289 1272
4 1289 1294 1272 1301
4 2767 2774 2734 2782
4 2049 2063 2030 2061
4 2063 2030 2061 2046
4 2049 2063 2061 2080
4 2063 2061 2080 2088
4 2063 2061 2088 2073
4 2061 2063 2046 2073
4 1402 1419 1399 1400
4 1399 1402 1400 1387
4 2405 2381 2401 2391
4 3620 3583 3604 3584
4 2909 2924 2939 2902
4 3935 3954 3947 3912
4 1972 1937 1940 1954
4 750 755 747 759
4 747 750 759 758
4 4168 4167 4190 4126
4 3734 3761 3726 3705
4 3761 3726 3705 3757
4 3607 3580 3587 3549
4 1132 1141 1154 1151
4 1656 1670 1645 1657
4 1670 1645 1657 1662
4 1645 1656 1657 1643
4 1656 1657 1643 1664
4 3986 3989 3980 3999
4 2665 2669 2683 2649
4 2019 2032 2048 1998
4 1238 1252 1237 1257
4 3338 3344 3348 3311
4 1616 1627 1613 1629
4 1627 1613 1629 1621
4 1613 1616 1629 1610
4 3759 3779 3737 3727
4 3779 3737 3727 3760
4 3608 3647 3634 3617
4 1194 1191 1174 1190
4 1194 1191 1190 1210
4 1191 1174 1190 1169
4 780 791 782 787
4 782 780 787 758
4 2331 2333 2304 2313
4 2331 2333 2313 2350
4 3721 3692 3674 3701
4 3674 3721 3701 3698
4 3692 3674 3701 3672
4 3701 3692 3672 3739
4 3674 3721 3698 3700
4 3701 3674 3698 3617
4 3114 3131 3134 3103
4 4100 4113 4088 4063
4 1698 1679 1703 1704
4 1354 1352 1365 1350
4 3873 3902 3911 3910
4 3902 3911 3910 3947
4 3911 3910 3947 3927
4 3911 3873 3910 3876
4 3910 3911 3876 3927
4 3763 3809 3779 3819
4 3809 3779 3819 3829
4 1936 1930 1956 1957
4 2613 2598 2620 2589
4 4182 4135 4148 4155
4 4182 4135 4155 4163
4 4135 4148 4155 4098
4 4148 4182 4155 4191
4 3279 3282 3247 3284
4 1425 1432 1445 1433
4 1445 1425 1433 1441
4 1445 1425 1441 1438
4 1432 1445 1433 1457
4 1433 1445 1441 1463
4 2087 2062 2082 2076
4 3099 3098 3086 3124
4 2801 2782 2805 2818
4 2782 2805 2818 2784
4 1132 1136 1120 1115
4 1120 1132 1115 1123
4 1132 1115 1123 1121
4 1132 1115 1121 1136
4 3282 3279 3323 3302
4 3282 3279 3302 3284
4 3323 3282 3302 3328
4 3302 3282 3284 3328
4 3284 3302 3328 3311
4 3284 3302 3311 3279
4 1527 1538 1547 1539
4 3453 3495 3465 3476
4 1030 1015 1026 1023
4 3177 3187 3152 3149
4 3187 3152 3149 3167
4 3152 3177 3149 3136
4 3149 3152 3136 3111
4 3149 3152 3111 3132
4 3149 3152 3132 3167
4 1573 1577 1595 1553
4 2930 2913 2917 2931
4 2930 2913 2931 2939
4 947 932 940 936
4 1500 1518 1497 1499
4 1500 1518 1499 1521
4 1497 1500 1499 1486
4 1500 1499 1486 1521
4 1518 1499 1521 1501
4 3808 3838 3793 3774
4 2977 2974 3008 2959
4 900 881 891 889
4 4022 4039 4007 4018
4 4039 4007 4018 4020
4 4007 4022 4018 3996
4 1647 1640 1618 1627
4 2248 2264 2267 2270
4 2248 2264 2270 2260
4 1974 1977 2005 1976
4 2890 2902 2918 2919
4 2752 2724 2725 2715
4 1791 1763 1771 1765
4 2778 2794 2781 2818
4 1288 1307 1298 1297
4 1288 1307 1297 1286
4 4094 4058 4048 4087
4 2909 2947 2931 2939
4 1616 1628 1629 1610
4 4221 4187 4225 4198
4 1664 1669 1679 1657
4 4156 4174 4198 4138
4 2808 2783 2788 2790
4 2621 2594 2618 2628
4 3299 3275 3266 3283
4 3266 3299 3283 3277
4 3266 3299 3277 3281
4 3668 3647 3672 3634
4 3647 3672 3634 3617
4 1981 1975 2000 1963
4 3249 3284 3247 3258
4 2156 2120 2138 2129
4 4061 4036 4021 4033
4 1162 1151 1168 1177
4 1168 1162 1177 1186
4 1716 1715 1730 1742
4 1716 1715 1742 1717
4 1716 1715 1717 1697
4 3160 3148 3124 3153
4 2909 2898 2885 2875
4 2000 1992 2018 1981
4 1644 1629 1651 1653
4 1644 1629 1653 1645
4 2611 2642 2637 2617
4 130 132 156 139
4 130 132 139 125
4 2383 2377 2352 2370
4 3989 4030 4010 3990
4 926 916 908 913
4 2939 2949 2947 2984
4 452 444 472 466
4 452 444 466 448
4 452 444 448 423
4 452 444 423 430
4 3372 3332 3351 3328
4 4212 4227 4186 4189
4 4212 4227 4189 4229
4 4227 4186 4189 4171
4 4186 4189 4171 4166
4 4189 4171 4166 4129
4 4212 4227 4229 4276
4 4189 4227 4171 4217
4 4189 4171 4129 4190
4 4171 4189 4217 4190
4 4227 4189 4229 4217
4 4186 4189 4166 4212
4 4189 4166 4212 4169
4 4189 4166 4169 4129
4 1794 1808 1782 1791
4 2429 2434 2432 2459
4 3840 3858 3818 3885
4 3320 3296 3275 3301
4 3275 3320 3301 3283
4 3320 3296 3301 3328
4 3301 3275 3283 3259
4 3301 3320 3328 3363
4 3301 3275 3259 3296
4 3283 3301 3259 3291
4 3296 3301 3328 3284
4 3275 3283 3259 3266
4 2036 2055 2027 2021
4 3471 3470 3422 3433
4 2830 2866 2858 2862
4 2866 2858 2862 2894
4 2830 2866 2862 2850
4 2862 2866 2894 2883
4 2862 2866 2883 2850
4 2858 2830 2862 2827
4 2830 2862 2827 2850
4 2858 2830 2827 2811
4 2827 2830 2850 2816
4 2830 2827 2811 2793
4 2830 2827 2793 2816
4 2862 2858 2827 2840
4 2858 2862 2894 2876
4 2858 2862 2876 2840
4 2876 2858 2840 2821
4 3893 3894 3846 3867
4 3372 3358 3328 3366
4 2064 2057 2042 2069
4 1976 1973 2004 1974
4 3848 3902 3897 3885
4 3685 3709 3665 3707
4 1276 1288 1298 1297
4 2003 1974 2005 2011
4 2005 2003 2011 2043
4 2003 1974 2011 2002
4 2003 2011 2043 2040
4 744 743 734 757
4 1526 1539 1551 1540
4 1526 1539 1540 1521
4 1539 1551 1540 1550
4 1551 1526 1540 1541
4 1540 1526 1521 1522
4 3180 3160 3164 3161
4 3838 3808 3827 3788
4 3838 3808 3788 3774
4 2619 2590 2617 2618
4 1054 1069 1050 1066
4 3207 3205 3201 3164
4 1827 1816 1799 1834
4 631 640 610 608
4 4172 4151 4130 4159
4 4130 4172 4159 4157
4 4151 4130 4159 4128
4 4159 4151 4128 4169
4 4128 4159 4169 4120
4 4151 4128 4169 4136
4 4128 4169 4136 4120
4 2949 2939 2976 2984
4 1374 1358 1352 1369
4 1625 1599 1611 1614
4 1599 1611 1614 1586
4 1611 1614 1586 1598
4 1611 1625 1614 1633
4 1614 1611 1633 1598
4 1754 1773 1732 1735
4 1873 1905 1911 1870
4 2201 2230 2214 2213
4 2214 2201 2213 2183
4 2213 2214 2183 2194
4 2230 2214 2213 2240
4 2214 2213 2240 2224
4 2213 2214 2194 2224
4 1103 1093 1112 1109
4 1130 1135 1149 1128
4 2867 2899 2880 2882
4 2309 2287 2298 2313
4 2298 2309 2313 2350
4 2287 2298 2313 2301
4 2298 2313 2301 2342
4 769 764 773 767
4 1321 1306 1323 1291
4 2167 2156 2138 2158
4 2138 2167 2158 2159
4 2801 2790 2820 2822
4 4126 4122 4167 4129
4 2906 2943 2922 2921
4 2922 2906 2921 2884
4 2921 2922 2884 2917
4 2942 2943 2906 2921
4 2906 2942 2921 2938
4 3709 3753 3733 3729
4 3753 3733 3729 3772
4 3709 3753 3729 3752
4 3729 3753 3772 3752
4 1914 1938 1912 1922
4 794 785 790 784
4 3774 3754 3734 3726
4 3774 3754 3726 3780
4 3364 3378 3334 3350
4 3334 3364 3350 3358
4 3364 3378 3350 3389
4 3364 3378 3389 3401
4 3389 3364 3401 3380
4 3350 3364 3389 3358
4 3378 3389 3401 3412
4 1631 1645 1621 1627
4 3622 3642 3659 3689
4 2473 2469 2442 2432
4 1977 1974 1948 1976
4 2406 2377 2383 2387
4 1973 1976 1949 1974
4 844 827 837 835
4 844 837 853 841
4 837 853 841 848
4 1242 1240 1220 1245
4 3550 3521 3507 3529
4 3507 3550 3529 3524
4 3521 3507 3529 3505
4 3507 3550 3524 3525
4 3529 3521 3505 3566
4 2615 2618 2617 2590
4 2617 2615 2590 2572
4 1816 1827 1839 1837
4 1765 1782 1752 1771
4 3493 3471 3508 3514
4 3493 3471 3514 3515
4 2179 2200 2196 2202
4 1219 1233 1228 1204
4 2997 2962 3002 2961
4 3244 3222 3209 3221
4 1999 1992 1965 1990
4 1965 1999 1990 1968
4 2865 2875 2859 2885
4 2875 2859 2885 2880
4 3643 3620 3604 3638
4 3620 3604 3638 3584
4 3604 3643 3638 3612
4 3604 3643 3612 3616
4 2244 2248 2223 2203
4 4238 4243 4284 4237
4 2940 2962 2960 2961
4 860 867 873 869
4 873 860 869 865
4 3474 3470 3515 3471
4 1970 1972 2001 1989
4 1225 1232 1245 1236
4 1225 1232 1236 1206
4 3175 3134 3156 3157
4 4314 4312 4275 4279
4 4275 4314 4279 4254
4 4279 4275 4254 4228
4 3335 3358 3348 3380
4 1656 1680 1670 1657
4 932 916 926 921
4 2521 2541 2553 2552
4 2553 2521 2552 2532
4 2552 2553 2532 2566
4 2541 2553 2552 2571
4 2553 2552 2571 2582
4 2553 2552 2582 2566
4 2521 2552 2532 2518
4 2521 2552 2518 2541
4 2532 2521 2518 2502
4 2518 2521 2541 2508
4 2518 2521 2508 2488
4 2518 2521 2488 2502
4 2552 2532 2518 2535
4 2532 2518 2535 2502
4 2535 2532 2502 2515
4 2552 2532 2535 2563
4 2532 2535 2563 2515
4 1203 1192 1202 1201
4 2613 2639 2627 2656
4 2000 1975 1957 1963
4 3102 3115 3124 3138
4 3102 3115 3138 3104
4 4278 4289 4252 4301
4 1486 1499 1490 1521
4 4309 4306 4343 4323
4 1752 1767 1741 1753
4 1767 1741 1753 1748
4 1767 1741 1748 1756
4 1741 1752 1753 1736
4 1741 1753 1748 1726
4 1741 1753 1726 1736
4 1752 1753 1736 1771
4 1753 1726 1736 1732
4 1752 1753 1771 1767
4 3623 3620 3663 3638
4 3623 3620 3638 3584
4 3620 3663 3638 3643
4 2475 2508 2488 2486
4 2488 2475 2486 2456
4 2486 2488 2456 2464
4 2486 2488 2464 2502
4 2508 2488 2486 2518
4 2488 2486 2518 2502
4 2456 2486 2464 2454
4 2456 2486 2454 2475
4 2464 2456 2454 2441
4 2454 2456 2475 2447
4 2454 2456 2447 2427
4 2454 2456 2427 2441
4 2486 2464 2454 2465
4 2454 2464 2441 2465
4 2464 2441 2465 2452
4 2464 2486 2502 2499
4 2502 2464 2499 2452
4 2486 2518 2502 2499
4 2447 2454 2427 2425
4 2454 2427 2425 2441
4 2427 2447 2425 2414
4 2425 2427 2414 2394
4 2425 2427 2394 2407
4 2425 2427 2407 2441
4 2486 2464 2465 2499
4 2464 2465 2499 2452
4 2518 2502 2499 2535
4 2502 2499 2535 2515
4 2425 2454 2441 2439
4 2441 2425 2439 2407
4 2439 2441 2407 2399
4 2454 2441 2439 2465
4 2441 2439 2465 2452
4 2414 2425 2394 2392
4 2425 2394 2392 2407
4 2394 2414 2392 2384
4 2392 2394 2384 2366
4 2392 2394 2366 2378
4 2394 2392 2407 2378
4 2392 2425 2407 2402
4 2384 2392 2366 2363
4 2392 2366 2363 2378
4 2366 2384 2363 2353
4 2363 2366 2353 2335
4 2363 2366 2335 2346
4 2366 2363 2378 2346
4 2392 2407 2378 2402
4 2407 2378 2402 2399
4 2402 2407 2399 2439
4 2402 2407 2439 2425
4 2363 2392 2378 2375
4 2335 2363 2346 2345
4 2363 2378 2346 2375
4 2378 2346 2375 2339
4 2392 2378 2375 2402
4 2378 2375 2402 2399
4 2378 2375 2399 2339
4 2375 2402 2399 2371
4 848 861 868 865
4 868 848 865 853
4 861 868 865 875
4 868 865 875 882
4 868 865 882 869
4 868 865 869 853
4 1783 1791 1794 1765
4 1384 1398 1397 1389
4 1398 1397 1389 1438
4 2747 2765 2779 2761
4 2765 2779 2761 2793
4 2761 2765 2793 2785
4 2761 2765 2785 2753
4 2761 2765 2753 2732
4 2761 2765 2732 2747
4 2779 2761 2793 2777
4 2779 2747 2761 2744
4 2779 2747 2744 2757
4 2765 2779 2793 2796
4 2793 2765 2796 2785
4 2779 2793 2796 2811
4 2796 2793 2785 2816
4 2796 2793 2816 2830
4 2796 2793 2830 2811
4 2747 2761 2744 2729
4 2779 2793 2811 2807
4 2811 2779 2807 2757
4 2793 2811 2807 2827
4 2811 2807 2827 2840
4 2811 2807 2840 2821
4 2747 2761 2729 2732
4 2761 2729 2732 2753
4 2729 2732 2753 2721
4 2729 2732 2721 2702
4 2729 2732 2702 2713
4 2729 2732 2713 2747
4 2702 2729 2713 2699
4 2702 2729 2699 2721
4 2713 2702 2699 2685
4 2699 2702 2721 2691
4 2699 2702 2691 2672
4 2699 2702 2672 2685
4 2729 2713 2699 2712
4 2699 2713 2685 2712
4 2713 2685 2712 2697
4 2713 2729 2747 2744
4 2747 2713 2744 2697
4 2588 2618 2597 2594
4 3721 3692 3701 3736
4 4312 4314 4345 4328
4 2556 2572 2579 2561
4 2845 2818 2838 2835
4 2818 2838 2835 2814
4 3060 3080 3096 3081
4 3060 3080 3081 3032
4 3080 3081 3032 3067
4 3080 3081 3067 3105
4 3080 3081 3105 3111
4 3080 3081 3111 3096
4 3096 3060 3081 3082
4 3096 3060 3082 3059
4 2869 2874 2880 2860
4 2880 2869 2860 2859
4 2874 2880 2860 2867
4 2880 2860 2867 2882
4 2860 2880 2859 2875
4 2860 2880 2875 2882
4 4149 4134 4126 4093
4 4126 4149 4093 4096
4 2849 2831 2814 2838
4 2849 2831 2838 2867
4 1911 1905 1890 1870
4 1890 1911 1870 1913
4 1936 1930 1957 1944
4 3780 3763 3735 3727
4 3412 3455 3435 3407
4 3455 3435 3407 3442
4 3514 3532 3515 3549
4 3514 3532 3549 3508
4 3549 3514 3508 3479
4 3515 3514 3549 3505
4 927 937 923 926
4 4001 3960 3972 3935
4 3972 4001 3935 3947
4 2018 1990 2042 2014
4 2018 1990 2014 1981
4 2018 1990 1981 1992
4 1990 2014 1981 1967
4 2042 2018 2014 2038
4 2014 2018 1981 2000
4 4185 4204 4164 4194
4 2196 2188 2179 2202
4 2266 2285 2256 2279
4 1809 1810 1836 1813
4 2571 2600 2582 2580
4 2582 2571 2580 2552
4 2580 2582 2552 2566
4 2600 2582 2580 2610
4 2582 2580 2610 2591
4 2582 2580 2591 2566
4 2580 2591 2566 2592
4 2591 2566 2592 2575
4 2552 2580 2566 2563
4 2566 2552 2563 2532
4 2563 2566 2532 2515
4 2580 2566 2563 2592
4 2566 2563 2592 2575
4 2580 2610 2591 2609
4 2580 2610 2609 2600
4 2610 2591 2609 2625
4 2610 2609 2600 2630
4 2610 2609 2630 2638
4 2610 2609 2638 2625
4 2591 2580 2609 2592
4 2591 2609 2625 2592
4 2625 2591 2592 2575
4 2609 2638 2625 2623
4 2638 2625 2623 2652
4 2625 2623 2652 2634
4 2638 2625 2652 2640
4 2652 2638 2640 2670
4 2638 2640 2670 2660
4 2638 2640 2660 2630
4 2638 2640 2630 2610
4 2638 2640 2610 2625
4 2652 2638 2670 2651
4 2640 2652 2670 2672
4 2670 2640 2672 2660
4 2652 2670 2672 2685
4 2672 2670 2660 2691
4 2672 2670 2691 2699
4 2672 2670 2699 2685
4 2625 2609 2623 2592
4 2623 2625 2592 2634
4 2652 2670 2685 2681
4 2685 2652 2681 2634
4 2670 2699 2685 2681
4 2699 2685 2681 2712
4 2685 2681 2712 2697
4 1402 1400 1387 1418
4 2011 2003 2002 2040
4 1841 1818 1825 1829
4 1818 1825 1829 1803
4 1825 1829 1803 1814
4 1825 1841 1829 1853
4 1829 1825 1853 1831
4 1829 1825 1831 1814
4 1818 1825 1803 1798
4 1825 1803 1798 1814
4 1803 1818 1798 1787
4 1798 1803 1787 1772
4 1798 1803 1772 1814
4 2756 2776 2752 2728
4 3229 3247 3232 3207
4 3608 3594 3617 3591
4 4034 4029 3982 3994
4 4093 4037 4081 4096
4 4279 4275 4228 4262
4 3893 3919 3894 3867
4 2938 2909 2931 2921
4 2599 2583 2570 2585
4 2570 2599 2585 2587
4 2599 2583 2585 2620
4 2583 2570 2585 2569
4 1177 1168 1167 1149
4 4243 4238 4202 4237
4 812 805 804 813
4 1425 1433 1441 1400
4 2197 2211 2227 2220
4 1188 1190 1166 1189
4 1188 1190 1189 1205
4 1611 1599 1588 1586
4 1588 1611 1586 1598
4 1599 1588 1586 1579
4 1588 1586 1579 1568
4 1588 1586 1568 1598
4 3622 3606 3578 3582
4 2361 2382 2389 2398
4 2216 2203 2199 2226
4 2216 2203 2226 2245
4 2226 2216 2245 2229
4 2226 2216 2229 2199
4 2229 2226 2199 2218
4 2245 2226 2229 2260
4 2226 2229 2260 2246
4 2992 2989 3034 2985
4 2992 2989 2985 2953
4 2985 2992 2953 2973
4 3034 2992 2985 3007
4 4053 4062 4108 4085
4 1910 1895 1891 1914
4 2902 2885 2869 2880
4 992 975 984 977
4 1312 1318 1315 1342
4 4289 4298 4301 4325
4 4289 4298 4325 4296
4 1394 1403 1382 1406
4 1403 1382 1406 1389
4 1394 1403 1406 1414
4 1403 1406 1414 1424
4 1403 1406 1424 1389
4 3410 3426 3395 3427
4 1090 1089 1092 1102
4 2979 2947 2984 2991
4 850 867 858 866
4 2010 2030 2046 2044
4 2030 2046 2044 2061
4 2046 2044 2061 2073
4 2046 2044 2073 2041
4 2046 2044 2041 2007
4 2046 2010 2044 2007
4 2044 2030 2061 2008
4 1247 1256 1233 1246
4 2335 2346 2318 2345
4 2346 2318 2345 2339
4 2345 2346 2339 2375
4 2345 2346 2375 2363
4 3053 3038 3082 3059
4 3038 3082 3059 3052
4 2788 2806 2808 2790
4 4136 4170 4169 4151
4 3356 3376 3355 3402
4 2219 2196 2200 2202
4 4149 4162 4187 4197
4 3635 3608 3617 3647
4 3135 3104 3112 3117
4 3135 3104 3117 3138
4 3104 3112 3117 3087
4 3117 3135 3138 3151
4 3373 3375 3346 3395
4 3854 3869 3904 3896
4 4217 4171 4190 4167
4 4171 4190 4167 4129
4 2938 2957 2921 2931
4 2446 2467 2470 2462
4 2446 2467 2462 2432
4 1539 1540 1521 1550
4 4135 4108 4085 4101
4 4085 4135 4101 4098
4 4085 4135 4098 4148
4 4101 4085 4098 4047
4 4135 4101 4098 4155
4 4135 4101 4155 4163
4 4108 4085 4101 4053
4 4101 4098 4155 4103
4 1920 1941 1905 1939
4 1920 1941 1939 1950
4 1941 1905 1939 1923
4 1941 1939 1950 1979
4 1939 1941 1923 1955
4 1939 1941 1955 1982
4 1939 1941 1982 1979
4 2223 2202 2188 2196
4 1782 1752 1771 1767
4 2704 2673 2690 2694
4 1152 1140 1136 1132
4 1136 1152 1132 1154
4 1136 1152 1154 1147
4 1152 1132 1154 1140
4 1136 1152 1147 1153
4 1321 1319 1336 1323
4 1562 1576 1559 1575
4 818 813 821 812
4 2183 2166 2164 2195
4 2166 2164 2195 2176
4 2321 2309 2291 2298
4 2902 2915 2918 2919
4 1877 1851 1859 1891
4 3372 3397 3420 3414
4 3720 3727 3759 3737
4 3720 3727 3737 3696
4 3727 3737 3696 3717
4 2935 2959 2934 2905
4 2104 2117 2135 2143
4 4032 4036 4081 4011
4 3389 3407 3378 3350
4 2700 2714 2717 2688
4 4350 4343 4371 4360
4 4350 4343 4360 4309
4 4343 4371 4360 4366
4 4371 4350 4360 4380
4 1770 1760 1742 1743
4 1742 1770 1743 1755
4 1760 1742 1743 1730
4 1742 1743 1730 1716
4 1742 1743 1716 1717
4 1742 1743 1717 1755
4 3384 3383 3438 3425
4 4322 4297 4336 4346
4 899 910 915 914
4 915 899 914 901
4 910 915 914 924
4 915 914 924 929
4 915 914 929 920
4 915 914 920 901
4 2493 2470 2462 2489
4 3829 3847 3870 3850
4 2730 2739 2749 2717
4 2739 2749 2717 2722
4 2042 2034 2069 2053
4 2042 2034 2053 2014
4 2069 2042 2053 2082
4 2671 2639 2632 2665
4 2671 2639 2665 2656
4 2639 2632 2665 2656
4 1177 1167 1187 1161
4 1177 1167 1161 1149
4 2665 2683 2694 2673
4 3884 3913 3861 3901
4 2704 2734 2724 2725
4 1452 1461 1471 1449
4 1471 1452 1449 1458
4 1452 1461 1449 1437
4 1449 1452 1437 1424
4 1449 1452 1424 1458
4 3827 3854 3867 3828
4 3854 3867 3828 3871
4 2784 2767 2751 2769
4 2751 2784 2769 2772
4 2784 2767 2769 2782
4 2767 2751 2769 2734
4 3811 3795 3787 3839
4 4246 4242 4278 4286
4 4278 4246 4286 4320
4 2033 2066 2035 2025
4 2035 2033 2025 1996
4 2033 2025 1996 1986
4 865 859 847 848
4 847 865 848 860
4 859 847 848 843
4 847 848 843 832
4 847 848 832 841
4 847 848 841 860
4 2019 1990 1998 2034
4 3563 3543 3535 3517
4 3535 3563 3517 3573
4 3543 3535 3517 3498
4 2950 2936 2920 2901
4 2920 2950 2901 2911
4 2901 2920 2911 2876
4 2901 2920 2876 2894
4 2911 2901 2876 2900
4 2068 2057 2098 2082
4 1398 1393 1407 1369
4 3004 3039 3046 3033
4 3004 3039 3033 2992
4 3039 3046 3033 3079
4 3033 3004 2992 2975
4 4087 4128 4120 4114
4 2797 2767 2784 2805
4 3407 3412 3378 3398
4 686 687 671 702
4 2537 2519 2523 2539
4 2162 2156 2167 2175
4 2162 2156 2175 2143
4 3912 3910 3868 3867
4 2540 2523 2507 2525
4 2507 2540 2525 2526
4 2540 2523 2525 2554
4 2523 2507 2525 2487
4 3588 3592 3633 3603
4 3588 3592 3603 3568
4 3633 3588 3603 3609
4 3588 3603 3609 3567
4 3603 3633 3609 3649
4 3588 3603 3567 3568
4 3603 3609 3567 3568
4 3363 3337 3357 3319
4 1086 1094 1099 1076
4 1086 1094 1076 1083
4 1094 1076 1083 1077
4 1094 1099 1076 1077
4 994 1004 987 992
4 3949 3931 3955 3903
4 3868 3821 3828 3833
4 3821 3828 3833 3774
4 3828 3868 3833 3876
4 3945 3946 3904 3952
4 3946 3904 3952 3978
4 2973 2975 3011 2992
4 2774 2745 2734 2725
4 3634 3591 3617 3613
4 3779 3763 3819 3780
4 3189 3207 3223 3184
4 1613 1629 1621 1612
4 833 827 835 826
4 3852 3850 3847 3819
4 3850 3847 3819 3829
4 3852 3850 3819 3876
4 3509 3481 3455 3506
4 2619 2631 2618 2617
4 512 511 542 533
4 2725 2714 2703 2704
4 2703 2725 2704 2724
4 2703 2725 2724 2715
4 2704 2703 2724 2698
4 2703 2724 2698 2715
4 1162 1177 1186 1188
4 2951 2954 2911 2945
4 1233 1242 1260 1249
4 1242 1260 1249 1255
4 429 448 444 423
4 1552 1561 1578 1556
4 2308 2291 2281 2293
4 2281 2308 2293 2299
4 2281 2308 2299 2297
4 2308 2291 2293 2321
4 2485 2476 2490 2459
4 3479 3471 3433 3474
4 1005 998 994 985
4 3247 3229 3221 3207
4 2243 2270 2246 2226
4 3445 3489 3442 3433
4 2683 2689 2694 2703
4 2683 2689 2703 2696
4 3017 2999 3010 3052
4 1976 2006 1977 2005
4 2981 2978 2945 2980
4 4282 4290 4320 4277
4 3478 3505 3463 3507
4 3776 3752 3725 3729
4 3752 3725 3729 3707
4 3729 3752 3707 3709
4 3707 3729 3709 3680
4 3709 3707 3680 3665
4 3680 3709 3665 3684
4 3729 3709 3680 3684
4 3707 3729 3680 3725
4 1318 1328 1342 1331
4 1342 1318 1331 1312
4 472 479 456 452
4 472 479 452 465
4 472 479 465 487
4 472 479 487 511
4 3694 3728 3727 3735
4 2642 2611 2629 2620
4 2611 2629 2620 2599
4 2629 2620 2599 2616
4 968 958 949 955
4 949 968 955 962
4 913 927 923 926
4 1562 1550 1545 1540
4 1562 1550 1540 1551
4 4148 4182 4191 4220
4 4182 4191 4220 4237
4 4191 4220 4237 4210
4 2291 2277 2260 2278
4 2260 2291 2278 2293
4 2291 2277 2278 2298
4 2277 2260 2278 2264
4 2278 2277 2264 2298
4 2291 2278 2293 2298
4 2264 2278 2298 2270
4 2264 2278 2270 2260
4 2278 2298 2270 2293
4 2270 2278 2293 2260
4 1887 1886 1910 1918
4 3509 3522 3506 3568
4 1752 1736 1765 1771
4 3620 3623 3585 3584
4 2047 2062 2076 2053
4 2047 2062 2053 2028
4 2076 2047 2053 2066
4 2053 2047 2028 2014
4 1736 1740 1765 1763
4 1736 1740 1763 1732
4 3102 3084 3104 3069
4 3102 3084 3069 3078
4 3084 3104 3069 3062
4 3104 3069 3062 3087
4 3069 3084 3062 3058
4 3069 3084 3058 3078
4 3058 3069 3078 3037
4 3078 3058 3037 3029
4 3058 3069 3037 3062
4 3069 3102 3078 3116
4 3084 3058 3078 3056
4 3058 3078 3056 3029
4 4246 4244 4282 4260
4 4343 4337 4366 4355
4 4337 4366 4355 4353
4 4343 4337 4355 4323
4 4337 4355 4323 4353
4 1645 1662 1634 1653
4 1662 1634 1653 1646
4 1634 1645 1653 1629
4 1653 1662 1646 1677
4 1662 1634 1646 1649
4 1645 1662 1653 1657
4 1653 1645 1657 1644
4 1657 1653 1644 1651
4 1634 1653 1646 1629
4 1653 1662 1677 1657
4 3690 3740 3710 3661
4 3663 3680 3638 3643
4 2523 2490 2507 2487
4 1392 1405 1400 1379
4 1400 1392 1379 1393
4 1392 1379 1393 1384
4 3941 3967 3920 3950
4 3249 3221 3222 3244
4 3757 3739 3726 3705
4 3739 3726 3705 3672
4 3726 3705 3672 3689
4 3705 3739 3672 3692
4 3726 3705 3689 3734
4 3379 3363 3357 3403
4 4312 4345 4347 4334
4 4312 4345 4334 4328
4 4345 4347 4334 4377
4 3441 3445 3389 3433
4 4164 4173 4132 4150
4 4173 4132 4150 4107
4 4132 4164 4150 4106
4 4150 4132 4106 4107
4 3573 3602 3581 3615
4 2814 2797 2784 2805
4 4189 4212 4229 4169
4 4061 4036 4033 4011
4 2951 2911 2907 2945
4 897 880 891 890
4 4223 4192 4168 4190
4 3639 3671 3689 3619
4 2739 2778 2749 2771
4 1827 1816 1834 1837
4 543 542 573 556
4 2007 2006 2044 2041
4 2079 2092 2078 2105
4 2092 2078 2105 2082
4 2078 2105 2082 2069
4 2082 2078 2069 2064
4 2078 2105 2069 2079
4 2069 2078 2079 2064
4 1421 1422 1405 1400
4 3352 3350 3398 3356
4 3352 3350 3356 3323
4 2149 2181 2165 2143
4 1695 1680 1704 1683
4 1704 1695 1683 1712
4 3795 3764 3738 3736
4 2550 2556 2579 2561
4 1319 1322 1336 1323
4 3847 3895 3870 3850
4 3847 3895 3850 3882
4 2422 2442 2453 2467
4 3420 3444 3479 3478
4 3101 3068 3077 3065
4 981 972 969 983
4 835 829 827 837
4 1489 1499 1501 1490
4 3988 3965 4005 4009
4 3965 4005 4009 3969
4 4005 3988 4009 4035
4 1930 1956 1935 1910
4 2369 2355 2333 2342
4 3252 3293 3276 3291
4 975 958 968 960
4 2941 2927 2939 2962
4 1076 1086 1079 1099
4 1079 1076 1099 1077
4 1079 1076 1077 1059
4 1079 1076 1059 1066
4 1076 1059 1066 1062
4 1099 1079 1077 1091
4 1076 1077 1059 1062
4 1077 1079 1059 1068
4 4100 4108 4152 4101
4 4100 4108 4101 4053
4 4152 4100 4101 4106
4 3522 3481 3506 3503
4 1348 1356 1334 1357
4 1356 1334 1357 1345
4 1348 1356 1357 1372
4 1356 1357 1372 1382
4 1356 1357 1382 1345
4 821 826 827 818
4 1136 1120 1115 1116
4 1120 1115 1116 1099
4 1136 1120 1116 1129
4 1120 1115 1099 1103
4 1116 1120 1099 1111
4 1115 1136 1116 1121
4 1115 1116 1099 1094
4 1099 1115 1094 1103
4 1115 1094 1103 1101
4 1115 1094 1101 1116
4 1116 1099 1094 1096
4 1099 1094 1096 1077
4 1116 1099 1096 1107
4 1096 1099 1077 1091
4 1094 1116 1096 1101
4 1094 1096 1077 1083
4 4163 4108 4135 4101
4 4100 4113 4063 4106
4 4100 4113 4106 4152
4 2801 2782 2818 2794
4 671 668 639 658
4 671 668 658 686
4 2618 2606 2628 2594
4 3372 3400 3366 3403
4 1971 1989 1954 1986
4 2883 2916 2897 2894
4 2916 2897 2894 2936
4 2897 2883 2894 2866
4 2894 2897 2866 2858
4 2897 2894 2936 2901
4 2894 2897 2858 2901
4 1172 1157 1167 1175
4 1897 1934 1919 1929
4 1934 1919 1929 1947
4 1919 1929 1947 1906
4 1919 1929 1906 1883
4 1919 1897 1929 1883
4 1929 1947 1906 1937
4 1906 1919 1883 1891
4 1929 1947 1937 1970
4 1947 1937 1970 1954
4 4027 4037 3999 3980
4 3184 3189 3175 3210
4 3175 3184 3210 3193
4 3674 3701 3672 3617
4 2673 2642 2659 2658
4 2673 2642 2658 2637
4 2642 2659 2658 2629
4 2659 2673 2658 2690
4 874 869 885 873
4 869 885 873 882
4 874 869 873 867
4 1937 1940 1954 1922
4 1954 1937 1922 1947
4 4152 4163 4202 4155
4 3967 3989 3990 3941
4 1810 1821 1836 1835
4 2725 2728 2756 2752
4 2725 2728 2752 2715
4 4163 4152 4108 4101
4 2909 2898 2875 2921
4 4225 4187 4192 4138
4 1633 1636 1650 1625
4 1633 1636 1625 1614
4 1633 1636 1614 1632
4 1732 1714 1754 1735
4 3284 3267 3247 3279
4 883 893 899 898
4 899 883 898 885
4 893 899 898 909
4 899 898 909 914
4 899 898 914 901
4 899 898 901 885
4 2467 2469 2485 2432
4 2938 2942 2928 2906
4 1204 1228 1220 1242
4 3941 3928 3950 3920
4 3754 3798 3747 3780
4 2669 2665 2632 2649
4 874 858 869 867
4 3982 3969 4009 4034
4 3709 3733 3684 3729
4 4318 4331 4354 4359
4 4331 4354 4359 4367
4 2751 2734 2720 2736
4 2720 2751 2736 2738
4 2751 2734 2736 2769
4 2736 2751 2769 2771
4 2734 2720 2736 2704
4 2703 2683 2673 2694
4 904 916 921 913
4 2870 2849 2837 2855
4 2837 2870 2855 2848
4 2837 2870 2848 2856
4 2849 2837 2855 2814
4 2068 2065 2057 2082
4 1834 1806 1827 1810
4 4155 4148 4191 4141
4 2845 2875 2881 2884
4 1986 1969 1967 1951
4 1986 1969 1951 1954
4 1969 1967 1951 1932
4 3919 3869 3896 3904
4 3935 3897 3912 3947
4 3221 3229 3222 3196
4 3336 3352 3356 3322
4 867 880 874 881
4 4311 4270 4264 4281
4 4270 4264 4281 4220
4 2446 2422 2467 2432
4 2992 2972 2989 2953
4 2992 2972 2953 2974
4 4219 4221 4225 4252
4 4225 4219 4252 4223
4 1321 1328 1318 1331
4 724 726 734 702
4 1154 1166 1152 1161
4 2507 2490 2474 2487
4 2976 2961 2962 2927
4 2906 2921 2884 2881
4 3201 3205 3161 3164
4 890 897 907 891
4 858 844 850 852
4 4304 4302 4261 4292
4 4304 4302 4292 4342
4 4261 4304 4292 4259
4 3659 3689 3681 3622
4 2899 2930 2917 2932
4 938 925 929 930
4 925 929 930 915
4 929 930 915 920
4 929 938 930 946
4 930 929 946 934
4 3247 3249 3258 3221
4 3249 3258 3221 3259
4 3249 3258 3259 3284
4 3258 3221 3259 3230
4 3258 3247 3221 3252
4 3221 3249 3259 3244
4 3258 3259 3284 3291
4 3258 3259 3291 3230
4 3259 3249 3284 3296
4 3474 3470 3471 3433
4 4311 4313 4270 4281
4 3150 3164 3184 3151
4 4318 4294 4296 4354
4 1891 1876 1895 1862
4 3086 3056 3066 3072
4 1291 1278 1268 1282
4 1278 1268 1282 1258
4 1282 1278 1258 1276
4 3558 3535 3523 3584
4 3558 3535 3584 3583
4 3578 3553 3549 3582
4 3578 3553 3582 3606
4 2282 2287 2313 2301
4 1232 1245 1236 1263
4 3857 3843 3865 3817
4 4192 4197 4168 4149
4 4168 4192 4149 4190
4 1976 1977 1952 1948
4 3051 3062 3016 3040
4 3051 3062 3040 3063
4 3040 3051 3063 3007
4 3016 3051 3040 3007
4 2115 2120 2129 2098
4 2129 2115 2098 2123
4 1685 1670 1683 1662
4 3479 3514 3515 3505
4 3479 3514 3505 3549
4 4148 4155 4098 4141
4 3604 3583 3558 3584
4 3558 3604 3584 3612
4 1359 1370 1384 1358
4 1994 1986 1967 2014
4 868 876 883 882
4 883 868 882 869
4 876 883 882 892
4 883 882 892 898
4 883 882 898 885
4 883 882 885 869
4 3116 3139 3151 3138
4 2497 2487 2485 2519
4 2487 2485 2519 2490
4 2487 2485 2490 2459
4 2490 2487 2459 2474
4 2199 2167 2189 2187
4 2199 2167 2187 2175
4 2189 2199 2187 2218
4 3757 3761 3715 3705
4 3882 3876 3899 3850
4 3899 3882 3850 3895
4 2913 2917 2931 2880
4 3400 3372 3420 3403
4 4313 4311 4348 4327
4 3252 3257 3248 3223
4 3252 3257 3223 3245
4 3536 3532 3515 3496
4 3536 3532 3496 3504
4 4299 4322 4300 4346
4 1996 1989 2025 2035
4 1177 1192 1186 1187
4 1186 1177 1187 1188
4 1806 1791 1815 1810
4 3721 3701 3698 3738
4 3721 3701 3738 3736
4 3701 3698 3738 3708
4 3698 3721 3738 3789
4 4345 4340 4370 4358
4 4345 4340 4358 4328
4 4340 4358 4328 4356
4 4340 4370 4358 4356
4 1821 1809 1836 1850
4 1836 1821 1850 1835
4 1970 1980 1947 1954
4 3164 3153 3161 3160
4 3164 3153 3160 3124
4 3160 3164 3124 3138
4 3160 3164 3138 3191
4 3811 3787 3789 3839
4 3548 3560 3588 3568
4 3464 3434 3443 3478
4 2319 2332 2348 2342
4 913 923 907 908
4 1922 1906 1889 1891
4 3934 3979 3951 3930
4 2637 2619 2611 2617
4 2637 2619 2617 2649
4 3401 3389 3380 3422
4 3788 3782 3827 3795
4 3788 3782 3795 3736
4 640 631 639 608
4 1787 1760 1770 1772
4 1760 1770 1772 1743
4 1770 1772 1743 1755
4 1770 1787 1772 1798
4 1772 1770 1798 1778
4 1772 1770 1778 1755
4 2529 2548 2558 2577
4 840 835 833 844
4 2123 2124 2115 2098
4 2820 2801 2822 2842
4 1859 1866 1883 1848
4 1859 1866 1848 1830
4 1980 1968 1947 1990
4 3299 3283 3277 3319
4 3299 3283 3319 3320
4 3283 3277 3319 3291
4 3277 3299 3319 3357
4 2570 2554 2540 2557
4 2540 2570 2557 2559
4 2570 2554 2557 2569
4 2554 2540 2557 2525
4 2540 2557 2525 2542
4 1915 1922 1889 1921
4 3550 3521 3529 3566
4 2197 2227 2209 2210
4 2197 2227 2210 2220
4 841 850 860 853
4 860 841 853 848
4 1433 1445 1463 1457
4 1974 2005 2011 2004
4 2005 2011 2004 2041
4 3763 3779 3727 3780
4 1947 1968 1929 1934
4 2947 2931 2939 2991
4 1949 1952 1916 1948
4 2808 2822 2790 2815
4 3003 2992 3034 3039
4 891 874 885 880
4 3801 3800 3772 3753
4 3772 3801 3753 3773
4 2980 3010 2981 2978
4 3310 3311 3284 3328
4 2720 2704 2690 2694
4 2443 2408 2420 2428
4 4202 4163 4182 4155
4 1192 1202 1201 1186
4 3041 3005 3027 3036
4 3140 3160 3124 3115
4 3715 3734 3705 3761
4 2359 2331 2347 2350
4 1501 1488 1490 1514
4 2011 2005 2043 2041
4 4040 4019 3998 4012
4 4040 4019 4012 4053
4 4019 3998 4012 3996
4 4012 4019 3996 4053
4 3998 4040 4012 4047
4 4040 4012 4047 4053
4 2342 2332 2302 2319
4 858 853 869 860
4 853 869 860 865
4 858 853 860 850
4 869 858 860 867
4 977 994 987 992
4 4202 4194 4152 4155
4 2944 2912 2953 2926
4 2953 2944 2926 2934
4 2912 2953 2926 2922
4 2953 2926 2922 2958
4 2926 2912 2922 2886
4 2922 2926 2886 2908
4 2902 2913 2939 2909
4 1795 1810 1781 1782
4 3301 3328 3284 3291
4 3161 3148 3160 3153
4 2458 2473 2442 2432
4 3646 3680 3684 3615
4 4306 4265 4288 4309
4 4182 4155 4191 4237
4 1518 1497 1499 1527
4 1499 1518 1527 1510
4 1499 1518 1510 1501
4 844 837 841 835
4 3919 3946 3969 3936
4 3946 3969 3936 3978
4 806 822 809 816
4 809 806 816 787
4 3188 3196 3154 3191
4 3188 3196 3191 3221
4 3801 3825 3773 3772
4 3505 3479 3463 3474
4 3003 3036 3034 2989
4 415 423 401 396
4 2945 2978 2935 2951
4 1233 1222 1235 1204
4 3296 3301 3284 3259
4 3464 3443 3436 3490
4 4129 4094 4136 4120
4 4129 4094 4120 4126
4 4265 4309 4264 4288
4 1220 1240 1236 1245
4 2151 2145 2162 2180
4 1298 1312 1315 1301
4 1312 1315 1301 1345
4 4194 4202 4238 4237
4 3622 3644 3640 3681
4 4278 4286 4325 4320
4 2227 2243 2246 2210
4 2282 2279 2301 2313
4 2282 2279 2313 2305
4 3880 3840 3848 3885
4 3548 3588 3567 3568
4 3873 3897 3910 3845
4 3529 3507 3524 3490
4 2978 2981 3017 3010
4 1191 1190 1210 1206
4 1191 1190 1206 1189
4 1191 1190 1189 1169
4 4172 4151 4159 4193
4 2459 2429 2445 2426
4 1358 1350 1365 1352
4 3634 3639 3672 3668
4 2337 2350 2325 2309
4 2014 2038 2053 2042
4 4063 4053 4100 4106
4 2613 2598 2589 2596
4 2589 2613 2596 2612
4 2980 2981 2983 2954
4 2980 2981 2954 2945
4 2948 2951 2907 2935
4 2381 2359 2347 2350
4 3102 3124 3078 3116
4 2875 2844 2860 2838
4 2860 2875 2838 2882
4 4042 4027 3999 3990
4 3999 4042 3990 4024
4 4227 4260 4217 4277
4 2717 2714 2722 2694
4 2714 2722 2694 2704
4 2717 2714 2694 2688
4 2003 2001 1989 2040
4 1205 1204 1220 1209
4 2611 2583 2599 2620
4 1810 1809 1781 1813
4 1990 1965 1968 1953
4 1965 1968 1953 1934
4 897 913 907 908
4 897 913 908 904
4 2000 2023 1975 1984
4 2257 2227 2246 2242
4 2199 2186 2167 2175
4 2196 2219 2211 2220
4 2196 2219 2220 2203
4 1606 1616 1613 1584
4 2377 2406 2398 2387
4 1958 1972 1989 2003
4 4030 4042 4010 3990
4 2076 2087 2104 2082
4 2649 2631 2619 2617
4 3646 3623 3638 3602
4 3623 3638 3602 3584
4 3638 3646 3602 3615
4 2957 2938 2979 2931
4 1222 1233 1219 1204
4 3895 3920 3870 3899
4 3838 3868 3828 3867
4 3868 3828 3867 3866
4 3828 3838 3867 3827
4 4342 4304 4344 4332
4 4342 4304 4332 4292
4 4304 4332 4292 4307
4 4344 4342 4332 4378
4 2473 2451 2476 2432
4 3979 4007 3951 3976
4 4007 3951 3976 4020
4 3951 3979 3976 3930
4 3976 3951 3930 3933
4 3495 3456 3465 3477
4 3456 3465 3477 3426
4 3465 3477 3426 3458
4 3456 3465 3426 3410
4 1680 1707 1704 1679
4 3972 3954 3994 4011
4 371 372 368 384
4 4090 4113 4106 4063
4 2912 2944 2905 2926
4 3811 3782 3795 3827
4 1987 1995 2021 1991
4 3945 3988 4005 3952
4 3845 3873 3876 3910
4 1736 1724 1726 1741
4 3283 3266 3277 3230
4 3054 3087 3063 3090
4 3087 3063 3090 3109
4 3063 3054 3090 3033
4 4035 4057 4034 4005
4 4057 4034 4005 4064
4 891 908 897 907
4 3138 3135 3176 3151
4 2932 2958 2917 2926
4 4130 4159 4128 4114
4 2257 2273 2289 2270
4 2289 2257 2270 2271
4 873 880 890 885
4 890 873 885 882
4 3400 3433 3422 3389
4 2175 2203 2180 2210
4 2537 2560 2569 2554
4 2569 2537 2554 2539
4 4284 4317 4272 4279
4 3548 3567 3522 3568
4 2998 2991 3024 2984
4 4283 4303 4305 4330
4 4303 4305 4330 4353
4 4283 4303 4330 4301
4 4330 4303 4353 4301
4 3509 3548 3522 3568
4 3282 3291 3258 3284
4 3550 3529 3524 3577
4 1576 1562 1585 1584
4 1576 1562 1584 1575
4 1809 1795 1781 1767
4 1795 1781 1767 1782
4 3011 2975 3015 3033
4 2975 2973 2934 2953
4 3648 3694 3682 3673
4 3336 3356 3355 3309
4 1921 1949 1916 1908
4 1235 1225 1242 1220
4 984 975 968 971
4 968 984 971 979
4 2305 2300 2284 2313
4 2909 2885 2902 2880
4 927 943 937 940
4 1132 1140 1151 1154
4 2922 2906 2884 2878
4 4061 4058 4081 4036
4 4061 4058 4036 4011
4 3535 3518 3523 3487
4 2165 2181 2197 2180
4 664 658 671 639
4 2156 2138 2158 2143
4 1250 1243 1227 1229
4 1227 1250 1229 1232
4 1243 1227 1229 1215
4 1227 1229 1215 1212
4 1227 1229 1212 1232
4 1877 1910 1891 1859
4 2337 2309 2321 2350
4 2082 2062 2053 2076
4 2175 2180 2162 2143
4 2325 2313 2309 2350
4 3800 3752 3772 3753
4 791 782 787 806
4 1680 1656 1679 1657
4 3443 3414 3436 3403
4 3495 3465 3476 3518
4 3474 3441 3470 3433
4 1425 1432 1433 1422
4 1432 1433 1422 1443
4 1433 1422 1443 1440
4 1443 1433 1440 1463
4 1432 1433 1443 1457
4 1433 1422 1440 1400
4 1422 1443 1440 1418
4 1433 1440 1463 1441
4 1433 1440 1441 1400
4 2778 2781 2771 2818
4 2166 2150 2164 2131
4 2164 2166 2131 2176
4 2847 2813 2835 2833
4 2995 2998 3024 3000
4 3000 3024 2984 2998
4 2286 2303 2318 2316
4 2318 2286 2316 2268
4 2303 2318 2316 2335
4 2318 2316 2335 2345
4 2318 2316 2345 2339
4 2316 2345 2339 2315
4 1914 1895 1932 1910
4 3549 3547 3566 3505
4 1862 1835 1851 1849
4 1862 1835 1849 1850
4 1835 1849 1850 1836
4 1849 1850 1836 1889
4 1849 1862 1850 1891
4 1336 1338 1321 1323
4 1338 1321 1323 1337
4 1338 1321 1337 1331
4 1337 1338 1331 1369
4 2167 2156 2158 2175
4 2158 2167 2175 2187
4 2175 2158 2187 2165
4 2156 2158 2175 2143
4 2158 2175 2143 2165
4 2158 2167 2187 2159
4 2474 2459 2445 2462
4 2943 2922 2921 2957
4 2922 2921 2957 2958
4 3643 3638 3612 3664
4 2289 2302 2319 2301
4 943 955 937 940
4 2180 2196 2211 2220
4 2180 2196 2220 2203
4 2030 2049 2061 2008
4 2493 2467 2487 2462
4 2248 2243 2220 2226
4 2220 2248 2226 2203
4 2226 2220 2203 2210
4 2226 2220 2210 2243
4 2220 2203 2210 2180
4 3947 3944 3992 4001
4 2967 2991 2964 2931
4 2969 2967 2930 2931
4 3681 3697 3735 3723
4 2219 2238 2248 2223
4 2377 2383 2387 2370
4 3772 3729 3752 3776
4 3735 3754 3726 3689
4 637 638 668 639
4 637 638 639 606
4 668 637 639 658
4 2267 2263 2290 2301
4 3344 3328 3335 3311
4 2882 2867 2849 2838
4 3489 3474 3492 3463
4 1162 1151 1177 1154
4 1404 1412 1425 1398
4 3969 3982 3936 3994
4 3969 3982 3994 4034
4 3936 3969 3994 3954
4 3936 3969 3954 3978
4 3634 3619 3591 3613
4 2120 2092 2098 2115
4 2337 2321 2352 2350
4 3038 3053 3018 3059
4 3008 3004 3046 3033
4 1896 1894 1930 1918
4 3550 3524 3525 3577
4 4283 4252 4301 4278
4 3351 3372 3328 3363
4 3351 3372 3363 3379
4 2936 2920 2901 2894
4 2936 2920 2894 2916
4 3176 3135 3158 3151
4 1970 1972 1989 1954
4 1321 1337 1331 1309
4 1337 1331 1309 1345
4 4344 4307 4352 4332
4 3184 3189 3210 3223
4 3065 3103 3085 3077
4 1948 1940 1908 1949
4 1425 1441 1438 1398
4 4187 4197 4192 4149
4 2293 2281 2299 2265
4 3328 3335 3311 3302
4 3335 3311 3302 3279
4 3328 3335 3302 3323
4 3266 3244 3227 3230
4 977 987 971 984
4 987 971 984 979
4 926 940 927 937
4 2018 2042 2057 2038
4 2590 2560 2569 2572
4 2569 2590 2572 2598
4 2569 2590 2598 2583
4 2951 2980 2945 2978
4 2898 2909 2938 2921
4 4331 4318 4320 4359
4 1011 1015 1023 1004
4 2855 2837 2848 2799
4 2004 2006 2005 2041
4 2412 2398 2406 2387
4 1937 1922 1947 1906
4 2585 2599 2620 2589
4 2620 2585 2589 2598
4 2585 2589 2598 2561
4 2620 2585 2598 2583
4 2585 2599 2589 2587
4 2585 2589 2561 2542
4 2598 2585 2561 2569
4 2585 2598 2583 2569
4 2642 2658 2637 2617
4 1967 1951 1932 1956
4 3007 3011 3054 3033
4 1606 1613 1621 1596
4 1613 1621 1596 1612
4 1606 1613 1596 1584
4 1613 1596 1584 1587
4 2979 2968 3001 3005
4 3257 3252 3276 3245
4 3252 3276 3245 3260
4 3524 3529 3490 3537
4 3639 3672 3668 3671
4 940 926 934 937
4 934 940 937 949
4 937 934 949 946
4 668 671 693 698
4 668 671 698 686
4 2286 2274 2288 2255
4 2288 2286 2255 2268
4 1193 1190 1210 1194
4 1193 1190 1194 1170
4 1210 1193 1194 1215
4 1194 1193 1170 1164
4 1193 1194 1215 1195
4 1193 1194 1195 1164
4 1165 1144 1156 1153
4 1419 1402 1418 1400
4 1657 1643 1664 1644
4 1664 1657 1644 1669
4 1644 1664 1669 1628
4 1657 1643 1644 1645
4 2055 2058 2027 2021
4 1890 1916 1913 1888
4 1916 1913 1888 1908
4 1913 1888 1908 1867
4 1890 1916 1888 1874
4 1913 1888 1867 1890
4 1916 1888 1874 1921
4 1916 1888 1921 1908
4 1888 1874 1921 1889
4 1916 1913 1908 1948
4 1888 1908 1867 1889
4 885 874 873 880
4 4307 4304 4259 4292
4 2243 2227 2211 2220
4 2243 2227 2220 2210
4 4264 4311 4281 4309
4 4291 4331 4320 4322
4 2011 2043 2040 2029
4 2209 2197 2210 2185
4 3784 3807 3760 3779
4 2958 2932 2933 2926
4 4159 4151 4169 4193
4 2391 2404 2381 2401
4 1851 1862 1849 1891
4 2572 2573 2590 2560
4 1952 1950 1941 1920
4 1952 1950 1920 1913
4 3721 3698 3700 3789
4 938 956 945 946
4 945 938 946 930
4 946 945 930 934
4 956 945 946 961
4 945 946 961 949
4 945 946 949 934
4 1961 1991 1995 1987
4 1243 1251 1229 1250
4 1251 1229 1250 1232
4 1243 1251 1250 1261
4 1251 1250 1261 1270
4 1251 1250 1270 1263
4 1250 1251 1232 1263
4 1261 1251 1270 1272
4 1251 1270 1272 1263
4 1270 1261 1272 1283
4 1272 1270 1283 1289
4 1272 1270 1289 1263
4 3540 3583 3535 3558
4 2991 2967 2969 2931
4 1122 1128 1135 1130
4 3764 3736 3721 3738
4 3721 3764 3738 3789
4 960 977 971 975
4 1918 1887 1919 1910
4 2933 2926 2973 2953
4 2933 2926 2953 2958
4 1188 1186 1204 1187
4 1704 1708 1736 1726
4 1704 1708 1726 1683
4 1704 1708 1683 1679
4 1940 1915 1908 1921
4 4304 4344 4332 4307
4 3336 3356 3309 3322
4 4300 4302 4349 4326
4 4300 4302 4326 4248
4 4349 4300 4326 4346
4 2219 2222 2223 2202
4 3358 3328 3366 3323
4 920 908 901 907
4 901 920 907 914
4 908 901 907 891
4 920 908 907 923
4 907 920 923 914
4 3414 3443 3420 3403
4 1724 1741 1712 1726
4 1741 1712 1726 1748
4 1712 1724 1726 1704
4 956 973 961 962
4 961 956 962 946
4 962 961 946 949
4 973 961 962 980
4 961 962 980 968
4 961 962 968 949
4 1889 1906 1863 1883
4 3591 3566 3594 3529
4 2913 2931 2939 2909
4 2913 2931 2909 2880
4 2557 2525 2542 2561
4 2557 2525 2561 2539
4 2561 2557 2539 2554
4 2557 2525 2539 2554
4 2525 2561 2539 2536
4 2561 2557 2554 2569
4 2561 2557 2569 2585
4 2561 2557 2585 2542
4 2550 2579 2568 2561
4 2568 2550 2561 2536
4 2561 2568 2536 2549
4 3638 3604 3612 3584
4 3518 3523 3487 3476
4 3487 3518 3476 3465
4 3476 3487 3465 3427
4 3465 3476 3427 3453
4 3427 3465 3453 3410
4 3487 3465 3427 3458
4 3487 3465 3458 3477
4 3487 3465 3477 3518
4 3458 3487 3477 3494
4 3518 3523 3476 3533
4 964 969 960 975
4 3736 3739 3692 3701
4 1326 1348 1334 1333
4 1334 1326 1333 1314
4 1333 1334 1314 1315
4 1348 1334 1333 1357
4 1334 1333 1357 1345
4 1334 1333 1345 1315
4 1974 1958 1948 1949
4 1753 1767 1748 1781
4 1753 1767 1781 1771
4 1781 1753 1771 1776
4 1767 1748 1781 1809
4 1748 1753 1781 1776
4 1767 1781 1771 1782
4 1412 1404 1393 1407
4 3634 3619 3613 3673
4 2579 2596 2568 2561
4 593 613 610 609
4 613 610 609 630
4 610 593 609 583
4 609 610 583 608
4 609 610 608 631
4 609 610 631 630
4 3954 3994 4011 3969
4 847 842 831 832
4 831 847 832 841
4 842 831 832 824
4 831 832 824 816
4 831 832 816 822
4 832 831 841 837
4 832 831 837 822
4 4037 4042 3999 4024
4 3115 3138 3160 3124
4 3972 3954 4011 3992
4 3398 3412 3435 3407
4 3435 3398 3407 3402
4 3389 3364 3380 3358
4 4164 4150 4106 4152
4 4164 4150 4152 4194
4 4150 4106 4152 4121
4 1837 1852 1834 1827
4 1187 1177 1161 1188
4 4130 4097 4073 4128
4 3764 3787 3738 3789
4 3948 3980 3989 3999
4 3948 3980 3999 3964
4 3948 3980 3964 3947
4 3980 3964 3947 3992
4 3964 3947 3992 3978
4 3980 3964 3992 3999
4 3964 3948 3947 3911
4 3947 3964 3911 3927
4 3964 3992 3999 3991
4 3640 3666 3633 3648
4 3640 3666 3648 3681
4 1151 1149 1168 1177
4 3436 3443 3403 3452
4 2969 2932 2917 2930
4 3754 3734 3726 3689
4 1835 1851 1849 1834
4 891 885 901 890
4 885 901 890 898
4 891 885 890 880
4 901 891 890 907
4 890 901 907 898
4 4027 3999 3990 3989
4 3999 3990 3989 3948
4 2053 2082 2076 2069
4 1862 1876 1850 1891
4 1876 1850 1891 1889
4 1891 1876 1889 1912
4 1085 1065 1071 1068
4 1065 1071 1068 1052
4 1071 1068 1052 1059
4 1071 1085 1068 1088
4 1068 1071 1088 1077
4 1449 1437 1423 1424
4 1423 1449 1424 1438
4 1437 1423 1424 1414
4 1423 1424 1414 1406
4 1423 1424 1406 1397
4 3585 3602 3584 3623
4 3184 3175 3156 3193
4 2632 2617 2649 2658
4 3489 3455 3442 3506
4 2203 2199 2226 2187
4 4275 4312 4262 4279
4 1980 1970 2001 1989
4 2318 2316 2339 2268
4 2159 2122 2136 2141
4 2159 2122 2141 2138
4 2122 2136 2141 2102
4 3058 3037 3029 3024
4 3037 3029 3024 2984
4 3058 3037 3024 3006
4 4348 4311 4350 4335
4 4350 4348 4335 4380
4 4348 4311 4335 4327
4 4311 4350 4335 4309
4 747 750 758 734
4 1895 1932 1910 1907
4 3046 3033 3079 3057
4 3062 3016 3040 3042
4 3738 3701 3708 3755
4 3738 3701 3755 3736
4 2944 2948 2905 2959
4 3950 3928 3899 3920
4 1554 1534 1543 1544
4 1534 1543 1544 1517
4 1543 1544 1517 1532
4 1543 1554 1544 1568
4 1544 1543 1568 1574
4 3682 3694 3727 3732
4 3507 3529 3505 3490
4 2989 3001 3036 3027
4 3001 3036 3027 3005
4 2989 3001 3027 2979
4 3027 3001 3005 2979
4 3414 3436 3403 3379
4 2794 2813 2781 2818
4 3470 3422 3433 3441
4 3507 3478 3464 3443
4 3954 3972 3947 3992
4 3947 3954 3992 3978
4 2989 2957 2979 2958
4 2989 2957 2958 2953
4 3000 2976 2995 2998
4 3320 3275 3299 3283
4 1338 1328 1331 1342
4 889 880 881 891
4 4307 4310 4352 4329
4 4307 4310 4329 4255
4 3161 3205 3181 3164
4 3058 3042 3062 3037
4 3058 3042 3037 3006
4 3058 3042 3006 3024
4 2794 2829 2813 2818
4 3524 3507 3525 3490
4 3525 3524 3490 3537
4 1596 1612 1587 1613
4 1938 1969 1954 1951
4 1938 1969 1951 1932
4 1954 1938 1951 1922
4 1954 1938 1922 1912
4 1951 1938 1932 1914
4 3396 3422 3384 3382
4 702 698 671 686
4 573 574 549 543
4 573 574 543 556
4 4305 4323 4271 4283
4 531 519 512 542
4 2974 2959 2944 2953
4 3283 3259 3266 3230
4 1851 1834 1852 1827
4 1851 1834 1827 1849
4 2105 2120 2098 2129
4 2105 2120 2129 2138
4 2098 2105 2129 2116
4 1975 1957 1963 1936
4 3373 3329 3347 3346
4 511 512 486 479
4 511 512 479 509
4 511 512 509 533
4 1958 1989 2002 2003
4 2627 2613 2656 2620
4 3190 3176 3158 3179
4 3158 3190 3179 3183
4 3158 3190 3183 3203
4 960 971 955 968
4 971 955 968 962
4 4042 4051 4010 4031
4 1245 1225 1236 1220
4 1540 1521 1550 1545
4 1540 1521 1545 1522
4 4262 4310 4255 4285
4 4310 4255 4285 4329
4 4255 4262 4285 4200
4 4285 4310 4329 4334
4 1197 1176 1195 1196
4 1195 1197 1196 1214
4 1176 1195 1196 1165
4 1195 1196 1165 1194
4 1195 1196 1194 1216
4 1195 1196 1216 1214
4 1883 1859 1848 1849
4 4252 4263 4221 4225
4 4263 4221 4225 4271
4 4106 4113 4164 4152
4 3535 3518 3487 3477
4 3517 3477 3535 3487
4 3517 3477 3487 3494
4 3535 3517 3487 3494
4 3389 3407 3350 3366
4 1472 1486 1480 1489
4 2779 2793 2807 2777
4 2807 2779 2777 2757
4 1190 1205 1210 1206
4 1205 1210 1206 1236
4 1190 1205 1206 1189
4 4286 4246 4282 4320
4 3068 3041 3027 3036
4 2822 2815 2801 2790
4 1441 1445 1438 1470
4 2467 2487 2462 2459
4 4259 4261 4214 4247
4 4259 4261 4247 4292
4 4261 4247 4292 4248
4 4261 4214 4247 4248
4 3008 2999 2959 3004
4 2039 2001 2040 2025
4 3064 3030 3066 3056
4 3435 3457 3413 3437
4 3457 3413 3437 3447
4 3457 3413 3447 3440
4 2270 2257 2246 2271
4 2257 2246 2271 2242
4 2246 2271 2242 2265
4 2271 2242 2265 2262
4 2242 2246 2265 2218
4 2246 2271 2265 2293
4 3972 4011 4001 3992
4 2033 2047 2066 2034
4 4276 4322 4277 4280
4 4276 4322 4280 4300
4 4034 4009 4035 4005
4 4034 4009 4005 3969
4 1242 1245 1258 1255
4 2681 2712 2697 2676
4 2813 2845 2835 2818
4 2105 2098 2082 2116
4 3990 3999 4024 3950
4 3990 3999 3950 3948
4 1490 1488 1470 1487
4 1488 1470 1487 1482
4 1490 1488 1487 1514
4 3979 3976 3930 3996
4 3979 3976 3996 4007
4 1450 1465 1472 1468
4 2383 2406 2387 2370
4 3025 3037 3027 2991
4 2381 2359 2350 2342
4 2906 2884 2878 2881
4 2038 2053 2042 2057
4 1433 1425 1422 1400
4 2756 2782 2739 2725
4 1256 1248 1266 1246
4 1514 1526 1541 1522
4 1379 1358 1369 1384
4 4355 4343 4323 4360
4 4355 4343 4360 4366
4 4323 4355 4360 4339
4 4355 4360 4339 4382
4 3989 3986 4027 3999
4 3581 3573 3615 3561
4 2398 2382 2381 2342
4 3032 3018 3053 3060
4 3053 3032 3060 3081
4 3060 3053 3081 3082
4 3018 3053 3060 3059
4 3060 3053 3082 3059
4 3053 3032 3081 3067
4 1782 1808 1810 1791
4 3675 3648 3649 3633
4 2034 2048 2069 2039
4 2034 2048 2039 1998
4 2039 2034 1998 2025
4 2039 2034 2025 2066
4 4191 4155 4141 4181
4 3943 3967 3981 3970
4 3981 3943 3970 3974
4 3981 3943 3974 3973
4 3967 3981 3970 3990
4 3970 3967 3990 3950
4 3990 3970 3950 4024
4 3967 3990 3950 3941
4 3970 3981 3974 4031
4 1715 1742 1717 1699
4 1753 1736 1771 1732
4 3068 3078 3077 3037
4 3068 3078 3037 3029
4 3320 3301 3283 3319
4 3301 3283 3319 3291
4 3619 3622 3582 3640
4 2088 2118 2100 2103
4 1773 1793 1815 1776
4 1680 1670 1657 1683
4 1670 1657 1683 1662
4 3352 3398 3376 3356
4 1405 1412 1400 1422
4 1412 1400 1422 1425
4 4331 4291 4336 4322
4 932 926 927 921
4 3945 3919 3896 3904
4 3896 3945 3904 3952
4 2794 2778 2782 2818
4 2715 2696 2698 2703
4 3833 3814 3774 3828
4 3833 3814 3828 3876
4 2870 2855 2848 2886
4 4490 4492 4484 4456
4 3646 3638 3680 3615
4 916 921 913 926
4 1850 1849 1891 1889
4 973 990 980 979
4 980 973 979 962
4 979 980 962 968
4 990 980 979 997
4 980 979 997 984
4 3870 3920 3887 3899
4 2782 2756 2752 2725
4 1815 1827 1806 1810
4 3594 3617 3591 3577
4 1486 1472 1456 1465
4 1486 1472 1465 1489
4 1456 1486 1465 1477
4 3949 3996 3930 3955
4 2079 2106 2105 2097
4 2079 2106 2097 2085
4 2106 2105 2097 2138
4 3780 3814 3832 3799
4 992 1009 994 1004
4 3464 3436 3439 3490
4 4481 4485 4458 4475
4 3364 3334 3335 3358
4 3335 3364 3358 3380
4 981 975 977 969
4 3584 3602 3573 3615
4 1971 1969 1986 1954
4 940 958 943 955
4 1394 1372 1380 1382
4 1372 1380 1382 1357
4 1380 1382 1357 1353
4 1380 1394 1382 1406
4 1382 1380 1406 1389
4 2992 3004 2974 2959
4 947 940 943 936
4 2617 2620 2611 2642
4 1835 1849 1836 1810
4 1849 1836 1810 1815
4 1166 1190 1170 1169
4 1170 1166 1169 1147
4 1166 1169 1147 1152
4 1166 1169 1152 1161
4 1166 1190 1169 1189
4 1169 1166 1189 1161
4 3648 3694 3673 3681
4 3694 3673 3681 3735
4 4284 4238 4237 4253
4 3244 3209 3227 3230
4 2979 2984 3005 3027
4 2203 2226 2210 2187
4 2226 2210 2187 2218
4 4494 4492 4460 4484
4 1989 1986 2025 1980
4 1989 1986 1980 1954
4 1986 2025 1980 1990
4 1980 1986 1990 1951
4 1980 1986 1951 1954
4 3894 3936 3867 3919
4 3087 3063 3109 3069
4 1562 1585 1584 1569
4 2959 2977 2951 2978
4 2950 2901 2911 2945
4 3592 3633 3603 3640
4 1405 1421 1400 1419
4 4189 4217 4190 4229
4 2620 2598 2611 2583
4 1216 1229 1212 1215
4 1216 1229 1215 1243
4 1215 1216 1243 1231
4 1212 1216 1215 1194
4 1215 1216 1231 1214
4 1215 1216 1214 1195
4 1215 1216 1195 1194
4 1980 1998 1990 2025
4 3065 3085 3036 3077
4 3672 3647 3674 3617
4 3054 3087 3090 3106
4 3090 3054 3106 3057
4 3090 3054 3057 3033
4 3106 3090 3057 3091
4 2671 2688 2656 2665
4 1936 1934 1963 1953
4 1936 1934 1953 1919
4 3227 3209 3190 3230
4 1147 1170 1156 1153
4 1170 1156 1153 1174
4 1153 1170 1174 1169
4 1170 1156 1174 1194
4 1156 1147 1153 1133
4 1170 1174 1169 1190
4 1153 1156 1133 1144
4 1156 1153 1174 1165
4 1174 1170 1194 1190
4 1147 1170 1153 1169
4 1147 1153 1133 1129
4 1153 1133 1129 1144
4 1147 1153 1129 1136
4 1133 1147 1129 1120
4 1133 1129 1144 1125
4 1133 1129 1125 1111
4 1133 1129 1111 1120
4 1732 1708 1735 1726
4 4302 4261 4292 4248
4 3609 3649 3631 3637
4 3609 3649 3637 3603
4 3637 3609 3603 3568
4 4341 4327 4348 4363
4 4341 4327 4363 4356
4 4348 4341 4363 4379
4 4341 4363 4379 4356
4 3039 3046 3079 3091
4 3046 3079 3091 3057
4 822 809 816 831
4 809 816 831 824
4 747 759 757 758
4 759 757 758 773
4 757 747 758 734
4 758 757 734 743
4 3328 3344 3310 3311
4 1685 1683 1712 1677
4 1685 1683 1677 1662
4 1677 1685 1662 1699
4 2048 2042 2069 2079
4 2069 2048 2079 2039
4 4081 4126 4096 4058
4 2781 2749 2771 2768
4 3407 3389 3400 3366
4 926 908 920 923
4 920 926 923 934
4 923 920 934 929
4 926 923 934 937
4 923 934 937 929
4 1240 1255 1236 1245
4 2593 2598 2596 2561
4 810 824 816 809
4 816 810 809 787
4 3463 3443 3478 3507
4 3998 4012 3996 3962
4 4012 3996 3962 3976
4 2931 2947 2979 2991
4 3638 3602 3584 3615
4 3828 3867 3866 3871
4 2912 2922 2886 2878
4 2886 2912 2878 2905
4 3696 3717 3670 3682
4 2270 2243 2248 2226
4 3619 3607 3591 3578
4 2948 2907 2905 2935
4 3259 3221 3244 3230
4 1534 1504 1515 1517
4 1504 1515 1517 1494
4 1515 1517 1494 1532
4 1515 1534 1517 1543
4 1517 1515 1543 1532
4 4223 4246 4249 4190
4 1851 1872 1859 1852
4 4011 4008 4001 4036
4 975 968 971 960
4 3989 4030 3990 4027
4 4243 4284 4237 4270
4 3674 3647 3635 3617
4 943 960 955 958
4 943 960 958 951
4 4310 4312 4347 4334
4 4198 4156 4138 4215
4 2714 2694 2688 2689
4 2714 2694 2689 2703
4 1815 1793 1830 1813
4 1830 1815 1813 1848
4 1815 1793 1813 1776
4 1815 1813 1848 1836
4 2921 2922 2917 2958
4 3033 3039 3079 3034
4 3033 3039 3034 2992
4 3034 3033 2992 3007
4 1400 1392 1393 1412
4 1998 2001 2039 2025
4 3941 3948 3989 3990
4 998 992 994 985
4 3052 3008 3046 3035
4 3052 3008 3035 2999
4 3008 3035 2999 3004
4 3008 3046 3035 3033
4 3046 3052 3035 3091
4 3046 3035 3033 3057
4 2446 2426 2432 2462
4 1965 1963 1934 1953
4 4316 4328 4317 4356
4 2814 2849 2838 2855
4 3867 3868 3866 3910
4 3787 3795 3738 3791
4 3464 3443 3490 3507
4 1457 1479 1470 1465
4 1191 1194 1212 1210
4 1194 1212 1210 1215
4 1212 1191 1210 1206
4 1210 1212 1206 1232
4 1212 1210 1215 1227
4 1212 1210 1227 1232
4 4252 4283 4225 4278
4 2302 2319 2301 2342
4 3069 3078 3037 3077
4 3069 3078 3077 3116
4 3506 3522 3503 3546
4 3503 3506 3546 3526
4 3733 3684 3729 3719
4 3733 3684 3719 3751
4 3729 3733 3719 3772
4 997 1007 1012 996
4 1012 997 996 1000
4 997 1007 996 990
4 996 997 990 979
4 996 997 979 984
4 997 996 1000 984
4 4327 4315 4317 4356
4 2165 2181 2180 2143
4 1912 1914 1922 1891
4 512 519 543 542
4 543 512 542 533
4 542 543 533 556
4 3131 3116 3134 3103
4 3116 3134 3103 3119
4 3686 3680 3643 3664
4 3686 3680 3664 3725
4 3643 3686 3664 3704
4 3363 3337 3319 3320
4 4148 4191 4141 4210
4 3038 3018 3017 3059
4 958 949 955 940
4 4491 4493 4459 4487
4 2121 2135 2147 2134
4 2147 2121 2134 2141
4 2134 2147 2141 2187
4 2135 2147 2134 2143
4 2147 2121 2141 2133
4 2121 2134 2141 2097
4 2134 2135 2143 2104
4 1958 1940 1948 1949
4 698 702 718 727
4 698 702 727 707
4 3739 3788 3755 3795
4 3739 3788 3795 3736
4 936 927 932 940
4 3455 3435 3442 3457
4 3868 3828 3866 3876
4 4022 4039 4018 4053
4 4018 4022 4053 3996
4 4225 4221 4198 4271
4 4101 4100 4053 4106
4 3414 3397 3379 3372
4 1048 1059 1041 1045
4 3139 3124 3138 3116
4 2118 2131 2100 2127
4 2131 2100 2127 2114
4 2118 2131 2127 2150
4 2131 2127 2150 2164
4 2131 2127 2164 2114
4 2629 2642 2620 2658
4 1518 1527 1510 1539
4 3870 3895 3899 3850
4 4310 4347 4352 4329
4 2220 2248 2203 2219
4 3041 3068 3065 3036
4 3116 3151 3156 3109
4 2227 2209 2210 2246
4 1679 1664 1657 1656
4 3945 3946 3952 4005
4 4286 4318 4325 4320
4 3096 3111 3132 3128
4 3400 3358 3366 3389
4 2180 2181 2145 2143
4 2145 2180 2143 2162
4 3124 3102 3138 3116
4 4005 3988 4035 4023
4 1398 1404 1397 1425
4 1845 1871 1870 1853
4 1871 1870 1853 1890
4 1870 1853 1890 1867
4 1871 1870 1890 1905
4 3379 3363 3403 3414
4 2769 2736 2771 2778
4 2771 2769 2778 2818
4 3158 3135 3112 3117
4 1091 1084 1071 1088
4 1071 1091 1088 1077
4 1091 1084 1088 1105
4 1088 1091 1105 1107
4 1088 1091 1107 1096
4 1088 1091 1096 1077
4 1999 1990 1968 1998
4 2175 2180 2143 2165
4 889 900 897 891
4 3550 3529 3577 3594
4 4149 4131 4093 4138
4 4358 4345 4328 4334
4 4358 4345 4334 4377
4 4328 4358 4334 4333
4 4063 4090 4039 4060
4 4090 4039 4060 4107
4 4039 4063 4060 4053
4 4063 4060 4053 4106
4 4036 4032 3992 4011
4 3191 3209 3221 3230
4 1990 1981 1992 1965
4 1990 1981 1965 1953
4 1990 1981 1953 1951
4 1981 1965 1953 1963
4 3694 3682 3673 3732
4 2408 2420 2428 2395
4 2420 2428 2395 2433
4 908 926 913 923
4 3081 3111 3096 3082
4 3465 3495 3477 3518
4 1445 1457 1470 1463
4 1470 1445 1463 1441
4 3082 3096 3059 3110
4 2308 2293 2299 2341
4 4312 4310 4262 4285
4 1225 1209 1206 1220
4 3101 3116 3103 3077
4 3101 3116 3077 3078
4 2885 2909 2875 2880
4 3282 3258 3247 3284
4 3773 3733 3772 3719
4 2919 2918 2939 2915
4 2485 2476 2459 2432
4 3223 3245 3210 3225
4 3245 3210 3225 3226
4 3210 3223 3225 3184
4 1440 1443 1463 1477
4 3594 3566 3550 3529
4 1501 1526 1514 1513
4 1501 1526 1513 1521
4 1526 1513 1521 1522
4 1513 1521 1522 1490
4 1513 1521 1490 1501
4 1490 1513 1501 1514
4 3196 3160 3154 3191
4 1457 1468 1465 1450
4 1225 1245 1242 1220
4 4095 4138 4099 4083
4 3639 3671 3619 3672
4 2487 2467 2485 2459
4 1621 1634 1612 1629
4 985 977 981 992
4 853 844 841 850
4 3083 3101 3103 3065
4 1009 1015 994 1004
4 4288 4271 4323 4283
4 4246 4278 4249 4320
4 2917 2930 2931 2969
4 2692 2696 2679 2698
4 2971 2958 2933 2985
4 2971 2958 2985 3016
4 3870 3887 3849 3875
4 3887 3849 3875 3879
4 3887 3849 3879 3877
4 3870 3887 3875 3899
4 3875 3887 3879 3943
4 2908 2934 2926 2896
4 1490 1479 1489 1465
4 1490 1479 1465 1470
4 2523 2490 2487 2519
4 3919 3869 3904 3867
4 3876 3899 3850 3875
4 4098 4101 4047 4103
4 2348 2361 2379 2360
4 2379 2348 2360 2365
4 2348 2361 2360 2342
4 2361 2360 2342 2398
4 2361 2379 2360 2398
4 2360 2348 2342 2328
4 4159 4128 4114 4120
4 3854 3853 3896 3839
4 3612 3643 3664 3616
4 3698 3674 3700 3635
4 4494 4495 4488 4450
4 1753 1748 1726 1735
4 2361 2389 2379 2398
4 1443 1433 1463 1457
4 3138 3117 3151 3116
4 3117 3151 3116 3109
4 1998 1980 2001 2025
4 3356 3376 3402 3398
4 4307 4259 4255 4287
4 4307 4259 4287 4292
4 4259 4255 4287 4203
4 2426 2412 2406 2420
4 2406 2426 2420 2445
4 3379 3357 3359 3405
4 3357 3359 3405 3365
4 2922 2926 2908 2917
4 4317 4316 4272 4279
4 3811 3795 3839 3854
4 2167 2189 2187 2159
4 930 929 934 920
4 4331 4336 4354 4367
4 1217 1201 1202 1204
4 3795 3787 3839 3791
4 3337 3320 3299 3319
4 3299 3337 3319 3357
4 2029 2011 2035 2040
4 4313 4327 4284 4281
4 2487 2493 2462 2525
4 1810 1808 1835 1806
4 4478 4473 4457 4476
4 2926 2953 2934 2973
4 3606 3622 3640 3582
4 3643 3638 3664 3680
4 3638 3664 3680 3615
4 2930 2915 2939 2964
4 2939 2976 2984 2964
4 1543 1554 1568 1567
4 1568 1543 1567 1574
4 1554 1568 1567 1579
4 1567 1568 1574 1598
4 1468 1489 1465 1472
4 3964 3948 3911 3899
4 1309 1331 1312 1345
4 1765 1736 1763 1771
4 1736 1763 1771 1732
4 1205 1206 1189 1209
4 1205 1206 1209 1220
4 1205 1206 1220 1236
4 2196 2219 2203 2223
4 3334 3335 3358 3323
4 3334 3335 3323 3279
4 3832 3814 3876 3828
4 4360 4355 4366 4382
4 3943 3967 3970 3920
4 3967 3970 3920 3950
4 1907 1935 1932 1910
4 1907 1935 1910 1930
4 2121 2135 2134 2104
4 2284 2279 2305 2313
4 1717 1716 1697 1743
4 1014 996 1004 1000
4 996 1004 1000 987
4 1004 1000 987 992
4 1014 996 1000 1012
4 1014 996 1012 1007
4 1012 1014 1007 1025
4 1000 1014 1012 1022
4 1014 1012 1022 1031
4 1014 1012 1031 1025
4 1004 1014 1000 1022
4 1000 1004 1022 1009
4 1022 1014 1031 1032
4 1014 1031 1032 1025
4 1031 1032 1025 1046
4 1031 1022 1032 1040
4 1032 1031 1040 1052
4 1032 1031 1052 1046
4 1000 1004 1009 992
4 1022 1014 1032 1023
4 1022 1032 1040 1023
4 1040 1022 1023 1026
4 1022 1014 1023 1004
4 1023 1022 1004 1009
4 1022 1023 1026 1009
4 1040 1032 1052 1041
4 1040 1032 1041 1023
4 1041 1040 1023 1026
4 3223 3245 3225 3252
4 3245 3225 3252 3260
4 3225 3223 3252 3207
4 3225 3223 3207 3184
4 4215 4265 4210 4231
4 4210 4215 4231 4175
4 4215 4265 4231 4288
4 4265 4231 4288 4264
4 4210 4215 4175 4140
4 4231 4210 4175 4181
4 4265 4231 4264 4210
4 4215 4231 4175 4225
4 4175 4210 4140 4141
4 4140 4175 4141 4083
4 1773 1754 1776 1735
4 1765 1782 1771 1791
4 1782 1771 1791 1810
4 1782 1771 1810 1781
4 1771 1810 1781 1815
4 2616 2599 2587 2603
4 2587 2616 2603 2595
4 2616 2599 2603 2620
4 2599 2587 2603 2589
4 2599 2603 2620 2589
4 2603 2620 2589 2612
4 2589 2603 2612 2578
4 2587 2603 2589 2578
4 2603 2612 2578 2595
4 698 702 707 686
4 2079 2069 2064 2042
4 3998 4040 4047 4059
4 3631 3609 3637 3590
4 3637 3631 3590 3625
4 3631 3590 3625 3616
4 4204 4164 4194 4150
4 4204 4164 4150 4173
4 3035 3033 3057 3015
4 3057 3035 3015 3061
4 3035 3015 3061 3052
4 3057 3035 3061 3052
4 3035 3033 3015 2999
4 3015 3035 2999 3052
4 858 850 866 852
4 2917 2899 2932 2882
4 2917 2899 2882 2880
4 2932 2917 2882 2908
4 2932 2917 2908 2926
4 1225 1209 1220 1235
4 3970 3981 4031 3990
4 3609 3567 3568 3590
4 1358 1350 1352 1338
4 1358 1350 1338 1342
4 1352 1358 1338 1369
4 1358 1338 1369 1342
4 1068 1071 1077 1079
4 1068 1071 1079 1059
4 1421 1422 1400 1418
4 1422 1400 1418 1440
4 3276 3322 3300 3291
4 2556 2561 2569 2572
4 2569 2556 2572 2560
4 2714 2694 2703 2704
4 2352 2377 2350 2360
4 2377 2350 2360 2381
4 2210 2209 2185 2207
4 2209 2185 2207 2204
4 2210 2209 2207 2246
4 3232 3207 3201 3229
4 2339 2345 2375 2371
4 4087 4128 4114 4073
4 3876 3911 3899 3927
4 1323 1321 1291 1309
4 1323 1321 1309 1337
4 2557 2569 2585 2570
4 2585 2557 2570 2559
4 2360 2348 2328 2365
4 2097 2079 2085 2069
4 2097 2079 2069 2105
4 2085 2097 2069 2093
4 2069 2097 2105 2104
4 3299 3337 3357 3359
4 4492 4456 4460 4484
4 1169 1147 1152 1153
4 4284 4238 4253 4279
4 3865 3903 3901 3878
4 3865 3903 3878 3877
4 3903 3901 3878 3930
4 3901 3865 3878 3857
4 3865 3878 3857 3817
4 3878 3901 3857 3861
4 3175 3193 3157 3156
4 3193 3157 3156 3178
4 3193 3157 3178 3202
4 3157 3156 3178 3119
4 3157 3156 3119 3134
4 4095 4042 4093 4083
4 4095 4042 4083 4051
4 4042 4083 4051 4031
4 2223 2219 2202 2196
4 2370 2341 2362 2358
4 2370 2341 2358 2352
4 2341 2362 2358 2327
4 2362 2370 2358 2400
4 2358 2341 2327 2338
4 2370 2358 2400 2387
4 2327 2358 2338 2371
4 2400 2370 2387 2406
4 2246 2243 2226 2210
4 2226 2246 2210 2218
4 2225 2213 2195 2224
4 2195 2225 2224 2204
4 2225 2213 2224 2240
4 2224 2225 2240 2255
4 2224 2225 2255 2268
4 1809 1836 1850 1846
4 1836 1850 1846 1889
4 2199 2226 2187 2218
4 2848 2837 2856 2799
4 2921 2906 2938 2898
4 1906 1889 1891 1883
4 1568 1567 1579 1588
4 1568 1567 1588 1598
4 4318 4296 4325 4357
4 3422 3433 3441 3389
4 2659 2629 2646 2645
4 2659 2629 2645 2658
4 2645 2659 2658 2690
4 2629 2646 2645 2616
4 2646 2659 2645 2677
4 2629 2645 2658 2620
4 2629 2645 2620 2616
4 2646 2645 2616 2643
4 2645 2646 2677 2643
4 2645 2658 2620 2656
4 3708 3738 3755 3791
4 3738 3755 3791 3795
4 3738 3755 3795 3736
4 3755 3791 3795 3799
4 3795 3755 3799 3788
4 3755 3799 3788 3726
4 3799 3795 3788 3854
4 1077 1058 1068 1059
4 1077 1058 1059 1062
4 1058 1059 1062 1045
4 1059 1062 1045 1048
4 3357 3359 3365 3281
4 1664 1679 1647 1659
4 3787 3789 3839 3791
4 2270 2289 2271 2293
4 2962 2964 2976 2939
4 1616 1613 1584 1610
4 4032 4037 3992 4081
4 4238 4272 4254 4279
4 4169 4136 4120 4129
4 3248 3252 3223 3207
4 2617 2637 2649 2658
4 3476 3487 3427 3440
4 1795 1809 1812 1767
4 3567 3590 3546 3568
4 2492 2474 2461 2478
4 2461 2492 2478 2472
4 2492 2474 2478 2507
4 2474 2461 2478 2445
4 2474 2478 2507 2462
4 2478 2474 2445 2462
4 605 606 627 637
4 2561 2598 2569 2572
4 2093 2066 2076 2069
4 4167 4190 4126 4129
4 2967 2964 2930 2931
4 3773 3733 3719 3751
4 4323 4355 4339 4330
4 4323 4355 4330 4353
4 4330 4323 4353 4305
4 4330 4323 4305 4283
4 4330 4323 4283 4339
4 3814 3774 3828 3799
4 3774 3828 3799 3788
4 3799 3774 3788 3726
4 3774 3828 3788 3838
4 3828 3799 3788 3854
4 3828 3788 3838 3827
4 3814 3774 3799 3780
4 3828 3814 3799 3832
4 3799 3774 3726 3780
4 3063 3087 3062 3069
4 2767 2769 2782 2734
4 1298 1312 1301 1282
4 3219 3186 3204 3206
4 3204 3219 3206 3234
4 3206 3204 3234 3242
4 4187 4225 4198 4138
4 1545 1562 1540 1569
4 4098 4148 4141 4059
4 2286 2303 2316 2288
4 2316 2286 2288 2268
4 1258 1260 1255 1276
4 3437 3457 3447 3491
4 3457 3447 3491 3503
4 3457 3447 3503 3440
4 3491 3457 3503 3506
4 3503 3491 3506 3526
4 3457 3503 3506 3481
4 3503 3491 3526 3533
4 3491 3506 3526 3537
4 3506 3457 3481 3455
4 3447 3437 3491 3452
4 3447 3437 3452 3402
4 3491 3447 3452 3472
4 3437 3452 3402 3442
4 3437 3452 3442 3491
4 3402 3437 3442 3407
4 3437 3442 3407 3435
4 3437 3442 3435 3457
4 3437 3442 3457 3491
4 3447 3491 3503 3440
4 3447 3491 3440 3472
4 3447 3437 3402 3413
4 3437 3402 3413 3435
4 3402 3447 3413 3440
4 2848 2870 2886 2896
4 4028 4037 3980 3992
4 2943 2953 2957 2989
4 4256 4248 4300 4276
4 1915 1889 1863 1908
4 1915 1889 1908 1921
4 4149 4131 4138 4187
4 4136 4087 4120 4094
4 4087 4120 4094 4064
4 4087 4120 4064 4114
4 2047 2028 2014 1994
4 1359 1342 1358 1369
4 1358 1359 1369 1384
4 2519 2523 2539 2487
4 3772 3815 3825 3824
4 3772 3815 3824 3817
4 3815 3825 3824 3857
4 3824 3815 3857 3817
4 4220 4182 4237 4202
4 3039 3079 3034 3085
4 3039 3079 3085 3091
4 4310 4347 4329 4334
4 4347 4329 4334 4364
4 4334 4347 4364 4377
4 2935 2896 2900 2907
4 4194 4238 4204 4201
4 4194 4238 4201 4181
4 4204 4194 4201 4150
4 3335 3302 3323 3279
4 2116 2087 2082 2104
4 1225 1236 1220 1206
4 3904 3946 3936 3978
4 2989 3034 2985 3040
4 955 949 962 946
4 955 949 946 937
4 955 949 937 940
4 3117 3135 3151 3158
4 3407 3378 3350 3398
4 3079 3033 3034 3063
4 3033 3034 3063 3007
4 2361 2382 2398 2342
4 1424 1423 1438 1397
4 2002 1989 2035 2040
4 2227 2209 2246 2242
4 2209 2246 2242 2207
4 2242 2209 2207 2204
4 2379 2360 2398 2387
4 2379 2360 2387 2365
4 3509 3520 3568 3506
4 3509 3520 3506 3489
4 3509 3520 3489 3455
4 3489 3509 3455 3506
4 1418 1419 1400 1421
4 1934 1919 1947 1953
4 1919 1947 1953 1951
4 1947 1953 1951 1990
4 1947 1934 1953 1968
4 1953 1947 1968 1990
4 1919 1947 1951 1922
4 1947 1951 1922 1954
4 1947 1951 1954 1980
4 1947 1951 1980 1990
4 3854 3853 3839 3811
4 3853 3839 3811 3872
4 4379 4348 4380 4363
4 4380 4379 4363 4391
4 4380 4379 4391 4405
4 4379 4363 4391 4387
4 4379 4391 4405 4387
4 1683 1704 1679 1680
4 1679 1683 1680 1657
4 1679 1683 1657 1669
4 1853 1890 1867 1874
4 2066 2035 2025 2054
4 2035 2025 2054 2040
4 2066 2035 2054 2074
4 2025 2054 2040 2039
4 2054 2040 2039 2085
4 2054 2035 2040 2029
4 2054 2035 2029 2074
4 3992 3947 4001 3972
4 1443 1465 1457 1463
4 1443 1465 1463 1477
4 1465 1457 1463 1470
4 1465 1463 1477 1490
4 1465 1463 1490 1470
4 1463 1477 1490 1487
4 1463 1477 1487 1458
4 1477 1465 1490 1486
4 1465 1490 1486 1489
4 1477 1490 1487 1522
4 3787 3738 3789 3791
4 2420 2408 2379 2395
4 3829 3849 3807 3830
4 3849 3807 3830 3826
4 3829 3849 3830 3875
4 3849 3830 3875 3879
4 3849 3807 3826 3796
4 3830 3849 3826 3879
4 3849 3826 3879 3877
4 3826 3879 3877 3878
4 3807 3829 3830 3779
4 3807 3830 3826 3766
4 3830 3829 3875 3850
4 1066 1048 1054 1062
4 3301 3328 3291 3363
4 2559 2526 2533 2542
4 2559 2526 2542 2540
4 2526 2542 2540 2525
4 2542 2559 2540 2557
4 2694 2717 2688 2705
4 2299 2293 2265 2306
4 3372 3363 3379 3414
4 1120 1136 1147 1129
4 3054 3011 3057 3033
4 2011 2029 2041 2043
4 2907 2951 2945 2935
4 3492 3489 3463 3452
4 2141 2122 2102 2097
4 2122 2102 2097 2085
4 2102 2097 2085 2093
4 2122 2102 2085 2136
4 2097 2122 2085 2106
4 2097 2122 2106 2138
4 487 509 511 479
4 3134 3116 3156 3119
4 3352 3356 3322 3323
4 4350 4335 4309 4360
4 4350 4335 4360 4380
4 1621 1645 1629 1627
4 4358 4334 4333 4364
4 4192 4223 4225 4249
4 4192 4223 4249 4190
4 4244 4246 4195 4190
4 3420 3463 3478 3479
4 3420 3463 3479 3433
4 3420 3463 3433 3442
4 3463 3479 3433 3474
4 1726 1753 1735 1732
4 2734 2736 2769 2725
4 2734 2736 2725 2704
4 3373 3408 3395 3385
4 3408 3395 3385 3427
4 3395 3373 3385 3346
4 3385 3395 3346 3406
4 3395 3385 3427 3426
4 3395 3385 3426 3406
4 1913 1916 1952 1948
4 4345 4370 4377 4358
4 4370 4377 4358 4386
4 4370 4377 4386 4404
4 4358 4370 4386 4387
4 4098 4155 4103 4141
4 3036 2989 3027 3034
4 3027 3036 3034 3077
4 2989 3027 3034 3040
4 3386 3373 3347 3385
4 3347 3386 3385 3362
4 3386 3385 3362 3421
4 3347 3386 3362 3360
4 3386 3385 3421 3427
4 3386 3385 3427 3408
4 3421 3386 3427 3440
4 3386 3385 3408 3373
4 3234 3254 3272 3271
4 3272 3234 3271 3242
4 3612 3638 3584 3615
4 3612 3638 3615 3664
4 3584 3612 3615 3561
4 3615 3612 3664 3625
4 2457 2470 2489 2462
4 2926 2886 2908 2896
4 4302 4349 4326 4342
4 4326 4302 4342 4292
4 4326 4302 4292 4248
4 3582 3560 3520 3568
4 3376 3355 3402 3413
4 3402 3376 3413 3398
4 3376 3355 3413 3360
4 3994 4011 3969 4034
4 3301 3259 3291 3284
4 3400 3358 3389 3422
4 1853 1829 1831 1867
4 2210 2197 2220 2180
4 3436 3403 3379 3405
4 3436 3403 3405 3452
4 3403 3379 3405 3357
4 3405 3403 3357 3365
4 3403 3405 3452 3402
4 3405 3436 3452 3472
4 2043 2059 2081 2074
4 2175 2203 2210 2187
4 2210 2175 2187 2165
4 2175 2203 2187 2199
4 1352 1354 1336 1350
4 829 822 831 809
4 1323 1338 1337 1352
4 1323 1338 1352 1335
4 1338 1337 1352 1369
4 1323 1338 1335 1336
4 1338 1335 1336 1352
4 4255 4307 4287 4329
4 4307 4287 4329 4332
4 4287 4329 4332 4319
4 4329 4307 4332 4352
4 3028 3067 3032 3053
4 1064 1071 1052 1053
4 1071 1052 1053 1059
4 1052 1064 1053 1046
4 1053 1052 1046 1032
4 1053 1052 1032 1041
4 1053 1052 1041 1059
4 3443 3436 3490 3452
4 3436 3490 3452 3472
4 3490 3443 3452 3463
4 3490 3443 3463 3507
4 3443 3452 3463 3442
4 4486 4482 4452 4476
4 1495 1486 1456 1477
4 3725 3776 3729 3744
4 3725 3776 3744 3796
4 3729 3725 3744 3664
4 3322 3336 3300 3309
4 3336 3300 3309 3355
4 3336 3300 3355 3360
4 3300 3309 3355 3304
4 3300 3309 3304 3250
4 4277 4276 4280 4229
4 4277 4276 4229 4227
4 4229 4277 4227 4217
4 2461 2445 2433 2448
4 2433 2461 2448 2450
4 2433 2461 2450 2472
4 2461 2445 2448 2478
4 2448 2461 2478 2450
4 2461 2450 2472 2478
4 2445 2433 2448 2413
4 2448 2445 2413 2420
4 2448 2433 2450 2428
4 2445 2448 2478 2462
4 2448 2478 2462 2457
4 2448 2478 2457 2450
4 2445 2448 2462 2426
4 2462 2448 2457 2420
4 2462 2448 2420 2426
4 2478 2462 2457 2489
4 2457 2478 2489 2450
4 2478 2462 2489 2525
4 2448 2457 2420 2428
4 2420 2448 2428 2433
4 2448 2457 2428 2450
4 2457 2420 2428 2443
4 2420 2448 2433 2413
4 2271 2289 2306 2293
4 2306 2271 2293 2265
4 2306 2271 2265 2262
4 3190 3227 3230 3203
4 3649 3631 3637 3670
4 1712 1685 1677 1699
4 3308 3346 3324 3307
4 1948 1974 1949 1976
4 2073 2046 2041 2059
4 2073 2046 2059 2100
4 2046 2041 2059 2007
4 2041 2073 2059 2074
4 2720 2690 2708 2707
4 2720 2690 2707 2694
4 2690 2707 2694 2645
4 2690 2708 2707 2677
4 2708 2720 2707 2738
4 2707 2720 2694 2722
4 2694 2707 2722 2705
4 2707 2720 2722 2738
4 2708 2707 2677 2705
4 2707 2708 2738 2705
4 2707 2722 2705 2738
4 2782 2778 2739 2736
4 2778 2739 2736 2771
4 3850 3819 3876 3832
4 3850 3819 3832 3830
4 3876 3850 3832 3875
4 2720 2736 2704 2722
4 2720 2736 2722 2738
4 3701 3698 3708 3617
4 2063 2046 2073 2090
4 3008 3004 3033 3035
4 3004 3033 3035 2999
4 3735 3681 3723 3689
4 3735 3681 3689 3726
4 3681 3689 3726 3672
4 1540 1551 1541 1563
4 1540 1551 1563 1562
4 1551 1541 1563 1564
4 1541 1563 1564 1569
4 1891 1910 1914 1922
4 3964 3992 3991 3978
4 2398 2377 2387 2360
4 2398 2377 2360 2381
4 2377 2387 2360 2370
4 3219 3254 3234 3233
4 1584 1576 1606 1585
4 2670 2652 2651 2681
4 2652 2651 2681 2634
4 2652 2651 2634 2623
4 2652 2651 2623 2638
4 2651 2634 2623 2614
4 3899 3950 3920 3970
4 4012 3996 3976 4018
4 3996 3976 4018 4007
4 3976 4018 4007 4020
4 4012 3996 4018 4053
4 4018 4012 4053 4060
4 4053 4018 4060 4039
4 4018 4060 4039 4020
4 3592 3603 3568 3582
4 3592 3603 3582 3640
4 3603 3568 3582 3613
4 1888 1890 1874 1867
4 1874 1888 1867 1889
4 1753 1771 1776 1773
4 1753 1771 1773 1732
4 1771 1776 1773 1815
4 758 757 743 761
4 758 757 761 779
4 1708 1714 1735 1690
4 1708 1714 1690 1669
4 1735 1708 1690 1726
4 1919 1918 1910 1956
4 4301 4298 4351 4325
4 1975 1981 1936 1963
4 3672 3634 3617 3673
4 979 962 971 968
4 4085 4098 4047 4059
4 4085 4098 4059 4148
4 4098 4047 4059 4103
4 1522 1513 1490 1514
4 3854 3827 3811 3795
4 1932 1914 1910 1951
4 1910 1932 1951 1956
4 4305 4271 4263 4283
4 3426 3465 3458 3427
4 3426 3465 3427 3410
4 574 573 606 607
4 574 573 607 582
4 574 573 582 556
4 4328 4358 4333 4356
4 1222 1209 1235 1204
4 3955 3998 3996 3962
4 3955 3998 3962 3973
4 4489 4455 4453 4483
4 3116 3117 3109 3069
4 3553 3582 3520 3551
4 3553 3582 3551 3549
4 3551 3553 3549 3505
4 3549 3551 3505 3566
4 1951 1938 1914 1922
4 4481 4477 4475 4445
4 4010 4031 3981 3990
4 2057 2064 2098 2082
4 2587 2570 2559 2585
4 2519 2539 2497 2487
4 2293 2281 2265 2260
4 3870 3829 3850 3875
4 3870 3829 3875 3849
4 2406 2413 2420 2400
4 2673 2658 2690 2694
4 2673 2658 2694 2665
4 2658 2694 2665 2656
4 2673 2658 2665 2649
4 2665 2658 2656 2613
4 1331 1342 1312 1345
4 3176 3158 3179 3151
4 3619 3622 3640 3681
4 3619 3622 3681 3689
4 1357 1333 1353 1345
4 1353 1357 1345 1382
4 2882 2849 2870 2855
4 2882 2849 2855 2838
4 3357 3363 3319 3354
4 3357 3363 3354 3403
4 2321 2309 2298 2350
4 2778 2782 2818 2769
4 2778 2782 2769 2736
4 1526 1514 1513 1522
4 2772 2751 2738 2754
4 2738 2772 2754 2755
4 2738 2772 2755 2780
4 2772 2751 2754 2771
4 2754 2772 2771 2755
4 2772 2755 2780 2798
4 2771 2754 2755 2735
4 2771 2754 2735 2722
4 2771 2754 2722 2736
4 2754 2722 2736 2738
4 2771 2754 2736 2751
4 2754 2736 2751 2738
4 2722 2771 2736 2739
4 2736 2722 2739 2725
4 2739 2736 2725 2782
4 2754 2738 2755 2735
4 1679 1698 1707 1704
4 984 975 971 977
4 2143 2116 2105 2104
4 2957 2921 2931 2958
4 2931 2957 2958 2979
4 3819 3850 3829 3830
4 1255 1276 1271 1263
4 1271 1255 1263 1236
4 3904 3867 3871 3912
4 4155 4141 4181 4103
4 3164 3184 3151 3191
4 4452 4482 4451 4476
4 3436 3439 3490 3472
4 3904 3896 3952 3886
4 3904 3896 3886 3854
4 2855 2848 2886 2833
4 3320 3301 3319 3363
4 3755 3739 3795 3736
4 3755 3739 3736 3701
4 2400 2383 2370 2406
4 3006 2991 2969 3016
4 3006 2991 3016 3037
4 3006 2991 3037 3024
4 2991 3037 3024 2984
4 787 782 758 757
4 782 758 757 773
4 787 782 757 778
4 758 787 757 779
4 787 782 778 796
4 787 782 796 809
4 787 782 809 806
4 1030 1041 1023 1026
4 1994 1967 1997 2014
4 4212 4218 4276 4230
4 4212 4218 4230 4169
4 4218 4276 4230 4248
4 4276 4212 4230 4229
4 4212 4230 4229 4169
4 4230 4218 4248 4193
4 4230 4218 4193 4169
4 4230 4276 4229 4280
4 4230 4276 4280 4248
4 4248 4230 4193 4214
4 4229 4230 4280 4239
4 4280 4230 4248 4247
4 3776 3817 3772 3744
4 3772 3776 3744 3729
4 3744 3772 3729 3719
4 2685 2681 2697 2634
4 1058 1040 1052 1041
4 1058 1040 1041 1045
4 1040 1041 1045 1026
4 2807 2840 2821 2800
4 2945 2935 2900 2907
4 3563 3517 3573 3581
4 3947 3964 3927 3978
4 2493 2504 2489 2522
4 2136 2159 2141 2169
4 2136 2159 2169 2206
4 2159 2141 2169 2187
4 2141 2136 2169 2133
4 608 609 631 607
4 608 609 607 582
4 631 608 607 637
4 608 607 637 606
4 608 607 606 573
4 608 607 573 582
4 1890 1870 1867 1913
4 3458 3487 3494 3472
4 2100 2088 2103 2073
4 2103 2100 2073 2059
4 2724 2752 2719 2715
4 3225 3210 3184 3193
4 4490 4486 4454 4484
4 1486 1493 1480 1497
4 2255 2288 2268 2262
4 2291 2293 2321 2298
4 3040 3062 3042 3037
4 2147 2165 2185 2187
4 3196 3191 3221 3164
4 4011 4001 3992 4036
4 841 832 837 848
4 4214 4193 4172 4159
4 4172 4214 4159 4157
4 4223 4195 4246 4190
4 3196 3201 3164 3221
4 3617 3634 3613 3673
4 2751 2769 2771 2772
4 1806 1791 1810 1808
4 3694 3727 3732 3735
4 4057 4087 4064 4114
4 4057 4087 4114 4073
4 4064 4057 4114 4023
4 4114 4057 4073 4052
4 2838 2845 2835 2875
4 2845 2835 2875 2884
4 3619 3634 3672 3673
4 3328 3372 3366 3363
4 3372 3366 3363 3403
4 3366 3328 3363 3291
4 3366 3363 3403 3354
4 3366 3363 3354 3291
4 2665 2694 2688 2656
4 2694 2688 2656 2674
4 2901 2911 2945 2900
4 3138 3164 3151 3191
4 3151 3138 3191 3176
4 3635 3674 3617 3698
4 2870 2855 2886 2882
4 1870 1853 1867 1829
4 1870 1853 1829 1845
4 3976 3930 3996 3962
4 3581 3573 3561 3494
4 3068 3077 3065 3036
4 2596 2568 2561 2589
4 2596 2568 2589 2578
4 2568 2561 2589 2549
4 2876 2901 2894 2858
4 2876 2901 2858 2821
4 3299 3277 3281 3357
4 1922 1954 1912 1921
4 1912 1922 1921 1889
4 1912 1922 1889 1891
4 2082 2105 2116 2104
4 1202 1192 1187 1186
4 2989 2985 2953 2958
4 2989 2985 2958 3016
4 2985 2953 2958 2933
4 1227 1250 1232 1236
4 1250 1232 1236 1263
4 1232 1227 1236 1210
4 1236 1232 1210 1206
4 1859 1851 1852 1827
4 1859 1851 1827 1849
4 1859 1851 1849 1891
4 1989 2025 2035 2040
4 3087 3090 3106 3112
4 3087 3090 3112 3109
4 3112 3087 3109 3117
4 3109 3112 3117 3158
4 3087 3109 3117 3069
4 4051 4099 4079 4083
4 4051 4099 4083 4095
4 2333 2359 2342 2350
4 1984 1981 2000 2014
4 1984 1981 2014 1967
4 2229 2226 2218 2246
4 3506 3522 3546 3568
4 2313 2298 2350 2342
4 2350 2313 2342 2333
4 3619 3591 3613 3582
4 3613 3619 3582 3648
4 3062 3040 3063 3069
4 3062 3040 3069 3037
4 3040 3063 3069 3077
4 3069 3040 3077 3037
4 3040 3063 3077 3034
4 3040 3063 3034 3007
4 3673 3648 3681 3619
4 2835 2813 2818 2771
4 1543 1544 1532 1574
4 2526 2507 2492 2510
4 2492 2526 2510 2511
4 2492 2526 2511 2533
4 2526 2511 2533 2542
4 2526 2507 2510 2525
4 2507 2510 2525 2478
4 2526 2510 2511 2542
4 2526 2510 2542 2525
4 2510 2542 2525 2522
4 2510 2542 2522 2511
4 2507 2510 2478 2492
4 2510 2478 2492 2511
4 2522 2510 2511 2489
4 2522 2510 2489 2525
4 1657 1644 1669 1651
4 3474 3520 3492 3505
4 4313 4270 4281 4284
4 4060 4053 4106 4101
4 2011 2002 2035 2040
4 4336 4322 4346 4362
4 4163 4152 4101 4155
4 4152 4101 4155 4121
4 3633 3603 3640 3648
4 3633 3603 3648 3649
4 3209 3244 3221 3230
4 2761 2779 2744 2777
4 2779 2744 2777 2757
4 2744 2777 2757 2740
4 3825 3857 3861 3824
4 3179 3158 3183 3133
4 3179 3158 3133 3151
4 3133 3179 3151 3156
4 3179 3151 3156 3184
4 3151 3133 3156 3109
4 3151 3133 3109 3158
4 3133 3156 3109 3119
4 3133 3109 3158 3090
4 3133 3109 3090 3119
4 2299 2308 2341 2297
4 2813 2835 2833 2798
4 2835 2833 2798 2799
4 1825 1853 1831 1812
4 2858 2827 2840 2811
4 2840 2858 2811 2821
4 2973 2933 2953 2985
4 3017 3038 3059 3052
4 1342 1359 1353 1345
4 2248 2245 2260 2226
4 2248 2245 2226 2203
4 3523 3535 3487 3494
4 1936 1918 1919 1956
4 3167 3186 3206 3204
4 3206 3167 3204 3166
4 3271 3254 3233 3234
4 3233 3271 3234 3242
4 2922 2886 2878 2884
4 2886 2878 2884 2855
4 2922 2886 2884 2908
4 2884 2886 2855 2882
4 2878 2884 2855 2835
4 2884 2855 2835 2838
4 2855 2835 2838 2814
4 2497 2538 2493 2539
4 4005 3969 3978 4034
4 1384 1398 1389 1369
4 2939 2927 2976 2962
4 3116 3103 3077 3109
4 2439 2465 2452 2431
4 1974 2005 2004 1976
4 2881 2847 2835 2878
4 1831 1829 1814 1867
4 2617 2632 2620 2658
4 2589 2598 2561 2596
4 2799 2784 2772 2789
4 2772 2799 2789 2798
4 2799 2784 2789 2814
4 2784 2772 2789 2769
4 2789 2784 2769 2818
4 2784 2789 2814 2818
4 2805 2782 2767 2784
4 3356 3355 3309 3354
4 3356 3355 3354 3402
4 3309 3356 3354 3323
4 3354 3356 3402 3366
4 3354 3356 3366 3323
4 3355 3309 3354 3365
4 3355 3354 3402 3365
4 2875 2898 2881 2921
4 3104 3117 3138 3102
4 3104 3117 3102 3069
4 3117 3138 3102 3116
4 3104 3117 3069 3087
4 4237 4284 4253 4281
4 3259 3244 3266 3230
4 4454 4486 4452 4462
4 4454 4486 4462 4484
4 4486 4452 4462 4476
4 4452 4454 4462 4432
4 4452 4454 4432 4421
4 4454 4462 4432 4448
4 4462 4452 4432 4446
4 2906 2921 2881 2898
4 3132 3149 3167 3163
4 3167 3132 3163 3166
4 3149 3167 3163 3186
4 3167 3163 3186 3204
4 3167 3163 3204 3166
4 3245 3260 3226 3225
4 1958 1974 2003 2002
4 1393 1407 1369 1387
4 2433 2413 2400 2420
4 4190 4189 4229 4169
4 1958 1940 1949 1921
4 3946 3952 4005 3978
4 3999 3950 3948 3964
4 3999 3950 3964 3991
4 3950 3948 3964 3899
4 3875 3870 3899 3850
4 1331 1338 1342 1369
4 3553 3515 3549 3505
4 2690 2659 2677 2645
4 3577 3550 3594 3611
4 3936 3912 3867 3904
4 3037 3025 2984 2991
4 2502 2499 2515 2452
4 2722 2717 2694 2705
4 3063 3054 3033 3007
4 3011 3015 3057 3033
4 1597 1576 1585 1606
4 2118 2100 2103 2127
4 2100 2103 2127 2114
4 2100 2103 2114 2059
4 2103 2127 2114 2133
4 1270 1250 1271 1263
4 4042 4010 3990 4031
4 2273 2289 2270 2301
4 4489 4491 4455 4487
4 4063 4060 4106 4090
4 4060 4106 4090 4107
4 4478 4482 4476 4451
4 2749 2717 2722 2735
4 3591 3607 3549 3578
4 3111 3149 3132 3128
4 2811 2807 2821 2757
4 2291 2260 2281 2293
4 1830 1815 1848 1859
4 4310 4312 4334 4285
4 2076 2104 2093 2069
4 1209 1202 1187 1204
4 4491 4459 4455 4487
4 2398 2412 2379 2387
4 3190 3176 3179 3191
4 3176 3179 3191 3151
4 3179 3191 3151 3184
4 3179 3190 3191 3230
4 1201 1204 1186 1202
4 4489 4485 4483 4453
4 1887 1919 1910 1891
4 1919 1910 1891 1922
4 4031 4051 4079 4083
4 4129 4189 4190 4120
4 1748 1767 1756 1809
4 1896 1910 1918 1930
4 4192 4187 4149 4138
4 2443 2470 2457 2462
4 4332 4342 4292 4326
4 4292 4332 4326 4319
4 4332 4342 4326 4365
4 1980 1970 1989 1954
4 1189 1188 1205 1204
4 1289 1270 1271 1263
4 1204 1220 1209 1235
4 3523 3487 3476 3440
4 3524 3529 3537 3577
4 3529 3537 3577 3551
4 3537 3524 3577 3525
4 1732 1708 1726 1736
4 1242 1235 1220 1204
4 4130 4159 4114 4157
4 1393 1400 1412 1407
4 1393 1400 1407 1387
4 2136 2141 2102 2133
4 3854 3904 3871 3886
4 734 727 702 726
4 4478 4457 4451 4476
4 1646 1653 1677 1651
4 1646 1653 1651 1629
4 4311 4281 4309 4335
4 4311 4281 4335 4327
4 1940 1954 1922 1921
4 1935 1956 1967 1932
4 1935 1956 1932 1910
4 2566 2563 2575 2515
4 3649 3637 3603 3648
4 3637 3603 3648 3613
4 3649 3637 3648 3682
4 3637 3648 3682 3613
4 1188 1166 1154 1161
4 1967 1986 1951 1990
4 3567 3522 3568 3546
4 1677 1653 1657 1651
4 3998 4012 3962 3973
4 1778 1772 1755 1814
4 727 734 747 757
4 727 734 757 744
4 727 734 744 726
4 1986 1994 2033 2020
4 1986 1994 2020 2014
4 1994 2033 2020 2047
4 1994 2020 2014 2047
4 2020 1986 2014 1990
4 2014 2020 1990 2034
4 2033 2020 2047 2034
4 2020 2014 2047 2053
4 2020 2014 2053 2034
4 2047 2020 2053 2034
4 2020 1986 1990 2025
4 2020 1986 2025 2033
4 2025 2020 2033 2034
4 2025 2020 2034 1990
4 2033 2025 2034 2066
4 2935 2934 2896 2905
4 4281 4264 4309 4288
4 2289 2319 2306 2328
4 2598 2593 2572 2561
4 2042 2053 2082 2057
4 3535 3523 3584 3573
4 2064 2092 2098 2082
4 3471 3479 3515 3474
4 3479 3515 3474 3505
4 1646 1662 1649 1677
4 1989 2002 2003 2040
4 1809 1821 1812 1850
4 2947 2939 2984 2991
4 2451 2476 2432 2459
4 3190 3183 3203 3230
4 2093 2104 2121 2097
4 4334 4312 4328 4285
4 3825 3861 3842 3824
4 1443 1432 1457 1450
4 2487 2493 2525 2539
4 2293 2308 2321 2341
4 3294 3329 3308 3307
4 1770 1798 1778 1756
4 4048 4034 4058 4011
4 1331 1337 1369 1345
4 2953 2922 2957 2958
4 3594 3617 3577 3611
4 3988 4035 4023 4052
4 2627 2613 2620 2612
4 4313 4327 4281 4311
4 3912 3910 3867 3871
4 4012 4047 4053 4060
4 1463 1440 1477 1458
4 3013 3010 3017 2981
4 3117 3151 3109 3158
4 3943 3970 3974 3921
4 3943 3970 3921 3899
4 3970 3974 3921 3977
4 3974 3943 3921 3879
4 4068 4081 4067 4037
4 1575 1584 1587 1563
4 1575 1584 1563 1562
4 1587 1575 1563 1564
4 1584 1563 1562 1569
4 1563 1587 1564 1569
4 4005 3988 4023 3952
4 4094 4058 4087 4064
4 3578 3619 3582 3591
4 4215 4198 4271 4225
4 3876 3845 3910 3868
4 4035 4057 4005 4023
4 4035 4057 4023 4052
4 3689 3671 3672 3619
4 4238 4194 4237 4181
4 4347 4352 4329 4364
4 937 934 946 929
4 1499 1490 1521 1501
4 2739 2749 2722 2771
4 3672 3701 3739 3755
4 3868 3866 3910 3876
4 3866 3910 3876 3927
4 1526 1540 1541 1522
4 3558 3523 3533 3612
4 3737 3760 3717 3727
4 2948 2959 2951 2935
4 2948 2959 2935 2905
4 2441 2439 2452 2399
4 977 987 984 992
4 987 984 992 1000
4 987 984 1000 996
4 4284 4327 4317 4293
4 4284 4327 4293 4253
4 4317 4284 4293 4279
4 4293 4284 4253 4279
4 1813 1815 1776 1781
4 2001 1980 1989 2025
4 1989 2001 2025 2040
4 3085 3103 3119 3109
4 2443 2446 2462 2420
4 3436 3414 3439 3379
4 4058 4036 4011 4081
4 3819 3780 3832 3779
4 1382 1380 1389 1353
4 1726 1704 1683 1712
4 4155 4101 4103 4121
4 4101 4103 4121 4047
4 3259 3283 3291 3230
4 1379 1393 1384 1369
4 1379 1393 1369 1387
4 3347 3329 3307 3346
4 979 980 968 984
4 4011 3994 4048 4034
4 2536 2549 2522 2542
4 2549 2522 2542 2511
4 3101 3078 3124 3116
4 3007 3011 3033 2992
4 4150 4152 4194 4121
4 4278 4252 4223 4225
4 3358 3382 3348 3380
4 2523 2525 2554 2539
4 2523 2525 2539 2487
4 2837 2814 2799 2855
4 3682 3648 3673 3613
4 4202 4243 4237 4220
4 4243 4237 4220 4270
4 4237 4220 4270 4281
4 4270 4237 4281 4284
4 3945 3988 3952 3968
4 2984 2979 2991 3027
4 2069 2034 2039 2066
4 1888 1921 1908 1889
4 3591 3617 3613 3577
4 3276 3300 3260 3291
4 4320 4277 4322 4324
4 3992 3980 3999 4037
4 3867 3866 3871 3910
4 3664 3686 3725 3704
4 2642 2620 2658 2617
4 3698 3738 3708 3749
4 3077 3068 3037 3027
4 4331 4336 4367 4362
4 4336 4367 4362 4346
4 2677 2646 2654 2643
4 2104 2076 2082 2069
4 4278 4223 4249 4225
4 3063 3090 3109 3079
4 3063 3090 3079 3033
4 4191 4155 4181 4237
4 3546 3503 3526 3533
4 3190 3179 3183 3230
4 4335 4348 4327 4363
4 4335 4348 4363 4380
4 4327 4335 4363 4338
4 4238 4237 4253 4181
4 4238 4226 4204 4254
4 4469 4473 4468 4442
4 2747 2744 2757 2697
4 2246 2270 2271 2293
4 1187 1189 1209 1204
4 2909 2875 2880 2921
4 4042 4037 4093 4024
4 1981 1956 1936 1953
4 1981 1956 1953 1951
4 1956 1936 1953 1919
4 1936 1981 1953 1963
4 1956 1953 1951 1910
4 1628 1616 1585 1610
4 2399 2402 2439 2431
4 2165 2197 2185 2210
4 2165 2197 2210 2180
4 4182 4202 4155 4237
4 4458 4485 4453 4483
4 4464 4463 4466 4443
4 2806 2815 2808 2790
4 3920 3943 3887 3899
4 2287 2264 2298 2301
4 2281 2299 2265 2251
4 2265 2281 2251 2260
4 2281 2299 2251 2297
4 3990 3950 3941 3948
4 3490 3464 3507 3525
4 1125 1105 1111 1107
4 1105 1111 1107 1091
4 1111 1107 1091 1099
4 1111 1125 1107 1129
4 1107 1111 1129 1116
4 1107 1111 1116 1099
4 3868 3897 3848 3845
4 1916 1949 1948 1908
4 1406 1380 1397 1389
4 4247 4259 4292 4287
4 4292 4247 4287 4319
4 4247 4259 4287 4203
4 1096 1099 1091 1107
4 1494 1517 1509 1532
4 2034 1998 2025 1990
4 1912 1921 1874 1889
4 3558 3604 3612 3616
4 4376 4342 4378 4365
4 4378 4376 4365 4401
4 3254 3294 3272 3271
4 1741 1712 1748 1756
4 1798 1772 1778 1814
4 2342 2360 2328 2350
4 2342 2360 2350 2381
4 2360 2328 2350 2352
4 2328 2342 2350 2298
4 3649 3696 3670 3682
4 4012 3998 4047 3973
4 2005 2059 2043 2041
4 2059 2043 2041 2074
4 3400 3433 3389 3445
4 3400 3433 3445 3442
4 3523 3558 3584 3612
4 3164 3207 3184 3221
4 3042 3006 3016 3037
4 1440 1463 1441 1458
4 2958 2969 2917 2931
4 2917 2958 2931 2921
4 2931 2917 2921 2880
4 2189 2187 2159 2169
4 2159 2189 2169 2206
4 3930 3913 3901 3861
4 3930 3913 3861 3933
4 3017 3059 3061 3052
4 3363 3351 3320 3328
4 2870 2848 2856 2896
4 2926 2912 2886 2905
4 4329 4285 4334 4319
4 4087 4034 4064 4058
4 2712 2713 2697 2744
4 2712 2713 2744 2729
4 1400 1387 1418 1407
4 1463 1470 1441 1458
4 2538 2539 2536 2493
4 4320 4331 4359 4362
4 2921 2884 2881 2875
4 1510 1539 1521 1518
4 1521 1510 1518 1501
4 4262 4312 4285 4279
4 3229 3201 3221 3207
4 3277 3266 3281 3227
4 3277 3266 3227 3230
4 3981 3974 4031 3973
4 3832 3780 3799 3732
4 1947 1919 1906 1922
4 1919 1906 1922 1891
4 3729 3680 3725 3664
4 3729 3680 3664 3684
4 3680 3664 3684 3615
4 3034 3036 3085 3077
4 4318 4320 4359 4325
4 1771 1781 1776 1815
4 4214 4259 4247 4203
4 4141 4191 4181 4210
4 2187 2189 2218 2207
4 2189 2218 2207 2206
4 2187 2189 2207 2169
4 3477 3426 3458 3494
4 4349 4342 4376 4365
4 1488 1487 1514 1482
4 3954 3947 3912 3978
4 3380 3384 3422 3382
4 2264 2267 2270 2301
4 2446 2426 2462 2420
4 2620 2613 2589 2612
4 1683 1677 1662 1657
4 1683 1677 1657 1690
4 1683 1677 1690 1726
4 2738 2708 2716 2705
4 2835 2847 2833 2878
4 1922 1915 1940 1921
4 3566 3591 3549 3551
4 3566 3591 3551 3529
4 3591 3549 3551 3582
4 4191 4148 4220 4210
4 1486 1495 1521 1490
4 1486 1495 1490 1477
4 968 958 955 960
4 1166 1188 1189 1161
4 3825 3773 3772 3794
4 3825 3773 3794 3842
4 3773 3772 3794 3719
4 3673 3694 3732 3735
4 1222 1202 1209 1204
4 3132 3096 3128 3110
4 3272 3294 3308 3307
4 637 639 658 631
4 637 639 631 608
4 3398 3435 3413 3402
4 3833 3845 3876 3868
4 2632 2613 2620 2658
4 2799 2772 2780 2798
4 2129 2143 2105 2138
4 4283 4263 4225 4271
4 3603 3637 3568 3613
4 4490 4454 4456 4448
4 4454 4456 4448 4423
4 4254 4279 4228 4201
4 4217 4244 4190 4246
4 4217 4244 4246 4260
4 3210 3226 3193 3225
4 2649 2661 2683 2673
4 4150 4106 4121 4105
4 4150 4106 4105 4107
4 2034 2069 2053 2066
4 4101 4085 4047 4053
4 2298 2264 2270 2301
4 2270 2298 2301 2328
4 3065 3103 3077 3101
4 3015 3017 3061 3052
4 2916 2955 2936 2920
4 3291 3252 3258 3230
4 4495 4493 4488 4450
4 1715 1717 1697 1699
4 1717 1697 1699 1748
4 4343 4360 4309 4323
4 4138 4099 4083 4140
4 2352 2321 2341 2328
4 2352 2321 2328 2350
4 1052 1068 1058 1059
4 4095 4138 4083 4093
4 3477 3498 3535 3518
4 3221 3191 3230 3225
4 1263 1271 1236 1250
4 2082 2042 2057 2069
4 2784 2814 2805 2818
4 923 920 929 914
4 4288 4323 4309 4335
4 4126 4149 4096 4190
4 1634 1646 1649 1612
4 1634 1646 1612 1629
4 2079 2085 2069 2039
4 2218 2187 2207 2210
4 2187 2207 2210 2185
4 2187 2207 2185 2169
4 2210 2187 2185 2165
4 3551 3566 3529 3505
4 3529 3551 3505 3520
4 4204 4228 4173 4201
4 4173 4204 4201 4150
4 4201 4173 4150 4165
4 4173 4150 4165 4107
4 4352 4344 4332 4368
4 4352 4344 4368 4393
4 4344 4332 4368 4378
4 4368 4344 4378 4393
4 4378 4368 4393 4401
4 1712 1726 1748 1709
4 1712 1726 1709 1677
4 1726 1748 1709 1735
4 1709 1726 1735 1690
4 4332 4329 4352 4364
4 4103 4155 4121 4181
4 4121 4103 4181 4133
4 4121 4103 4133 4055
4 4121 4103 4055 4047
4 2218 2207 2206 2247
4 2218 2207 2247 2242
4 2138 2156 2129 2143
4 2265 2246 2293 2260
4 3899 3950 3970 3927
4 3899 3950 3927 3964
4 1563 1551 1564 1575
4 1563 1551 1575 1562
4 1778 1770 1756 1755
4 1756 1778 1755 1809
4 3817 3776 3796 3744
4 1708 1690 1726 1683
4 1708 1690 1683 1669
4 1353 1342 1345 1315
4 2755 2738 2780 2716
4 2755 2738 2716 2705
4 2189 2207 2169 2206
4 2207 2169 2206 2204
4 2169 2206 2204 2176
4 2169 2206 2176 2136
4 2034 2042 1990 2014
4 3701 3708 3755 3673
4 2269 2287 2301 2267
4 1810 1836 1813 1815
4 1813 1810 1815 1781
4 4292 4332 4319 4287
4 4292 4332 4287 4307
4 4169 4159 4193 4230
4 3350 3389 3366 3358
4 3366 3350 3358 3323
4 3366 3350 3323 3356
4 3366 3350 3356 3407
4 4339 4355 4382 4330
4 4326 4332 4365 4319
4 4432 4452 4421 4422
4 4421 4432 4422 4407
4 4421 4432 4407 4423
4 4421 4432 4423 4454
4 1380 1397 1389 1353
4 2097 2069 2093 2104
4 3443 3452 3442 3403
4 4347 4352 4364 4392
4 1771 1810 1815 1791
4 3832 3819 3779 3830
4 3910 3912 3927 3871
4 2931 2930 2939 2964
4 4330 4283 4301 4325
4 2121 2134 2097 2104
4 3826 3830 3879 3851
4 3829 3830 3779 3819
4 3077 3040 3034 3027
4 2510 2478 2511 2489
4 2510 2478 2489 2525
4 2596 2589 2612 2578
4 1669 1644 1628 1651
4 4287 4255 4329 4285
4 4329 4287 4285 4319
4 4287 4255 4285 4203
4 4287 4285 4319 4239
4 3520 3553 3551 3505
4 3379 3436 3405 3439
4 3436 3405 3439 3472
4 1910 1887 1891 1859
4 3591 3551 3529 3577
4 2749 2768 2735 2771
4 2768 2735 2771 2755
4 2768 2735 2755 2740
4 2735 2749 2771 2722
4 2771 2768 2755 2798
4 2771 2768 2798 2781
4 2768 2755 2798 2800
4 2798 2771 2781 2813
4 2771 2781 2813 2818
4 2845 2881 2835 2884
4 3990 3970 4024 4031
4 2487 2462 2459 2474
4 2487 2462 2474 2507
4 3609 3637 3590 3568
4 4455 4459 4429 4447
4 4455 4459 4447 4487
4 4459 4429 4447 4450
4 4459 4447 4487 4450
4 2665 2632 2649 2658
4 2665 2632 2658 2613
4 2665 2632 2613 2656
4 2211 2180 2220 2197
4 2097 2122 2138 2134
4 2097 2122 2134 2141
4 2122 2134 2141 2138
4 4358 4334 4364 4377
4 2959 2944 2953 2934
4 3373 3385 3346 3347
4 3385 3346 3347 3362
4 3319 3357 3354 3365
4 3357 3354 3365 3403
4 3526 3491 3537 3472
4 3526 3491 3472 3533
4 3826 3807 3766 3760
4 3807 3766 3760 3779
4 3826 3807 3760 3796
4 3827 3788 3795 3854
4 3827 3788 3854 3828
4 3452 3447 3402 3472
4 3952 3904 3886 3871
4 3976 4012 4018 3997
4 4018 3976 3997 4020
4 2833 2835 2878 2855
4 2833 2835 2855 2799
4 4460 4456 4430 4448
4 4460 4456 4448 4484
4 4456 4430 4448 4423
4 4456 4448 4484 4490
4 2911 2945 2900 2907
4 2900 2911 2907 2868
4 2907 2900 2868 2896
4 1156 1170 1164 1194
4 2246 2242 2207 2218
4 4462 4452 4446 4476
4 4446 4462 4476 4461
4 882 865 873 869
4 3474 3489 3433 3463
4 1814 1831 1867 1846
4 1814 1831 1846 1812
4 1814 1831 1812 1798
4 1831 1846 1812 1874
4 1831 1867 1846 1874
4 1814 1831 1798 1825
4 1831 1798 1825 1812
4 4332 4342 4365 4378
4 2908 2882 2870 2886
4 2870 2908 2886 2896
4 3696 3727 3717 3682
4 2774 2782 2725 2734
4 4331 4320 4322 4362
4 890 885 898 882
4 4190 4126 4129 4120
4 3362 3386 3421 3360
4 3952 4005 3978 4023
4 1334 1314 1315 1301
4 1314 1315 1301 1289
4 1315 1301 1289 1271
4 1156 1174 1194 1165
4 3442 3407 3400 3366
4 2270 2246 2226 2260
4 3247 3252 3207 3221
4 2777 2807 2757 2800
4 1967 1951 1956 1981
4 2646 2616 2654 2643
4 3919 3904 3936 3867
4 2459 2445 2462 2426
4 2722 2714 2725 2704
4 3308 3329 3346 3307
4 2683 2665 2649 2673
4 3027 2989 2979 2991
4 1255 1258 1276 1263
4 4326 4349 4346 4365
4 4326 4349 4365 4342
4 3164 3184 3191 3221
4 2557 2585 2542 2559
4 3300 3322 3309 3291
4 3309 3300 3291 3250
4 2754 2722 2738 2735
4 4318 4296 4357 4354
4 4276 4280 4248 4300
4 4280 4248 4300 4326
4 4300 4280 4326 4322
4 4280 4326 4322 4324
4 4326 4300 4322 4346
4 4280 4326 4324 4247
4 4280 4248 4326 4247
4 4326 4322 4324 4362
4 4322 4280 4324 4277
4 4322 4326 4346 4362
4 4280 4324 4277 4239
4 4469 4468 4465 4442
4 1835 1849 1810 1834
4 1312 1315 1345 1342
4 4120 4064 4114 4133
4 1015 1009 1023 1004
4 2651 2681 2634 2676
4 1815 1827 1810 1849
4 3853 3896 3839 3872
4 3976 3930 3962 3997
4 2511 2522 2489 2483
4 1859 1883 1891 1849
4 2143 2165 2147 2134
4 2165 2147 2134 2187
4 2143 2165 2134 2158
4 2134 2143 2158 2138
4 2158 2134 2138 2141
4 2158 2134 2141 2187
4 2158 2134 2187 2165
4 2736 2722 2725 2704
4 1443 1418 1456 1440
4 1456 1443 1440 1477
4 1953 1919 1951 1910
4 1953 1919 1910 1956
4 1919 1951 1910 1922
4 2627 2643 2612 2645
4 2884 2921 2917 2880
4 4336 4331 4322 4362
4 2926 2922 2958 2917
4 3403 3405 3402 3365
4 4280 4277 4229 4239
4 4277 4229 4239 4249
4 1404 1412 1398 1407
4 979 996 984 987
4 2433 2400 2418 2450
4 2433 2400 2450 2395
4 2418 2433 2450 2472
4 2450 2418 2472 2431
4 2450 2418 2431 2395
4 3178 3157 3119 3137
4 4215 4198 4225 4138
4 2338 2348 2365 2328
4 3209 3191 3190 3230
4 2370 2358 2387 2360
4 4298 4325 4296 4357
4 4106 4152 4121 4101
4 3839 3795 3791 3799
4 2105 2082 2069 2104
4 1331 1342 1345 1369
4 4231 4264 4210 4216
4 4210 4231 4216 4181
4 4231 4216 4181 4251
4 4231 4216 4251 4281
4 4231 4216 4281 4264
4 4281 4231 4264 4288
4 1563 1540 1562 1569
4 1563 1540 1569 1541
4 2348 2319 2342 2328
4 2348 2319 2328 2338
4 2319 2342 2328 2301
4 1606 1616 1584 1585
4 1616 1584 1585 1610
4 4229 4230 4239 4169
4 1091 1071 1079 1077
4 4138 4156 4140 4175
4 4138 4156 4175 4215
4 4156 4140 4175 4215
4 4140 4138 4175 4083
4 4034 4005 4064 3978
4 2789 2799 2814 2835
4 3090 3112 3109 3158
4 3063 3069 3077 3109
4 3875 3887 3943 3899
4 4231 4215 4288 4225
4 3903 3878 3877 3962
4 1827 1815 1859 1849
4 3183 3179 3133 3178
4 3183 3179 3178 3230
4 3133 3183 3178 3137
4 3179 3133 3178 3156
4 3133 3178 3156 3119
4 3178 3179 3156 3193
4 3719 3773 3751 3794
4 3773 3751 3794 3842
4 3751 3719 3794 3749
4 4149 4093 4096 4138
4 1245 1258 1255 1263
4 1255 1245 1263 1236
4 3735 3681 3726 3673
4 3729 3744 3719 3664
4 2100 2090 2073 2046
4 3865 3878 3817 3877
4 4040 4047 4059 4085
4 4040 4047 4085 4053
4 3407 3437 3435 3402
4 2708 2677 2716 2705
4 3582 3520 3551 3568
4 2835 2838 2875 2884
4 2073 2103 2059 2074
4 4454 4490 4484 4448
4 3183 3158 3203 3106
4 4376 4349 4365 4383
4 4190 4217 4246 4229
4 2922 2884 2917 2882
4 3090 3106 3112 3158
4 2270 2289 2293 2328
4 3294 3272 3271 3307
4 3272 3271 3307 3242
4 1189 1187 1161 1188
4 1189 1187 1188 1204
4 1921 1949 1908 1940
4 4432 4462 4446 4461
4 2362 2358 2327 2371
4 3452 3402 3442 3403
4 4284 4327 4253 4281
4 2658 2673 2637 2649
4 3635 3617 3611 3658
4 3635 3617 3658 3698
4 3658 3635 3698 3611
4 3617 3658 3698 3708
4 3658 3698 3708 3749
4 3529 3490 3537 3492
4 3529 3490 3492 3505
4 3492 3529 3505 3520
4 3079 3085 3091 3119
4 3079 3085 3119 3109
4 2448 2445 2420 2426
4 2511 2492 2533 2472
4 2511 2492 2472 2478
4 2688 2705 2674 2694
4 3992 4032 4081 4011
4 3875 3830 3850 3832
4 2102 2141 2097 2121
4 2102 2141 2121 2133
4 4099 4079 4083 4140
4 4458 4453 4428 4444
4 4458 4453 4444 4483
4 4428 4458 4444 4445
4 3474 3492 3463 3505
4 3492 3463 3505 3490
4 3492 3463 3490 3452
4 3463 3505 3490 3507
4 1186 1204 1187 1202
4 2229 2218 2251 2265
4 2218 2251 2265 2247
4 2251 2265 2247 2297
4 2218 2251 2247 2206
4 2265 2218 2247 2242
4 2247 2265 2242 2262
4 2247 2265 2262 2297
4 2909 2931 2921 2880
4 3221 3258 3252 3230
4 1859 1848 1849 1815
4 3011 3033 2992 2975
4 1129 1111 1120 1116
4 3308 3272 3307 3324
4 1205 1204 1209 1189
4 3443 3420 3403 3442
4 4011 3954 3969 3978
4 2964 2998 2976 2984
4 3943 3921 3879 3875
4 3921 3879 3875 3851
4 3996 3955 3962 3930
4 1333 1353 1345 1315
4 1584 1587 1563 1569
4 2248 2223 2203 2219
4 1876 1889 1912 1874
4 3807 3830 3766 3779
4 1677 1646 1651 1632
4 4327 4335 4338 4281
4 4096 4081 4058 4011
4 3221 3191 3225 3184
4 2457 2420 2443 2462
4 3233 3219 3204 3234
4 3204 3233 3234 3242
4 2319 2289 2301 2328
4 2175 2180 2165 2210
4 2587 2559 2595 2578
4 1629 1628 1651 1610
4 3517 3535 3573 3494
4 3207 3225 3184 3221
4 2288 2316 2268 2315
4 4094 4058 4064 4096
4 4094 4058 4096 4126
4 4058 4064 4096 4011
4 4058 4064 4011 4034
4 3040 3077 3037 3027
4 3355 3402 3413 3440
4 2886 2884 2908 2882
4 2855 2835 2814 2799
4 1683 1726 1712 1677
4 4487 4483 4480 4447
4 3385 3427 3426 3421
4 3799 3828 3832 3871
4 4327 4293 4253 4338
4 4355 4330 4353 4382
4 2057 2064 2082 2069
4 1449 1471 1458 1438
4 3795 3839 3854 3799
4 2782 2818 2769 2784
4 2905 2907 2868 2896
4 4073 4130 4128 4114
4 4073 4130 4114 4157
4 1514 1541 1532 1528
4 1514 1541 1528 1522
4 1541 1532 1528 1558
4 1541 1528 1522 1558
4 1532 1514 1528 1502
4 1514 1528 1502 1522
4 1528 1502 1522 1509
4 1528 1502 1509 1532
4 1502 1509 1532 1482
4 1502 1509 1482 1487
4 1482 1502 1487 1514
4 1502 1509 1487 1522
4 1502 1487 1514 1522
4 1532 1514 1502 1482
4 1509 1528 1532 1558
4 4313 4284 4243 4270
4 2047 2053 2066 2034
4 1849 1891 1889 1883
4 3962 4012 3976 3997
4 4159 4169 4120 4188
4 4159 4169 4188 4239
4 4204 4254 4228 4201
4 3955 3949 3903 3930
4 4057 4005 4023 4064
4 4282 4260 4277 4246
4 2563 2592 2575 2545
4 2025 2054 2039 2066
4 3964 3911 3927 3899
4 4462 4432 4448 4461
4 3350 3398 3356 3407
4 914 898 907 901
4 1058 1059 1045 1041
4 1058 1059 1041 1052
4 1297 1282 1298 1276
4 1282 1298 1276 1263
4 3646 3602 3615 3660
4 3277 3283 3230 3250
4 3059 3061 3052 3082
4 3059 3061 3082 3110
4 3025 3027 2984 2991
4 2164 2195 2176 2204
4 4271 4288 4215 4225
4 2499 2535 2515 2545
4 3648 3640 3681 3619
4 3755 3799 3726 3732
4 3755 3799 3732 3791
4 3726 3755 3732 3673
4 4329 4334 4364 4319
4 3602 3581 3615 3660
4 2102 2085 2136 2081
4 2102 2085 2081 2054
4 2102 2085 2054 2093
4 2365 2379 2395 2387
4 2395 2365 2387 2358
4 2395 2365 2358 2371
4 2365 2387 2358 2360
4 2848 2856 2896 2868
4 3828 3866 3876 3832
4 3866 3876 3832 3927
4 3828 3866 3832 3871
4 4230 4280 4239 4247
4 4367 4362 4346 4383
4 4331 4359 4362 4367
4 1910 1918 1930 1956
4 2041 2029 2074 2043
4 3943 3974 3973 3879
4 4354 4318 4359 4357
4 4149 4192 4138 4160
4 4149 4192 4160 4190
4 2525 2542 2561 2536
4 3637 3649 3670 3682
4 3363 3319 3354 3291
4 1541 1564 1532 1558
4 1541 1564 1558 1569
4 1564 1532 1558 1567
4 3970 3943 3920 3899
4 3603 3640 3648 3582
4 3631 3637 3670 3625
4 3670 3631 3625 3616
4 1521 1545 1522 1495
4 2934 2926 2896 2905
4 4353 4330 4301 4351
4 639 637 606 608
4 2901 2876 2900 2821
4 4320 4282 4277 4246
4 3489 3492 3506 3452
4 1449 1424 1438 1458
4 4452 4432 4446 4422
4 1883 1848 1863 1889
4 1848 1863 1889 1836
4 1863 1889 1836 1846
4 1863 1889 1846 1867
4 1836 1863 1846 1797
4 1276 1271 1263 1298
4 2944 2905 2926 2934
4 1470 1487 1482 1458
4 2855 2884 2882 2838
4 2717 2735 2705 2722
4 2735 2705 2722 2738
4 2301 2298 2342 2328
4 3319 3301 3291 3363
4 3954 4011 3992 3978
4 2169 2141 2133 2185
4 4453 4455 4425 4435
4 4453 4455 4435 4483
4 4455 4425 4435 4429
4 4425 4453 4435 4428
4 3999 4037 4024 3991
4 4024 3999 3991 3950
4 3117 3102 3069 3116
4 2772 2789 2769 2771
4 2789 2769 2771 2818
4 2772 2789 2771 2755
4 2772 2789 2755 2798
4 2789 2771 2755 2798
4 2789 2771 2798 2835
4 3619 3613 3673 3648
4 4451 4457 4427 4446
4 4451 4457 4446 4476
4 4427 4451 4446 4422
4 4446 4451 4476 4452
4 4446 4451 4452 4422
4 3780 3735 3726 3732
4 3780 3735 3732 3727
4 3684 3729 3719 3664
4 2884 2878 2881 2835
4 4371 4360 4366 4382
4 4079 4031 4083 4070
4 4079 4031 4070 4059
4 4083 4079 4070 4141
4 4031 4070 4059 3974
4 4070 4079 4059 4141
4 2076 2053 2069 2066
4 4454 4462 4448 4484
4 4462 4448 4484 4479
4 4320 4277 4324 4249
4 3077 3068 3027 3036
4 4120 4094 4064 4096
4 4064 4120 4096 4133
4 4120 4094 4096 4126
4 4096 4120 4126 4190
4 1470 1490 1487 1463
4 1487 1470 1463 1458
4 3111 3096 3082 3128
4 3096 3082 3128 3110
4 2549 2522 2511 2545
4 1397 1406 1389 1424
4 2412 2420 2379 2387
4 2412 2420 2387 2406
4 2420 2387 2406 2400
4 853 860 848 865
4 2306 2319 2338 2328
4 1629 1613 1610 1612
4 3034 3079 3063 3085
4 4141 4181 4103 4160
4 4253 4293 4279 4333
4 3491 3457 3506 3442
4 2341 2362 2327 2297
4 2985 3007 3016 3040
4 4194 4202 4237 4155
4 2207 2210 2246 2218
4 2697 2712 2744 2740
4 1418 1400 1407 1440
4 4093 4037 4096 4024
4 1831 1853 1867 1874
4 2432 2426 2459 2462
4 2043 2040 2029 2074
4 3901 3878 3930 3861
4 4175 4210 4141 4181
4 3830 3875 3879 3851
4 2289 2270 2301 2328
4 2568 2578 2549 2589
4 3896 3945 3952 3968
4 2882 2917 2880 2884
4 3999 3992 4037 3991
4 2246 2270 2293 2260
4 2507 2525 2487 2462
4 3727 3682 3732 3766
4 1914 1951 1922 1910
4 2720 2694 2722 2704
4 3191 3179 3230 3184
4 4367 4383 4398 4362
4 4335 4309 4360 4323
4 2953 2992 2974 2959
4 3328 3366 3323 3291
4 4363 4327 4338 4356
4 3866 3910 3927 3871
4 3887 3879 3943 3877
4 1177 1162 1154 1188
4 2299 2293 2306 2338
4 2293 2306 2338 2328
4 2306 2299 2338 2315
4 1809 1836 1846 1797
4 1809 1836 1797 1813
4 2958 2969 2931 2991
4 2958 2969 2991 3016
4 2352 2377 2360 2370
4 1585 1562 1545 1569
4 3970 3974 3977 4024
4 2533 2559 2542 2578
4 1568 1586 1574 1598
4 3382 3358 3422 3380
4 4377 4358 4386 4364
4 3291 3323 3322 3309
4 4042 3990 4024 4031
4 4472 4467 4470 4441
4 2535 2563 2515 2545
4 3573 3584 3615 3561
4 1315 1298 1301 1271
4 2782 2769 2736 2725
4 4458 4481 4475 4445
4 3307 3347 3346 3362
4 3307 3347 3362 3360
4 3090 3109 3079 3119
4 3109 3063 3079 3085
4 4298 4351 4325 4357
4 2656 2674 2643 2645
4 2674 2643 2645 2677
4 2158 2138 2159 2141
4 3276 3252 3291 3260
4 3252 3225 3207 3221
4 3252 3225 3221 3230
4 2029 2054 2074 2040
4 2457 2428 2450 2431
4 2360 2398 2381 2342
4 2465 2499 2452 2483
4 2093 2066 2069 2039
4 4194 4201 4150 4121
4 2979 2931 2991 2958
4 4323 4288 4283 4339
4 2878 2886 2905 2868
4 4103 4098 4141 4059
4 3090 3079 3033 3057
4 3090 3079 3057 3091
4 3090 3079 3091 3119
4 2040 2043 2081 2074
4 4360 4371 4380 4388
4 4360 4371 4388 4382
4 4371 4380 4388 4400
4 4371 4388 4382 4400
4 4388 4360 4382 4375
4 4382 4388 4375 4403
4 3132 3149 3163 3128
4 3163 3132 3128 3166
4 3646 3684 3660 3615
4 3046 3035 3057 3091
4 4254 4238 4279 4201
4 1806 1834 1835 1810
4 1836 1849 1889 1848
4 1836 1849 1848 1815
4 3682 3673 3732 3708
4 4238 4204 4201 4254
4 2658 2690 2694 2645
4 2694 2658 2645 2656
4 4194 4152 4155 4121
4 1876 1850 1889 1874
4 1517 1544 1509 1532
4 2007 2005 2041 2059
4 4493 4459 4487 4450
4 4255 4203 4200 4285
4 4329 4332 4319 4364
4 2992 2953 2973 2975
4 3309 3355 3304 3365
4 2121 2093 2097 2102
4 2121 2093 2102 2133
4 2054 2040 2085 2081
4 2054 2040 2081 2074
4 2081 2054 2074 2102
4 4432 4454 4448 4423
4 3016 3040 3042 3037
4 3698 3738 3749 3789
4 4060 4039 4020 4107
4 4458 4485 4483 4475
4 3738 3708 3749 3791
4 3749 3738 3791 3789
4 2299 2265 2251 2297
4 2299 2265 2297 2262
4 3871 3854 3886 3839
4 3871 3854 3839 3799
4 3854 3886 3839 3896
4 3886 3871 3839 3851
4 2248 2270 2226 2260
4 2886 2878 2855 2833
4 3830 3826 3766 3851
4 2707 2690 2677 2645
4 4391 4380 4405 4400
4 1397 1384 1389 1353
4 2358 2341 2338 2328
4 3158 3183 3133 3090
4 3077 3069 3116 3109
4 4334 4328 4333 4285
4 4121 4106 4101 4060
4 4121 4106 4060 4105
4 4216 4281 4264 4181
4 4031 4083 4070 4024
4 3701 3672 3617 3673
4 3701 3672 3673 3755
4 3227 3277 3230 3203
4 4288 4271 4283 4225
4 2289 2306 2293 2328
4 2616 2603 2595 2612
4 2616 2603 2612 2645
4 2603 2612 2645 2620
4 2645 2603 2620 2616
4 4203 4157 4200 4196
4 4200 4203 4196 4285
4 4203 4157 4196 4214
4 4486 4462 4484 4476
4 1521 1522 1490 1495
4 3402 3355 3365 3440
4 2900 2896 2856 2868
4 3780 3832 3779 3732
4 3385 3346 3362 3406
4 3201 3207 3164 3221
4 1683 1657 1669 1690
4 4216 4251 4281 4181
4 3681 3726 3673 3672
4 3726 3673 3672 3755
4 3673 3681 3672 3619
4 1776 1813 1781 1797
4 1781 1776 1797 1748
4 1735 1709 1690 1697
4 3551 3582 3568 3613
4 3551 3582 3613 3591
4 3613 3551 3591 3577
4 2525 2507 2478 2462
4 4057 4023 4052 4114
4 1717 1742 1755 1756
4 1755 1717 1756 1748
4 1756 1755 1748 1809
4 3899 3876 3927 3875
4 3355 3304 3365 3360
4 3365 3355 3360 3440
4 3355 3304 3360 3300
4 1567 1543 1532 1574
4 2251 2247 2206 2268
4 3359 3379 3405 3439
4 3405 3359 3439 3406
4 4169 4188 4239 4229
4 4188 4239 4229 4249
4 4059 4070 4141 4103
4 4070 4141 4103 4083
4 2799 2789 2798 2835
4 3452 3491 3472 3537
4 4281 4231 4288 4251
4 4231 4288 4251 4225
4 4288 4281 4251 4339
4 4251 4231 4225 4160
4 1545 1540 1522 1569
4 4264 4210 4216 4181
4 1587 1612 1598 1610
4 2536 2561 2549 2542
4 3590 3637 3625 3568
4 3732 3682 3708 3766
4 2939 2984 2991 2964
4 2991 2939 2964 2931
4 2493 2525 2539 2536
4 2493 2525 2536 2522
4 1755 1778 1814 1809
4 3402 3356 3398 3407
4 3732 3673 3735 3726
4 3700 3698 3635 3611
4 4325 4318 4357 4359
4 2260 2229 2251 2265
4 3988 4023 3952 3968
4 3988 4023 3968 4052
4 4023 3952 3968 3993
4 4023 3968 4052 3993
4 3952 3968 3993 3886
4 2985 3007 3040 3034
4 2876 2911 2900 2868
4 4018 4012 4060 3997
4 4060 4018 3997 4020
4 1161 1177 1154 1188
4 3442 3489 3506 3452
4 3442 3489 3452 3463
4 3442 3489 3463 3433
4 3442 3455 3457 3506
4 3921 3970 3977 3927
4 3590 3546 3568 3564
4 3590 3546 3564 3533
4 4444 4458 4483 4475
4 3282 3284 3328 3291
4 3896 3952 3886 3968
4 4047 4101 4053 4060
4 4467 4464 4466 4438
4 4322 4320 4324 4362
4 2185 2147 2187 2141
4 2185 2147 2141 2133
4 1522 1528 1509 1558
4 1359 1369 1384 1366
4 1384 1359 1366 1353
4 1359 1366 1353 1345
4 1366 1353 1345 1389
4 1366 1353 1389 1384
4 1359 1369 1366 1345
4 1389 1366 1384 1369
4 1345 1366 1389 1369
4 4292 4326 4248 4247
4 4292 4326 4247 4319
4 4359 4362 4367 4398
4 4228 4279 4262 4224
4 4228 4279 4224 4201
4 4262 4228 4224 4200
4 4224 4228 4201 4165
4 4228 4224 4200 4165
4 4224 4200 4165 4196
4 4165 4224 4196 4183
4 4224 4262 4200 4285
4 4224 4200 4196 4285
4 4165 4224 4183 4201
4 4196 4165 4183 4114
4 4224 4183 4201 4253
4 4200 4165 4196 4157
4 4224 4196 4183 4239
4 4224 4262 4285 4279
4 2059 2081 2074 2103
4 4120 4169 4129 4189
4 4120 4169 4189 4190
4 1359 1342 1369 1345
4 3204 3206 3166 3242
4 4360 4323 4339 4335
4 4339 4360 4335 4375
4 4360 4335 4375 4380
4 3063 3034 3085 3077
4 2206 2207 2204 2247
4 1848 1863 1836 1813
4 3992 3991 3978 4064
4 2578 2549 2589 2542
4 2578 2549 2542 2511
4 3780 3799 3732 3726
4 4210 4264 4220 4237
4 4264 4220 4237 4281
4 4237 4264 4281 4181
4 4366 4355 4353 4382
4 3719 3684 3664 3660
4 3719 3684 3660 3751
4 3033 3015 2999 3004
4 3523 3476 3533 3440
4 4079 4083 4140 4141
4 4140 4079 4141 4059
4 4328 4279 4317 4293
4 4328 4279 4293 4333
4 4293 4328 4333 4317
4 4328 4279 4333 4285
4 2345 2339 2315 2371
4 2694 2707 2705 2674
4 2707 2705 2674 2677
4 4169 4159 4230 4239
4 4106 4060 4105 4107
4 3617 3611 3658 3618
4 3658 3617 3618 3708
4 3611 3658 3618 3657
4 3611 3658 3657 3698
4 3658 3657 3698 3749
4 3658 3618 3657 3708
4 3618 3611 3657 3561
4 2478 2511 2489 2450
4 3943 3921 3875 3899
4 3921 3875 3899 3927
4 3904 3952 3978 3871
4 2360 2328 2352 2358
4 4335 4363 4338 4375
4 4363 4338 4375 4372
4 4335 4363 4375 4380
4 4338 4335 4375 4339
4 4338 4375 4372 4369
4 4338 4375 4369 4339
4 4375 4363 4372 4391
4 4375 4363 4391 4380
4 4391 4375 4380 4388
4 4391 4375 4388 4403
4 4380 4391 4388 4400
4 4155 4121 4181 4194
4 3535 3523 3573 3494
4 810 796 809 787
4 1778 1798 1814 1812
4 1814 1778 1812 1809
4 1812 1814 1809 1846
4 1809 1812 1846 1850
4 3517 3573 3581 3494
4 1495 1490 1477 1522
4 2270 2298 2328 2293
4 2298 2328 2293 2321
4 2298 2328 2321 2350
4 2328 2293 2321 2341
4 2489 2457 2450 2483
4 3549 3591 3578 3582
4 1726 1709 1677 1690
4 1709 1677 1690 1697
4 2242 2247 2262 2204
4 3439 3464 3490 3525
4 4332 4352 4368 4364
4 4352 4368 4364 4392
4 1614 1586 1598 1574
4 3772 3825 3794 3824
4 3794 3772 3824 3744
4 3825 3794 3824 3842
4 3794 3772 3744 3719
4 3772 3824 3744 3817
4 2207 2169 2204 2185
4 2462 2493 2489 2525
4 2054 2066 2074 2093
4 2054 2066 2093 2039
4 2206 2204 2176 2224
4 2365 2338 2328 2358
4 2365 2338 2358 2371
4 4463 4466 4443 4465
4 4169 4120 4188 4190
4 3283 3291 3230 3250
4 3950 3964 3991 3927
4 3964 3991 3927 3978
4 3991 3927 3978 3977
4 3991 3950 3927 3970
4 2327 2362 2371 2339
4 1649 1646 1677 1632
4 1649 1646 1632 1598
4 2613 2620 2658 2656
4 3976 3951 3933 4020
4 1770 1742 1756 1755
4 3359 3405 3365 3406
4 3546 3506 3568 3564
4 3546 3506 3564 3526
4 3564 3546 3526 3533
4 3506 3564 3526 3537
4 3564 3526 3537 3561
4 2589 2585 2587 2559
4 3970 3950 4024 3991
4 2886 2926 2905 2896
4 2039 2054 2085 2093
4 3442 3407 3366 3402
4 3755 3708 3791 3732
4 3755 3708 3732 3673
4 4435 4453 4483 4444
4 4435 4453 4444 4428
4 4483 4435 4444 4480
4 4444 4435 4428 4416
4 4444 4435 4416 4440
4 4444 4435 4440 4480
4 1776 1753 1773 1735
4 1776 1753 1735 1748
4 3648 3640 3619 3582
4 2297 2299 2262 2315
4 2297 2299 2315 2327
4 2297 2299 2327 2341
4 2299 2327 2341 2338
4 2299 2315 2327 2338
4 2315 2297 2327 2339
4 2813 2835 2798 2771
4 2855 2848 2833 2799
4 3403 3366 3354 3402
4 3354 3403 3402 3365
4 4281 4309 4335 4288
4 2341 2358 2352 2328
4 2362 2358 2371 2418
4 3648 3603 3582 3613
4 4377 4386 4404 4392
4 1438 1441 1470 1482
4 2489 2493 2522 2525
4 3077 3063 3109 3085
4 3537 3529 3492 3520
4 3664 3612 3616 3625
4 4359 4320 4362 4361
4 4359 4320 4361 4325
4 4362 4359 4361 4390
4 2884 2922 2908 2882
4 2136 2102 2081 2133
4 4347 4364 4377 4392
4 4364 4377 4392 4386
4 4327 4293 4338 4317
4 3615 3581 3561 3657
4 2358 2370 2352 2360
4 3356 3402 3366 3407
4 707 726 702 727
4 4385 4354 4367 4359
4 4385 4354 4359 4357
4 4301 4283 4278 4325
4 4283 4278 4325 4308
4 4278 4325 4308 4320
4 4283 4278 4308 4249
4 4278 4308 4249 4320
4 2143 2134 2104 2105
4 2143 2134 2105 2138
4 2134 2105 2138 2097
4 2134 2105 2097 2104
4 3879 3877 3878 3962
4 4477 4475 4445 4472
4 4228 4173 4201 4165
4 3402 3447 3440 3472
4 1487 1490 1514 1522
4 1748 1712 1709 1699
4 1712 1709 1699 1677
4 1709 1699 1677 1697
4 1709 1699 1697 1748
4 3283 3277 3291 3250
4 2265 2299 2306 2262
4 4429 4455 4447 4435
4 4455 4447 4435 4483
4 4447 4429 4435 4420
4 4435 4447 4420 4440
4 4447 4429 4420 4450
4 4435 4447 4440 4480
4 1309 1312 1282 1301
4 1309 1312 1301 1345
4 4246 4190 4229 4249
4 4332 4368 4378 4365
4 4368 4378 4365 4401
4 4332 4368 4365 4364
4 1584 1613 1587 1610
4 3309 3354 3365 3319
4 3309 3354 3319 3291
4 3309 3354 3291 3323
4 3319 3309 3291 3277
4 3921 3879 3851 3962
4 1509 1482 1487 1458
4 3520 3551 3568 3537
4 3866 3832 3871 3927
4 4489 4455 4483 4487
4 1708 1683 1679 1669
4 1564 1558 1569 1587
4 1564 1558 1587 1598
4 4328 4317 4356 4333
4 4181 4191 4237 4210
4 3252 3225 3230 3260
4 2905 2944 2959 2934
4 3490 3492 3452 3537
4 3452 3490 3537 3472
4 3936 3912 3904 3978
4 2420 2387 2400 2395
4 2420 2387 2395 2379
4 2195 2224 2176 2204
4 3766 3826 3760 3796
4 3037 3040 3027 2989
4 4280 4239 4247 4324
4 4383 4346 4349 4365
4 3962 4012 3997 3974
4 3708 3749 3791 3756
4 3529 3591 3577 3594
4 3380 3389 3358 3422
4 2074 2081 2102 2133
4 2979 2989 2958 2991
4 4150 4201 4165 4121
4 2542 2525 2522 2536
4 3156 3179 3184 3193
4 3452 3442 3491 3506
4 3491 3452 3506 3537
4 3458 3487 3472 3427
4 3857 3861 3824 3878
4 3824 3857 3878 3817
4 3291 3309 3250 3277
4 4388 4382 4400 4403
4 3921 3974 3879 3973
4 3921 3974 3973 3962
4 3974 3973 3962 4012
4 1867 1846 1874 1889
4 1846 1874 1889 1850
4 1846 1874 1850 1812
4 1400 1412 1407 1425
4 1407 1398 1369 1389
4 1407 1398 1389 1440
4 2224 2225 2268 2204
4 2921 2884 2875 2880
4 2884 2875 2880 2882
4 4386 4370 4404 4387
4 3281 3277 3227 3203
4 3525 3550 3577 3611
4 2127 2164 2114 2133
4 1651 1646 1629 1610
4 4430 4460 4448 4439
4 4430 4460 4439 4450
4 4460 4448 4439 4484
4 4448 4430 4439 4418
4 4460 4439 4450 4488
4 4439 4430 4450 4414
4 4430 4439 4418 4414
4 4439 4450 4488 4447
4 4493 4487 4488 4450
4 1612 1587 1613 1610
4 2603 2587 2595 2578
4 3886 3839 3896 3872
4 3886 3839 3872 3855
4 3896 3886 3872 3968
4 3872 3886 3855 3933
4 3886 3839 3855 3851
4 1397 1398 1425 1438
4 3385 3426 3406 3421
4 3406 3385 3421 3362
4 3879 3826 3851 3878
4 3643 3664 3616 3704
4 3103 3085 3077 3109
4 1697 1717 1743 1755
4 1697 1717 1755 1748
4 2643 2612 2645 2616
4 4360 4339 4382 4375
4 2917 2882 2908 2922
4 1684 1715 1697 1699
4 3828 3854 3871 3799
4 4367 4398 4385 4359
4 3309 3304 3250 3277
4 4362 4346 4383 4365
4 4457 4427 4446 4437
4 4457 4427 4437 4442
4 4427 4446 4437 4415
4 4427 4437 4442 4410
4 4437 4427 4415 4410
4 4446 4457 4437 4476
4 4437 4457 4442 4468
4 2840 2876 2821 2868
4 4283 4225 4278 4249
4 4214 4247 4248 4230
4 1748 1781 1809 1797
4 1781 1809 1797 1813
4 2247 2251 2297 2268
4 3717 3670 3682 3702
4 3717 3670 3702 3704
4 3670 3682 3702 3625
4 3779 3727 3780 3732
4 3779 3727 3732 3766
4 3494 3458 3472 3406
4 3494 3458 3406 3426
4 3458 3406 3426 3421
4 3458 3406 3421 3472
4 3426 3458 3421 3427
4 3421 3458 3472 3427
4 1773 1732 1735 1753
4 3191 3225 3184 3230
4 3057 3061 3110 3091
4 3962 3955 3973 3903
4 3962 3955 3903 3930
4 4334 4333 4364 4319
4 1272 1289 1301 1263
4 1986 2014 1990 1967
4 3363 3403 3414 3372
4 4121 4150 4105 4165
4 4150 4105 4165 4107
4 4105 4165 4107 4157
4 3681 3619 3689 3672
4 3529 3537 3551 3520
4 4037 4081 4096 3992
4 3356 3309 3322 3323
4 4253 4237 4281 4181
4 1558 1564 1567 1598
4 4114 4159 4120 4188
4 4114 4159 4188 4196
4 2229 2260 2246 2265
4 3617 3613 3577 3618
4 3577 3617 3618 3611
4 3617 3613 3618 3673
4 3618 3577 3611 3561
4 3523 3584 3573 3561
4 4239 4230 4247 4159
4 1258 1282 1276 1263
4 3760 3717 3727 3766
4 3760 3717 3766 3702
4 3760 3717 3702 3704
4 2905 2907 2896 2935
4 3682 3673 3708 3618
4 2387 2395 2358 2400
4 3057 3035 3052 3091
4 3163 3204 3166 3202
4 3319 3277 3357 3365
4 1441 1440 1458 1398
4 1981 1990 1967 1951
4 2533 2511 2472 2515
4 2585 2589 2542 2559
4 4317 4327 4356 4338
4 2264 2267 2301 2287
4 2511 2533 2542 2578
4 3969 4011 3978 4034
4 2187 2158 2159 2141
4 4279 4328 4312 4285
4 3830 3875 3851 3832
4 4141 4175 4181 4160
4 3366 3323 3291 3354
4 4380 4360 4388 4375
4 2592 2623 2634 2614
4 3789 3811 3839 3872
4 1425 1441 1398 1407
4 3230 3277 3250 3228
4 3250 3230 3228 3178
4 2959 2975 2953 2992
4 2339 2316 2315 2268
4 3974 3921 3977 3962
4 3357 3299 3359 3281
4 2136 2169 2133 2176
4 4247 4287 4319 4239
4 4247 4287 4239 4285
4 4247 4287 4285 4203
4 2780 2755 2716 2740
4 3701 3708 3673 3617
4 1494 1471 1482 1458
4 2627 2656 2643 2645
4 2627 2656 2645 2620
4 2645 2627 2620 2612
4 4323 4288 4339 4335
4 2400 2433 2420 2395
4 2789 2771 2835 2818
4 1614 1633 1632 1598
4 3612 3615 3561 3625
4 2886 2878 2833 2868
4 4083 4070 4024 4103
4 3878 3824 3817 3826
4 4416 4444 4440 4433
4 4339 4382 4375 4369
4 1717 1742 1756 1699
4 1756 1717 1699 1748
4 1699 1756 1748 1712
4 2905 2886 2896 2868
4 4442 4437 4468 4436
4 4442 4437 4436 4410
4 1515 1494 1482 1532
4 2358 2365 2360 2328
4 4196 4224 4285 4239
4 4214 4247 4230 4159
4 2992 3004 2959 2975
4 4260 4277 4246 4217
4 3682 3717 3702 3727
4 3271 3233 3270 3242
4 3526 3564 3533 3561
4 4042 4093 4083 4024
4 4083 4042 4024 4031
4 1662 1649 1677 1699
4 4081 3992 4011 4096
4 4446 4427 4422 4415
4 4427 4422 4415 4401
4 3878 3903 3930 3962
4 3637 3568 3613 3618
4 1509 1532 1482 1494
4 1482 1509 1494 1458
4 1412 1425 1398 1407
4 4334 4333 4319 4285
4 3766 3760 3779 3727
4 4368 4365 4364 4407
4 3402 3442 3403 3366
4 4494 4460 4450 4488
4 4494 4460 4488 4484
4 3520 3568 3506 3537
4 4159 4114 4157 4196
4 2299 2293 2338 2341
4 3977 3970 4024 3991
4 4024 3977 3991 4055
4 4169 4188 4229 4190
4 3839 3872 3855 3789
4 2777 2757 2740 2800
4 2838 2875 2884 2882
4 1778 1812 1809 1756
4 1778 1812 1756 1798
4 2511 2522 2483 2545
4 2483 2511 2545 2515
4 3717 3766 3702 3727
4 2315 2297 2339 2268
4 2315 2297 2268 2262
4 2297 2268 2262 2247
4 2268 2262 2247 2204
4 2225 2255 2268 2262
4 4448 4430 4418 4423
4 4430 4418 4423 4404
4 3156 3116 3109 3119
4 2467 2485 2459 2432
4 4181 4155 4194 4237
4 4229 4246 4249 4277
4 4229 4246 4277 4217
4 4246 4249 4277 4320
4 1665 1684 1697 1649
4 4103 4133 4055 4024
4 3061 3057 3052 3091
4 2315 2327 2338 2371
4 2315 2327 2371 2339
4 4472 4470 4475 4433
4 3420 3372 3414 3403
4 3766 3760 3702 3796
4 4064 4011 4034 3978
4 4460 4439 4488 4484
4 1889 1863 1908 1867
4 4371 4366 4400 4382
4 3506 3568 3564 3537
4 3568 3564 3537 3618
4 2131 2164 2176 2114
4 4012 4047 4060 3997
4 4012 4047 3997 3974
4 1814 1809 1846 1797
4 1814 1809 1797 1755
4 1846 1814 1797 1863
4 2402 2399 2371 2431
4 4359 4361 4390 4373
4 4359 4361 4373 4325
4 1748 1709 1735 1697
4 1438 1441 1482 1458
4 1438 1441 1458 1398
4 1441 1482 1458 1470
4 1482 1438 1458 1471
4 4293 4253 4338 4333
4 4338 4293 4333 4317
4 4138 4083 4093 4096
4 4194 4201 4121 4181
4 1657 1677 1651 1690
4 1677 1651 1690 1697
4 4422 4421 4407 4393
4 2054 2102 2093 2074
4 3106 3057 3110 3091
4 4391 4375 4403 4372
4 2559 2542 2578 2589
4 2462 2467 2459 2432
4 3178 3157 3137 3202
4 3133 3178 3119 3137
4 4037 4024 3991 4096
4 4358 4386 4364 4372
4 4358 4386 4372 4387
4 4386 4372 4387 4402
4 4386 4372 4402 4389
4 4386 4372 4389 4364
4 4372 4402 4389 4369
4 4389 4372 4369 4364
4 4438 4441 4419 4431
4 4441 4419 4431 4411
4 4419 4438 4431 4413
4 3420 3400 3403 3442
4 1853 1831 1812 1874
4 2472 2511 2478 2450
4 2472 2511 2450 2483
4 2450 2472 2483 2431
4 2472 2511 2483 2515
4 2511 2450 2483 2489
4 2483 2450 2431 2457
4 3698 3700 3789 3749
4 3698 3700 3749 3657
4 3698 3700 3657 3611
4 3700 3789 3749 3751
4 4225 4192 4249 4160
4 4225 4192 4160 4138
4 2207 2247 2242 2204
4 4231 4175 4225 4160
4 3016 2985 3040 2989
4 3660 3719 3751 3657
4 3660 3719 3657 3664
4 2694 2707 2674 2645
4 4388 4391 4403 4420
4 2114 2081 2059 2103
4 2114 2081 2103 2133
4 4005 3978 4023 4064
4 2587 2559 2578 2589
4 3119 3137 3091 3090
4 1301 1289 1271 1263
4 1271 1301 1263 1298
4 1883 1848 1889 1849
4 2169 2141 2185 2187
4 2358 2362 2400 2418
4 3103 3116 3119 3109
4 4214 4193 4159 4230
4 4443 4413 4426 4436
4 4426 4443 4436 4465
4 1487 1477 1522 1509
4 4368 4352 4393 4392
4 4393 4368 4392 4407
4 4011 3992 3978 4064
4 3490 3525 3537 3472
4 3260 3226 3225 3230
4 4370 4356 4387 4358
4 4320 4324 4362 4361
4 4320 4324 4361 4308
4 4324 4362 4361 4365
4 3871 3904 3912 3978
4 4376 4365 4401 4383
4 4165 4196 4157 4114
4 4379 4363 4387 4356
4 3226 3193 3225 3230
4 2085 2069 2039 2093
4 2400 2418 2450 2395
4 4467 4470 4441 4438
4 3225 3184 3230 3193
4 2625 2592 2634 2575
4 1315 1334 1301 1345
4 4279 4224 4201 4253
4 2769 2782 2734 2725
4 4333 4358 4364 4372
4 4333 4358 4372 4356
4 4358 4372 4356 4387
4 4372 4356 4387 4363
4 3230 3277 3228 3203
4 3228 3230 3203 3183
4 3203 3228 3183 3202
4 3228 3230 3183 3178
4 3183 3228 3178 3202
4 4023 3952 3993 3978
4 1690 1669 1651 1657
4 3725 3744 3664 3704
4 3725 3744 3704 3796
4 4487 4480 4479 4449
4 4487 4480 4449 4447
4 4480 4449 4447 4440
4 4449 4487 4447 4488
4 4480 4449 4440 4479
4 4449 4447 4440 4420
4 4449 4447 4420 4439
4 4440 4449 4420 4424
4 4440 4449 4424 4479
4 4449 4447 4439 4488
4 4449 4420 4424 4439
4 3537 3577 3551 3613
4 4447 4455 4487 4483
4 3912 3947 3927 3978
4 3927 3912 3978 3871
4 2856 2848 2799 2800
4 4363 4338 4372 4356
4 4368 4364 4392 4407
4 3537 3564 3561 3618
4 2375 2399 2339 2371
4 1532 1558 1567 1574
4 1558 1567 1574 1598
4 1574 1558 1598 1610
4 1532 1558 1574 1509
4 3405 3452 3402 3472
4 2589 2561 2542 2549
4 4228 4173 4165 4200
4 4173 4165 4200 4107
4 4103 4181 4133 4160
4 4181 4133 4160 4183
4 4181 4133 4183 4121
4 4133 4160 4183 4188
4 4133 4183 4121 4105
4 4183 4133 4188 4114
4 3670 3637 3682 3625
4 3637 3682 3625 3618
4 4476 4446 4461 4437
4 4435 4447 4480 4483
4 1809 1812 1767 1756
4 1345 1353 1382 1389
4 2204 2169 2176 2133
4 3277 3250 3228 3304
4 1477 1487 1458 1509
4 4175 4138 4215 4225
4 3751 3794 3842 3749
4 1665 1633 1649 1632
4 1633 1649 1632 1598
4 2218 2229 2246 2265
4 3487 3523 3494 3472
4 4353 4330 4351 4374
4 4353 4330 4374 4382
4 4428 4444 4416 4433
4 4441 4472 4445 4433
4 4445 4441 4433 4411
4 4473 4457 4476 4468
4 4473 4457 4468 4442
4 4351 4325 4357 4373
4 3319 3309 3277 3365
4 3876 3832 3927 3875
4 4446 4437 4415 4461
4 3930 3976 3933 3997
4 4483 4444 4475 4474
4 4120 4114 4188 4133
4 3128 3163 3166 3137
4 1651 1646 1610 1632
4 3613 3577 3618 3537
4 3577 3618 3537 3561
4 2533 2511 2515 2545
4 2533 2511 2545 2578
4 2515 2533 2545 2575
4 4398 4383 4410 4399
4 4398 4383 4399 4362
4 4410 4398 4399 4426
4 4450 4439 4414 4420
4 3304 3300 3250 3270
4 3304 3300 3270 3360
4 1544 1509 1532 1574
4 4338 4335 4339 4281
4 2755 2716 2740 2705
4 1585 1584 1569 1610
4 3405 3439 3472 3406
4 2975 3015 3033 3004
4 3708 3749 3756 3691
4 3708 3749 3691 3657
4 3749 3691 3657 3719
4 3691 3657 3719 3664
4 3691 3708 3657 3618
4 3657 3691 3618 3664
4 4462 4476 4461 4479
4 4283 4288 4225 4251
4 4133 4121 4055 4105
4 4121 4055 4105 4060
4 2835 2789 2818 2814
4 2268 2288 2315 2262
4 4480 4483 4474 4444
4 4121 4101 4047 4060
4 3568 3590 3564 3625
4 3590 3564 3625 3616
4 2755 2768 2740 2800
4 3992 4037 3991 4096
4 4183 4165 4201 4121
4 1827 1834 1810 1849
4 4059 4070 4103 4047
4 4059 4070 4047 3974
4 4070 4103 4047 4055
4 3128 3132 3110 3166
4 3291 3230 3250 3252
4 2780 2755 2740 2800
4 2780 2755 2800 2798
4 3849 3826 3877 3796
4 3826 3877 3796 3817
4 3879 3921 3973 3962
4 3886 3952 3871 3926
4 3886 3952 3926 3993
4 3871 3886 3926 3851
4 4439 4448 4418 4424
4 3824 3794 3744 3756
4 4238 4253 4279 4201
4 4238 4253 4201 4181
4 2169 2204 2185 2133
4 3492 3520 3506 3537
4 4138 4149 4160 4096
4 4149 4160 4096 4190
4 2712 2697 2676 2740
4 3670 3702 3704 3625
4 4464 4438 4443 4466
4 3796 3817 3744 3824
4 2656 2674 2645 2694
4 1697 1684 1699 1649
4 2204 2206 2247 2268
4 4335 4281 4288 4339
4 4432 4422 4407 4415
4 4470 4467 4466 4438
4 4210 4140 4141 4148
4 4140 4141 4148 4059
4 3061 3052 3082 3091
4 2136 2081 2114 2133
4 2114 2136 2133 2176
4 2886 2848 2896 2868
4 4366 4353 4384 4382
4 3400 3442 3366 3403
4 3421 3362 3360 3365
4 3362 3360 3365 3304
4 3362 3360 3304 3307
4 4188 4159 4239 4196
4 4239 4188 4196 4183
4 4410 4442 4426 4436
4 4442 4426 4436 4465
4 3766 3826 3796 3756
4 3766 3826 3756 3851
4 2433 2450 2428 2395
4 2450 2428 2395 2431
4 4375 4372 4369 4403
4 3974 3970 4031 4024
4 4444 4458 4475 4445
4 4327 4253 4281 4338
4 4375 4382 4403 4369
4 2848 2886 2833 2868
4 3749 3791 3756 3855
4 4351 4301 4325 4330
4 4247 4214 4203 4196
4 4247 4214 4196 4159
4 4203 4247 4196 4285
4 2651 2634 2614 2676
4 4470 4472 4441 4433
4 3875 3921 3851 3927
4 4362 4359 4390 4398
4 4432 4446 4422 4415
4 4444 4440 4433 4474
4 4480 4474 4479 4440
4 4480 4474 4440 4444
4 3577 3537 3525 3561
4 3794 3824 3842 3855
4 2738 2755 2735 2705
4 2755 2735 2705 2740
4 4448 4432 4423 4418
4 3016 3040 3037 2991
4 3016 3040 2991 2989
4 3040 3037 2991 2989
4 2848 2856 2868 2800
4 3300 3260 3291 3250
4 3300 3260 3250 3270
4 3260 3291 3250 3252
4 2362 2327 2297 2339
4 2439 2452 2399 2431
4 2821 2840 2868 2800
4 3830 3766 3779 3832
4 4105 4121 4165 4183
4 4165 4105 4183 4114
4 3178 3179 3193 3230
4 4138 4175 4083 4160
4 4083 4138 4160 4096
4 1646 1649 1612 1598
4 3082 3128 3110 3091
4 3037 3027 2991 2989
4 3106 3090 3091 3137
4 3673 3682 3613 3618
4 4361 4362 4390 4365
4 3791 3749 3789 3855
4 3974 4031 3973 4059
4 3973 3974 4059 4047
4 4457 4437 4476 4468
4 4138 4175 4160 4225
4 2677 2654 2716 2705
4 3226 3193 3230 3178
4 3226 3193 3178 3202
4 2643 2612 2616 2614
4 2452 2399 2431 2418
4 2431 2452 2418 2472
4 2399 2431 2418 2371
4 2431 2418 2371 2395
4 3708 3791 3732 3766
4 3879 3943 3877 3973
4 3877 3879 3973 3962
4 2868 2821 2800 2856
4 4047 3998 4059 3973
4 2306 2299 2315 2262
4 4484 4488 4479 4439
4 1540 1541 1522 1569
4 3877 3826 3878 3817
4 2705 2674 2677 2654
4 4333 4319 4285 4257
4 4333 4319 4257 4321
4 4333 4319 4321 4369
4 4319 4285 4257 4239
4 4257 4333 4321 4338
4 4333 4321 4338 4369
4 4338 4333 4369 4372
4 4338 4333 4372 4356
4 4257 4319 4239 4321
4 4321 4338 4369 4339
4 4321 4338 4339 4251
4 4333 4369 4372 4364
4 2821 2807 2800 2757
4 4031 4070 3974 4024
4 4440 4416 4433 4417
4 4440 4416 4417 4424
4 4416 4433 4417 4408
4 4416 4433 4408 4411
4 4417 4416 4408 4403
4 4433 4408 4411 4431
4 4433 4408 4431 4417
4 4431 4433 4417 4440
4 4417 4416 4403 4424
4 4408 4431 4417 4406
4 4431 4417 4406 4436
4 4408 4416 4411 4397
4 4411 4408 4397 4384
4 4408 4416 4397 4403
4 4411 4408 4384 4394
4 4397 4411 4384 4400
4 4384 4397 4400 4366
4 4384 4397 4366 4382
4 4397 4366 4382 4400
4 4384 4397 4382 4408
4 4382 4397 4400 4403
4 4382 4397 4403 4408
4 4417 4408 4406 4396
4 4417 4408 4396 4403
4 4408 4406 4396 4373
4 4406 4396 4373 4390
4 4396 4373 4390 4361
4 4406 4396 4390 4417
4 4396 4373 4361 4339
4 4396 4408 4373 4374
4 4373 4396 4374 4339
4 1863 1836 1813 1797
4 3861 3824 3878 3855
4 3744 3794 3719 3756
4 4429 4435 4420 4425
4 4435 4420 4425 4416
4 4435 4420 4416 4440
4 4425 4435 4416 4428
4 3791 3708 3756 3766
4 3708 3756 3766 3702
4 3756 3766 3702 3796
4 3756 3791 3766 3851
4 3277 3281 3357 3365
4 3727 3682 3766 3702
4 2856 2900 2868 2821
4 1867 1814 1846 1863
4 1646 1629 1610 1612
4 4422 4415 4401 4407
4 4401 4422 4407 4393
4 3355 3413 3360 3440
4 4133 4183 4105 4114
4 3250 3304 3270 3228
4 4201 4183 4121 4181
4 4201 4183 4181 4253
4 3487 3523 3472 3440
4 3744 3719 3664 3691
4 3744 3719 3691 3756
4 4402 4389 4369 4403
4 1632 1614 1598 1574
4 3137 3178 3202 3183
4 4383 4410 4399 4401
4 3260 3250 3270 3226
4 3260 3250 3226 3230
4 3260 3250 3230 3252
4 3250 3226 3230 3178
4 4448 4432 4418 4424
4 2575 2563 2545 2515
4 3421 3406 3362 3365
4 3309 3304 3277 3365
4 3277 3228 3203 3281
4 3277 3228 3281 3304
4 3281 3277 3304 3365
4 3228 3203 3281 3242
4 4449 4487 4488 4479
4 3796 3817 3824 3826
4 4239 4188 4183 4249
4 4351 4353 4374 4384
4 4353 4374 4384 4382
4 4374 4384 4382 4408
4 3491 3440 3472 3533
4 4064 4096 4011 3992
4 3749 3756 3691 3719
4 4468 4465 4442 4436
4 4468 4465 4436 4466
4 1735 1776 1748 1797
4 3564 3625 3616 3561
4 2681 2697 2634 2676
4 4426 4410 4436 4399
4 4047 4012 3973 3974
4 4428 4444 4433 4445
4 4444 4433 4445 4475
4 4433 4445 4475 4472
4 4444 4433 4475 4474
4 4133 4103 4160 4024
4 3799 3832 3732 3791
4 2102 2093 2074 2133
4 4283 4330 4339 4325
4 1400 1407 1440 1441
4 1407 1440 1441 1398
4 3637 3625 3568 3618
4 3657 3658 3708 3749
4 2499 2515 2452 2483
4 2338 2293 2328 2341
4 3974 3977 4024 4047
4 4475 4470 4474 4433
4 3744 3704 3796 3756
4 4225 4283 4251 4249
4 4251 4225 4249 4160
4 1809 1748 1797 1755
4 1649 1665 1632 1697
4 3766 3830 3851 3791
4 4448 4484 4479 4439
4 2674 2705 2676 2654
4 3204 3233 3242 3202
4 4387 4386 4402 4414
4 4326 4346 4362 4365
4 4389 4386 4364 4392
4 4446 4432 4461 4415
4 1424 1438 1458 1389
4 4141 4175 4160 4083
4 4060 4105 4107 4020
4 3503 3491 3533 3440
4 4433 4445 4411 4428
4 4462 4484 4476 4479
4 4390 4359 4373 4385
4 4390 4359 4385 4398
4 1397 1389 1438 1424
4 1558 1587 1598 1610
4 4383 4399 4362 4365
4 3756 3708 3691 3702
4 3691 3756 3702 3664
4 4120 4096 4133 4160
4 4096 4133 4160 4024
4 4120 4096 4160 4190
4 4285 4224 4279 4257
4 4285 4224 4257 4239
4 4224 4279 4257 4253
4 4257 4224 4253 4183
4 4257 4224 4183 4239
4 4181 4231 4251 4160
4 3427 3421 3440 3472
4 3421 3440 3472 3365
4 3061 3082 3110 3091
4 3855 3839 3789 3791
4 3855 3839 3791 3851
4 3307 3271 3270 3242
4 4332 4365 4319 4364
4 3682 3637 3613 3618
4 4188 4196 4183 4114
4 4391 4388 4400 4420
4 2989 2958 2991 3016
4 1425 1441 1407 1400
4 4319 4247 4239 4324
4 4239 4319 4324 4321
4 4319 4324 4321 4369
4 3090 3133 3119 3137
4 2395 2358 2400 2418
4 4357 4325 4359 4373
4 4438 4441 4431 4470
4 1584 1587 1569 1610
4 3664 3684 3615 3660
4 3615 3664 3660 3657
4 3660 3615 3657 3581
4 4372 4387 4402 4391
4 4402 4372 4391 4403
4 4391 4402 4403 4420
4 4402 4403 4420 4424
4 4391 4402 4420 4414
4 3405 3402 3365 3472
4 3952 3926 3993 3978
4 2616 2595 2654 2614
4 2465 2452 2431 2483
4 4251 4288 4339 4283
4 1699 1677 1697 1649
4 4073 4114 4052 4157
4 4487 4447 4488 4450
4 3861 3842 3824 3855
4 3991 3978 4064 4055
4 3506 3492 3537 3452
4 4324 4326 4362 4365
4 4324 4326 4365 4319
4 4324 4326 4319 4247
4 3930 3878 3962 3909
4 3962 3930 3909 3997
4 3930 3878 3909 3861
4 3909 3962 3997 3915
4 3909 3962 3915 3851
4 3915 3909 3851 3926
4 3915 3909 3926 3997
4 3851 3915 3926 3916
4 3915 3926 3916 3977
4 3915 3926 3977 3997
4 3977 3915 3997 3962
4 3878 3962 3909 3851
4 3909 3926 3997 3933
4 3916 3915 3977 3921
4 3915 3977 3921 3962
4 3916 3915 3921 3851
4 3915 3921 3851 3962
4 3909 3851 3926 3855
4 3926 3909 3855 3933
4 3926 3916 3977 3978
4 3926 3977 3997 3978
4 3997 3977 3962 3974
4 3926 3851 3916 3871
4 3916 3926 3871 3952
4 3916 3926 3952 3978
4 3909 3851 3855 3878
4 3997 3977 3974 4047
4 3871 3916 3952 3978
4 3871 3916 3978 3927
4 3871 3916 3927 3851
4 3916 3978 3927 3977
4 3927 3916 3977 3921
4 3927 3916 3921 3851
4 2645 2674 2677 2707
4 4400 4388 4403 4420
4 3612 3558 3616 3533
4 3616 3612 3533 3561
4 1558 1541 1569 1522
4 4157 4196 4214 4159
4 2362 2371 2339 2399
4 4052 4023 3993 4071
4 4052 4023 4071 4114
4 4023 3993 4071 3978
4 4023 4071 4114 4064
4 4071 4114 4064 4133
4 3573 3523 3561 3494
4 4421 4407 4393 4392
4 3886 3872 3968 3933
4 2744 2757 2697 2740
4 2358 2395 2371 2418
4 3421 3386 3440 3360
4 4368 4393 4401 4407
4 3183 3133 3090 3137
4 4096 4064 4133 3991
4 2578 2612 2614 2595
4 4369 4389 4364 4381
4 4369 4389 4381 4396
4 3970 3921 3899 3927
4 4363 4372 4391 4387
4 2515 2499 2545 2483
4 2674 2643 2677 2654
4 2592 2634 2575 2614
4 2575 2592 2614 2545
4 3584 3523 3612 3561
4 4448 4462 4461 4479
4 2559 2533 2595 2578
4 1558 1569 1587 1610
4 4402 4386 4389 4418
4 3744 3664 3704 3702
4 3704 3744 3702 3756
4 3526 3537 3561 3472
4 4437 4468 4436 4471
4 3564 3568 3625 3618
4 3625 3564 3618 3561
4 3110 3128 3166 3137
4 4175 4231 4181 4160
4 4308 4283 4249 4251
4 4249 4308 4251 4321
4 4249 4308 4321 4324
4 4308 4251 4321 4339
4 4321 4308 4339 4361
4 4308 4251 4339 4283
4 4321 4308 4361 4324
4 4339 4308 4283 4325
4 4361 4321 4324 4369
4 2643 2674 2676 2654
4 4443 4436 4465 4466
4 4324 4277 4239 4249
4 3523 3533 3612 3561
4 3568 3551 3613 3537
4 3577 3525 3611 3561
4 4439 4449 4488 4479
4 3346 3324 3307 3362
4 3346 3324 3362 3406
4 2371 2362 2418 2399
4 4165 4200 4107 4157
4 3700 3749 3657 3751
4 4386 4404 4392 4418
4 4418 4439 4424 4420
4 4418 4423 4404 4392
4 4413 4426 4436 4399
4 3365 3362 3304 3324
4 4407 4421 4423 4392
4 3612 3616 3625 3561
4 3832 3799 3871 3791
4 3700 3657 3611 3660
4 3657 3611 3660 3581
4 4443 4413 4436 4431
4 4439 4450 4447 4420
4 3270 3304 3360 3307
4 3791 3839 3799 3871
4 3791 3839 3871 3851
4 4407 4432 4415 4424
4 2848 2833 2799 2800
4 4389 4364 4381 4407
4 4432 4407 4423 4418
4 2900 2876 2868 2821
4 4105 4165 4157 4114
4 3719 3751 3657 3749
4 4476 4461 4479 4471
4 4461 4479 4471 4440
4 4476 4461 4471 4437
4 4461 4471 4437 4434
4 4461 4471 4434 4440
4 4437 4461 4434 4415
4 4325 4351 4330 4374
4 4247 4196 4285 4239
4 4247 4196 4239 4159
4 4431 4433 4440 4474
4 4430 4418 4404 4414
4 3523 3533 3561 3472
4 3523 3533 3472 3440
4 3732 3779 3766 3832
4 4257 4333 4338 4253
4 4257 4333 4253 4279
4 3242 3272 3324 3307
4 3472 3526 3533 3561
4 3106 3090 3137 3183
4 3106 3090 3183 3158
4 3842 3861 3933 3855
4 3933 3842 3855 3872
4 3842 3855 3872 3789
4 4333 4319 4369 4364
4 4417 4440 4424 4434
4 4417 4440 4434 4474
4 4424 4417 4434 4409
4 4417 4434 4409 4436
4 4424 4417 4409 4403
4 4434 4424 4409 4415
4 4409 4434 4415 4436
4 4413 4443 4438 4431
4 4443 4438 4431 4466
4 3970 3977 3927 3991
4 4390 4362 4398 4399
4 4398 4390 4399 4413
4 4390 4362 4399 4365
4 4389 4369 4403 4396
4 4374 4384 4408 4394
4 4374 4373 4339 4325
4 4374 4373 4325 4351
4 4374 4373 4351 4394
4 4385 4390 4398 4413
4 4141 4103 4083 4160
4 4361 4324 4365 4381
4 4324 4365 4381 4319
4 4365 4361 4381 4390
4 4361 4324 4381 4369
4 4381 4361 4369 4396
4 4381 4324 4319 4369
4 4361 4381 4390 4396
4 3826 3756 3851 3824
4 3930 3909 3997 3933
4 3930 3909 3933 3861
4 1569 1558 1522 1574
4 1569 1558 1574 1610
4 3324 3307 3362 3304
4 3561 3581 3494 3525
4 3561 3581 3525 3611
4 4055 4133 4105 4071
4 4105 4055 4071 3993
4 4055 4133 4071 4064
4 4133 4105 4071 4114
4 4055 4071 3993 3978
4 4105 4071 4114 4052
4 4105 4071 4052 3993
4 4071 4055 4064 3978
4 2800 2821 2757 2780
4 2800 2821 2780 2856
4 2757 2800 2780 2740
4 3664 3616 3704 3625
4 2431 2452 2472 2483
4 2452 2472 2483 2515
4 4479 4474 4471 4440
4 3877 3903 3962 3973
4 4391 4405 4387 4414
4 4439 4418 4414 4420
4 1612 1646 1598 1610
4 4396 4417 4403 4409
4 4396 4417 4409 4390
4 4429 4450 4414 4420
4 4424 4449 4439 4479
4 3691 3708 3618 3702
4 3997 3977 4047 4055
4 3997 3977 4055 3978
4 4047 3997 4055 4060
4 3997 4055 4060 4020
4 1748 1797 1755 1735
4 4251 4249 4321 4257
4 4386 4404 4418 4414
4 4210 4264 4237 4181
4 4105 4107 4020 4052
4 4420 4402 4424 4418
4 4420 4402 4418 4414
4 4402 4424 4418 4389
4 4402 4418 4414 4386
4 4402 4387 4414 4391
4 3702 3704 3756 3796
4 4359 4385 4357 4373
4 4160 4181 4183 4251
4 3700 3657 3660 3751
4 4372 4402 4369 4403
4 3250 3270 3226 3202
4 3490 3439 3525 3472
4 3421 3406 3365 3472
4 4415 4401 4407 4395
4 4407 4415 4395 4409
4 4415 4395 4409 4399
4 4395 4409 4399 4390
4 4399 4395 4390 4365
4 4415 4395 4399 4401
4 4409 4415 4399 4436
4 4409 4399 4390 4412
4 4399 4390 4412 4413
4 4409 4399 4412 4436
4 4407 4415 4409 4424
4 4395 4407 4409 4381
4 4409 4395 4381 4390
4 4395 4407 4381 4365
4 4381 4395 4365 4390
4 4399 4395 4365 4401
4 4401 4407 4395 4365
4 4390 4412 4413 4406
4 4412 4413 4406 4436
4 4390 4412 4406 4409
4 4412 4413 4436 4399
4 4406 4412 4436 4417
4 4406 4412 4417 4409
4 4412 4417 4409 4436
4 4417 4406 4409 4390
4 2697 2634 2676 2654
4 2634 2676 2654 2614
4 2676 2697 2654 2716
4 2654 2634 2614 2595
4 2634 2614 2595 2575
4 2614 2595 2575 2545
4 2654 2676 2716 2705
4 2676 2654 2614 2643
4 2676 2697 2716 2740
4 2697 2716 2740 2757
4 2716 2676 2740 2705
4 2716 2740 2757 2780
4 4468 4436 4471 4466
4 4351 4357 4394 4373
4 3179 3230 3184 3193
4 4055 4105 4060 4020
4 3702 3704 3625 3664
4 2164 2176 2114 2133
4 3228 3203 3242 3202
4 4426 4413 4398 4399
4 4382 4339 4330 4374
4 4382 4339 4374 4396
4 4339 4330 4374 4325
4 4374 4382 4396 4408
4 3228 3250 3178 3202
4 3091 3106 3137 3110
4 3137 3091 3110 3128
4 4415 4427 4401 4410
4 4369 4321 4339 4361
4 3826 3851 3878 3824
4 3851 3878 3824 3855
4 4192 4160 4190 4249
4 3826 3796 3756 3824
4 4253 4257 4183 4251
4 4253 4257 4251 4338
4 2798 2833 2800 2799
4 1389 1398 1438 1458
4 3851 3879 3878 3962
4 3537 3525 3561 3472
4 3440 3421 3360 3365
4 2578 2549 2511 2545
4 1646 1632 1598 1610
4 4408 4431 4406 4419
4 4431 4406 4419 4413
4 4408 4431 4419 4411
4 4406 4408 4419 4394
4 4419 4406 4394 4413
4 3250 3226 3178 3202
4 3523 3494 3472 3561
4 4285 4333 4257 4279
4 4023 4071 4064 3978
4 4437 4468 4471 4476
4 3978 3991 3977 4055
4 3682 3702 3625 3618
4 3851 3926 3855 3886
4 3926 3855 3886 3933
4 3106 3110 3166 3137
4 3842 3794 3855 3749
4 4420 4416 4440 4424
4 4321 4257 4338 4251
4 4373 4406 4390 4385
4 4096 4064 3991 3992
4 4083 4093 4096 4024
4 4070 4103 4055 4024
4 4183 4181 4253 4251
4 4121 4055 4060 4047
4 1301 1298 1282 1263
4 4443 4436 4466 4431
4 4188 4229 4190 4249
4 4420 4429 4425 4405
4 4420 4429 4405 4414
4 2081 2074 2103 2133
4 3744 3702 3756 3664
4 3682 3766 3702 3708
4 3702 3682 3708 3618
4 2616 2595 2614 2612
4 4133 4160 4188 4120
4 4403 4420 4424 4416
4 4403 4420 4416 4400
4 4441 4431 4470 4433
4 4441 4431 4433 4411
4 4431 4470 4433 4474
4 2533 2545 2575 2595
4 4339 4308 4325 4361
4 3615 3664 3657 3618
4 4374 4351 4384 4394
4 2176 2164 2204 2133
4 3691 3744 3756 3664
4 4416 4397 4403 4400
4 4416 4397 4400 4411
4 4120 4188 4190 4160
4 3926 3886 3993 3933
4 3796 3744 3756 3824
4 3673 3708 3618 3617
4 4114 4052 4157 4105
4 4474 4471 4440 4434
4 4474 4471 4434 4466
4 4253 4281 4338 4251
4 4253 4281 4251 4181
4 4408 4396 4403 4382
4 4396 4403 4382 4369
4 4382 4396 4369 4339
4 4281 4251 4339 4338
4 4024 3977 4055 4047
4 3749 3789 3855 3842
4 4428 4425 4400 4416
4 4400 4428 4416 4411
4 4428 4416 4411 4433
4 3561 3615 3657 3618
4 3561 3615 3618 3625
4 3704 3670 3625 3616
4 4024 4083 4103 4160
4 3472 3494 3406 3439
4 3472 3494 3439 3525
4 4408 4419 4394 4411
4 4325 4308 4320 4361
4 4381 4389 4407 4409
4 4381 4389 4409 4396
4 4409 4396 4390 4381
4 4432 4407 4418 4424
4 3183 3203 3202 3166
4 3183 3203 3166 3106
4 4402 4389 4403 4424
4 3832 3871 3927 3851
4 4440 4424 4434 4461
4 4424 4434 4461 4415
4 3365 3359 3406 3324
4 3702 3704 3796 3760
4 2799 2780 2856 2800
4 2799 2780 2800 2798
4 2616 2654 2643 2614
4 3494 3472 3561 3525
4 4434 4437 4415 4436
4 4434 4437 4436 4471
4 4436 4434 4471 4466
4 4437 4415 4436 4410
4 4436 4434 4466 4417
4 4361 4369 4396 4339
4 3830 3766 3832 3791
4 4239 4257 4321 4249
4 4160 4083 4096 4024
4 3702 3625 3618 3664
4 3991 4024 4055 4133
4 4070 4047 3974 4024
4 4406 4390 4385 4413
4 4385 4406 4413 4394
4 1677 1649 1632 1697
4 3824 3794 3756 3855
4 3791 3855 3851 3756
4 3855 3909 3878 3861
4 2533 2545 2595 2578
4 4406 4408 4394 4373
4 2614 2578 2595 2545
4 4391 4405 4414 4420
4 4391 4405 4420 4400
4 4479 4448 4439 4424
4 4404 4386 4387 4414
4 4361 4373 4325 4339
4 1598 1632 1574 1610
4 4308 4249 4320 4324
4 4374 4373 4394 4408
4 4105 4107 4052 4157
4 4160 4183 4188 4249
4 3202 3270 3233 3242
4 3613 3568 3537 3618
4 4431 4438 4470 4466
4 4470 4431 4466 4474
4 1755 1697 1748 1735
4 3851 3830 3832 3791
4 3365 3405 3472 3406
4 4364 4369 4381 4319
4 4365 4381 4319 4364
4 4365 4381 4364 4407
4 3968 4052 3993 4020
4 3993 3968 4020 3933
4 4020 3993 3933 3997
4 4020 3993 3997 4055
4 3993 3997 4055 3978
4 3270 3250 3228 3202
4 4432 4448 4461 4424
4 3791 3732 3766 3832
4 3359 3365 3281 3324
4 3968 3993 3886 3933
4 4365 4368 4401 4407
4 3406 3362 3365 3324
4 3976 3933 3997 4020
4 4183 4257 4239 4249
4 3270 3304 3307 3242
4 4420 4425 4416 4400
4 3909 3855 3933 3861
4 3304 3270 3228 3242
4 1558 1574 1509 1522
4 4417 4431 4440 4474
4 3789 3749 3751 3842
4 3590 3564 3616 3533
4 2206 2204 2224 2268
4 4461 4448 4479 4424
4 4479 4461 4424 4440
4 1398 1389 1440 1458
4 2848 2833 2800 2868
4 4190 4188 4249 4160
4 3440 3402 3472 3365
4 4357 4394 4373 4385
4 3993 3933 3997 3926
4 3997 3993 3926 3978
4 4399 4415 4401 4410
4 4399 4415 4410 4436
4 4321 4239 4249 4324
4 4425 4420 4405 4400
4 3611 3657 3561 3581
4 3794 3719 3756 3749
4 3756 3794 3749 3855
4 3564 3616 3533 3561
4 4389 4386 4392 4418
4 3166 3163 3202 3137
4 3202 3166 3137 3183
4 4383 4399 4365 4401
4 4024 3991 4096 4133
4 4317 4356 4333 4338
4 4047 4070 4055 4024
4 4020 3993 4055 4105
4 4020 3993 4105 4052
4 4364 4392 4407 4389
4 3304 3281 3365 3324
4 4055 4133 4064 3991
4 3487 3427 3440 3472
4 2268 2225 2262 2204
4 3875 3851 3832 3927
4 4251 4249 4257 4183
4 3618 3691 3702 3664
4 1677 1651 1697 1632
4 3166 3204 3242 3202
4 4423 4407 4392 4418
4 4249 4251 4160 4183
4 4431 4406 4413 4436
4 4424 4418 4389 4407
4 3228 3281 3304 3242
4 4394 4406 4373 4385
4 3871 3791 3851 3832
4 4409 4407 4424 4389
4 3664 3615 3625 3618
4 4403 4396 4409 4389
4 3202 3270 3242 3228
4 3242 3324 3281 3304
4 3324 3307 3304 3242
4 3855 3851 3756 3824
4 4461 4432 4424 4415
4 4431 4417 4436 4466
4 4418 4389 4407 4392
4 4424 4409 4389 4403
4 3166 3242 3203 3202
4 4434 4417 4474 4466
4 4417 4431 4474 4466
4 3166 3106 3137 3183

CELL_TYPES 15905
10
10
10
10
10
10
10
10
10
10
10
10
10
10
10
10
10
10
10
10
10
10
10
10
10
10
10
10
10
10
10
10
10
10
10
10
10
10
10
10
10
10
10
10
10
10
10
10
10
10
10
10
10
10
10
10
10
10
10
10
10
10
10
10
10
10
10
10
10
10
10
10
10
10
10
10
10
10
10
10
10
10
10
10
10
10
10
10
10
10
10
10
10
10
10
10
10
10
10
10
10
10
10
10
10
10
10
10
10
10
10
10
10
10
10
10
10
10
10
10
10
10
10
10
10
10
10
10
10
10
10
10
10
10
10
10
10
10
10
10
10
10
10
10
10
10
10
10
10
10
10
10
10
10
10
10
10
10
10
10
10
10
10
10
10
10
10
10
10
10
10
10
10
10
10
10
10
10
10
10
10
10
10
10
10
10
10
10
10
10
10
10
10
10
10
10
10
10
10
10
10
10
10
10
10
10
10
10
10
10
10
10
10
10
10
10
10
10
10
10
10
10
10
10
10
10
10
10
10
10
10
10
10
10
10
10
10
10
10
10
10
10
10
10
10
10
10
10
10
10
10
10
10
10
10
10
10
10
10
10
10
10
10
10
10
10
10
10
10
10
10
10
10
10
10
10
10
10
10
10
10
10
10
10
10
10
10
10
10
10
10
10
10
10
10
10
10
10
10
10
10
10
10
10
10
10
10
10
10
10
10
10
10
10
10
10
10
10
10
10
10
10
10
10
10
10
10
10
10
10
10
10
10
10
10
10
10
10
10
10
10
10
10
10
10
10
10
10
10
10
10
10
10
10
10
10
10
10
10
10
10
10
10
10
10
10
10
10
10
10
10
10
10
10
10
10
10
10
10
10
10
10
10
10
10
10
10
10
10
10
10
10
10
10
10
10
10
10
10
10
10
10
10
10
10
10
10
10
10
10
10
10
10
10
10
10
10
10
10
10
10
10
10
10
10
10
10
10
10
10
10
10
10
10
10
10
10
10
10
10
10
10
10
10
10
10
10
10
10
10
10
10
10
10
10
10
10
10
10
10
10
10
10
10
10
10
10
10
10
10
10
10
10
10
10
10
10
10
10
10
10
10
10
10
10
10
10
10
10
10
10
10
10
10
10
10
10
10
10
10
10
10
10
10
10
10
10
10
10
10
10
10
10
10
10
10
10
10
10
10
10
10
10
10
10
10
10
10
10
10
10
10
10
10
10
10
10
10
10
10
10
10
10
10
10
10
10
10
10
10
10
10
10
10
10
10
10
10
10
10
10
10
10
10
10
10
10
10
10
10
10
10
10
10
10
10
10
10
10
10
10
10
10
10
10
10
10
10
10
10
10
10
10
10
10
10
10
10
10
10
10
10
10
10
10
10
10
10
10
10
10
10
10
10
10
10
10
10
10
10
10
10
10
10
10
10
10
10
10
10
10
10
10
10
10
10
10
10
10
10
10
10
10
10
10
10
10
10
10
10
10
10
10
10
10
10
10
10
10
10
10
10
10
10
10
10
10
10
10
10
10
10
10
10
10
10
10
10
10
10
10
10
10
10
10
10
10
10
10
10
10
10
10
10
10
10
10
10
10
10
10
10
10
10
10
10
10
10
10
10
10
10
10
10
10
10
10
10
10
10
10
10
10
10
10
10
10
10
10
10
10
10
10
10
10
10
10
10
10
10
10
10
10
10
10
10
10
10
10
10
10
10
10
10
10
10
10
10
10
10
10
10
10
10
10
10
10
10
10
10
10
10
10
10
10
10
10
10
10
10
10
10
10
10
10
10
10
10
10
10
10
10
10
10
10
10
10
10
10
10
10
10
10
10
10
10
10
10
10
10
10
10
10
10
10
10
10
10
10
10
10
10
10
10
10
10
10
10
10
10
10
10
10
10
10
10
10
10
10
10
10
10
10
10
10
10
10
10
10
10
10
10
10
10
10
10
10
10
10
10
10
10
10
10
10
10
10
10
10
10
10
10
10
10
10
10
10
10
10
10
10
10
10
10
10
10
10
10
10
10
10
10
10
10
10
10
10
10
10
10
10
10
10
10
10
10
10
10
10
10
10
10
10
10
10
10
10
10
10
10
10
10
10
10
10
10
10
10
10
10
10
10
10
10
10
10
10
10
10
10
10
10
10
10
10
10
10
10
10
10
10
10
10
10
10
10
10
10
10
10
10
10
10
10
10
10
10
10
10
10
10
10
10
10
10
10
10
10
10
10
10
10
10
10
10
10
10
10
10
10
10
10
10
10
10
10
10
10
10
10
10
10
10
10
10
10
10
10
10
10
10
10
10
10
10
10
10
10
10
10
10
10
10
10
10
10
10
10
10
10
10
10
10
10
10
10
10
10
10
10
10
10
10
10
10
10
10
10
10
10
10
10
10
10
10
10
10
10
10
10
10
10
10
10
10
10
10
10
10
10
10
10
10
10
10
10
10
10
10
10
10
10
10
10
10
10
10
10
10
10
10
10
10
10
10
10
10
10
10
10
10
10
10
10
10
10
10
10
10
10
10
10
10
10
10
10
10
10
10
10
10
10
10
10
10
10
10
10
10
10
10
10
10
10
10
10
10
10
10
10
10
10
10
10
10
10
10
10
10
10
10
10
10
10
10
10
10
10
10
10
10
10
10
10
10
10
10
10
10
10
10
10
10
10
10
10
10
10
10
10
10
10
10
10
10
10
10
10
10
10
10
10
10
10
10
10
10
10
10
10
10
10
10
10
10
10
10
10
10
10
10
10
10
10
10
10
10
10
10
10
10
10
10
10
10
10
10
10
10
10
10
10
10
10
10
10
10
10
10
10
10
10
10
10
10
10
10
10
10
10
10
10
10
10
10
10
10
10
10
10
10
10
10
10
10
10
10
10
10
10
10
10
10
10
10
10
10
10
10
10
10
10
10
10
10
10
10
10
10
10
10
10
10
10
10
10
10
10
10
10
10
10
10
10
10
10
10
10
10
10
10
10
10
10
10
10
10
10
10
10
10
10
10
10
10
10
10
10
10
10
10
10
10
10
10
10
10
10
10
10
10
10
10
10
10
10
10
10
10
10
10
10
10
10
10
10
10
10
10
10
10
10
10
10
10
10
10
10
10
10
10
10
10
10
10
10
10
10
10
10
10
10
10
10
10
10
10
10
10
10
10
10
10
10
10
10
10
10
10
10
10
10
10
10
10
10
10
10
10
10
10
10
10
10
10
10
10
10
10
10
10
10
10
10
10
10
10
10
10
10
10
10
10
10
10
10
10
10
10
10
10
10
10
10
10
10
10
10
10
10
10
10
10
10
10
10
10
10
10
10
10
10
10
10
10
10
10
10
10
10
10
10
10
10
10
10
10
10
10
10
10
10
10
10
10
10
10
10
10
10
10
10
10
10
10
10
10
10
10
10
10
10
10
10
10
10
10
10
10
10
10
10
10
10
10
10
10
10
10
10
10
10
10
10
10
10
10
10
10
10
10
10
10
10
10
10
10
10
10
10
10
10
10
10
10
10
10
10
10
10
10
10
10
10
10
10
10
10
10
10
10
10
10
10
10
10
10
10
10
10
10
10
10
10
10
10
10
10
10
10
10
10
10
10
10
10
10
10
10
10
10
10
10
10
10
10
10
10
10
10
10
10
10
10
10
10
10
10
10
10
10
10
10
10
10
10
10
10
10
10
10
10
10
10
10
10
10
10
10
10
10
10
10
10
10
10
10
10
10
10
10
10
10
10
10
10
10
10
10
10
10
10
10
10
10
10
10
10
10
10
10
10
10
10
10
10
10
10
10
10
10
10
10
10
10
10
10
10
10
10
10
10
10
10
10
10
10
10
10
10
10
10
10
10
10
10
10
10
10
10
10
10
10
10
10
10
10
10
10
10
10
10
10
10
10
10
10
10
10
10
10
10
10
10
10
10
10
10
10
10
10
10
10
10
10
10
10
10
10
10
10
10
10
10
10
10
10
10
10
10
10
10
10
10
10
10
10
10
10
10
10
10
10
10
10
10
10
10
10
10
10
10
10
10
10
10
10
10
10
10
10
10
10
10
10
10
10
10
10
10
10
10
10
10
10
10
10
10
10
10
10
10
10
10
10
10
10
10
10
10
10
10
10
10
10
10
10
10
10
10
10
10
10
10
10
10
10
10
10
10
10
10
10
10
10
10
10
10
10
10
10
10
10
10
10
10
10
10
10
10
10
10
10
10
10
10
10
10
10
10
10
10
10
10
10
10
10
10
10
10
10
10
10
10
10
10
10
10
10
10
10
10
10
10
10
10
10
10
10
10
10
10
10
10
10
10
10
10
10
10
10
10
10
10
10
10
10
10
10
10
10
10
10
10
10
10
10
10
10
10
10
10
10
10
10
10
10
10
10
10
10
10
10
10
10
10
10
10
10
10
10
10
10
10
10
10
10
10
10
10
10
10
10
10
10
10
10
10
10
10
10
10
10
10
10
10
10
10
10
10
10
10
10
10
10
10
10
10
10
10
10
10
10
10
10
10
10
10
10
10
10
10
10
10
10
10
10
10
10
10
10
10
10
10
10
10
10
10
10
10
10
10
10
10
10
10
10
10
10
10
10
10
10
10
10
10
10
10
10
10
10
10
10
10
10
10
10
10
10
10
10
10
10
10
10
10
10
10
10
10
10
10
10
10
10
10
10
10
10
10
10
10
10
10
10
10
10
10
10
10
10
10
10
10
10
10
10
10
10
10
10
10
10
10
10
10
10
10
10
10
10
10
10
10
10
10
10
10
10
10
10
10
10
10
10
10
10
10
10
10
10
10
10
10
10
10
10
10
10
10
10
10
10
10
10
10
10
10
10
10
10
10
10
10
10
10
10
10
10
10
10
10
10
10
10
10
10
10
10
10
10
10
10
10
10
10
10
10
10
10
10
10
10
10
10
10
10
10
10
10
10
10
10
10
10
10
10
10
10
10
10
10
10
10
10
10
10
10
10
10
10
10
10
10
10
10
10
10
10
10
10
10
10
10
10
10
10
10
10
10
10
10
10
10
10
10
10
10
10
10
10
10
10
10
10
10
10
10
10
10
10
10
10
10
10
10
10
10
10
10
10
10
10
10
10
10
10
10
10
10
10
10
10
10
10
10
10
10
10
10
10
10
10
10
10
10
10
10
10
10
10
10
10
10
10
10
10
10
10
10
10
10
10
10
10
10
10
10
10
10
10
10
10
10
10
10
10
10
10
10
10
10
10
10
10
10
10
10
10
10
10
10
10
10
10
10
10
10
10
10
10
10
10
10
10
10
10
10
10
10
10
10
10
10
10
10
10
10
10
10
10
10
10
10
10
10
10
10
10
10
10
10
10
10
10
10
10
10
10
10
10
10
10
10
10
10
10
10
10
10
10
10
10
10
10
10
10
10
10
10
10
10
10
10
10
10
10
10
10
10
10
10
10
10
10
10
10
10
10
10
10
10
10
10
10
10
10
10
10
10
10
10
10
10
10
10
10
10
10
10
10
10
10
10
10
10
10
10
10
10
10
10
10
10
10
10
10
10
10
10
10
10
10
10
10
10
10
10
10
10
10
10
10
10
10
10
10
10
10
10
10
10
10
10
10
10
10
10
10
10
10
10
10
10
10
10
10
10
10
10
10
10
10
10
10
10
10
10
10
10
10
10
10
10
10
10
10
10
10
10
10
10
10
10
10
10
10
10
10
10
10
10
10
10
10
10
10
10
10
10
10
10
10
10
10
10
10
10
10
10
10
10
10
10
10
10
10
10
10
10
10
10
10
10
10
10
10
10
10
10
10
10
10
10
10
10
10
10
10
10
10
10
10
10
10
10
10
10
10
10
10
10
10
10
10
10
10
10
10
10
10
10
10
10
10
10
10
10
10
10
10
10
10
10
10
10
10
10
10
10
10
10
10
10
10
10
10
10
10
10
10
10
10
10
10
10
10
10
10
10
10
10
10
10
10
10
10
10
10
10
10
10
10
10
10
10
10
10
10
10
10
10
10
10
10
10
10
10
10
10
10
10
10
10
10
10
10
10
10
10
10
10
10
10
10
10
10
10
10
10
10
10
10
10
10
10
10
10
10
10
10
10
10
10
10
10
10
10
10
10
10
10
10
10
10
10
10
10
10
10
10
10
10
10
10
10
10
10
10
10
10
10
10
10
10
10
10
10
10
10
10
10
10
10
10
10
10
10
10
10
10
10
10
10
10
10
10
10
10
10
10
10
10
10
10
10
10
10
10
10
10
10
10
10
10
10
10
10
10
10
10
10
10
10
10
10
10
10
10
10
10
10
10
10
10
10
10
10
10
10
10
10
10
10
10
10
10
10
10
10
10
10
10
10
10
10
10
10
10
10
10
10
10
10
10
10
10
10
10
10
10
10
10
10
10
10
10
10
10
10
10
10
10
10
10
10
10
10
10
10
10
10
10
10
10
10
10
10
10
10
10
10
10
10
10
10
10
10
10
10
10
10
10
10
10
10
10
10
10
10
10
10
10
10
10
10
10
10
10
10
10
10
10
10
10
10
10
10
10
10
10
10
10
10
10
10
10
10
10
10
10
10
10
10
10
10
10
10
10
10
10
10
10
10
10
10
10
10
10
10
10
10
10
10
10
10
10
10
10
10
10
10
10
10
10
10
10
10
10
10
10
10
10
10
10
10
10
10
10
10
10
10
10
10
10
10
10
10
10
10
10
10
10
10
10
10
10
10
10
10
10
10
10
10
10
10
10
10
10
10
10
10
10
10
10
10
10
10
10
10
10
10
10
10
10
10
10
10
10
10
10
10
10
10
10
10
10
10
10
10
10
10
10
10
10
10
10
10
10
10
10
10
10
10
10
10
10
10
10
10
10
10
10
10
10
10
10
10
10
10
10
10
10
10
10
10
10
10
10
10
10
10
10
10
10
10
10
10
10
10
10
10
10
10
10
10
10
10
10
10
10
10
10
10
10
10
10
10
10
10
10
10
10
10
10
10
10
10
10
10
10
10
10
10
10
10
10
10
10
10
10
10
10
10
10
10
10
10
10
10
10
10
10
10
10
10
10
10
10
10
10
10
10
10
10
10
10
10
10
10
10
10
10
10
10
10
10
10
10
10
10
10
10
10
10
10
10
10
10
10
10
10
10
10
10
10
10
10
10
10
10
10
10
10
10
10
10
10
10
10
10
10
10
10
10
10
10
10
10
10
10
10
10
10
10
10
10
10
10
10
10
10
10
10
10
10
10
10
10
10
10
10
10
10
10
10
10
10
10
10
10
10
10
10
10
10
10
10
10
10
10
10
10
10
10
10
10
10
10
10
10
10
10
10
10
10
10
10
10
10
10
10
10
10
10
10
10
10
10
10
10
10
10
10
10
10
10
10
10
10
10
10
10
10
10
10
10
10
10
10
10
10
10
10
10
10
10
10
10
10
10
10
10
10
10
10
10
10
10
10
10
10
10
10
10
10
10
10
10
10
10
10
10
10
10
10
10
10
10
10
10
10
10
10
10
10
10
10
10
10
10
10
10
10
10
10
10
10
10
10
10
10
10
10
10
10
10
10
10
10
10
10
10
10
10
10
10
10
10
10
10
10
10
10
10
10
10
10
10
10
10
10
10
10
10
10
10
10
10
10
10
10
10
10
10
10
10
10
10
10
10
10
10
10
10
10
10
10
10
10
10
10
10
10
10
10
10
10
10
10
10
10
10
10
10
10
10
10
10
10
10
10
10
10
10
10
10
10
10
10
10
10
10
10
10
10
10
10
10
10
10
10
10
10
10
10
10
10
10
10
10
10
10
10
10
10
10
10
10
10
10
10
10
10
10
10
10
10
10
10
10
10
10
10
10
10
10
10
10
10
10
10
10
10
10
10
10
10
10
10
10
10
10
10
10
10
10
10
10
10
10
10
10
10
10
10
10
10
10
10
10
10
10
10
10
10
10
10
10
10
10
10
10
10
10
10
10
10
10
10
10
10
10
10
10
10
10
10
10
10
10
10
10
10
10
10
10
10
10
10
10
10
10
10
10
10
10
10
10
10
10
10
10
10
10
10
10
10
10
10
10
10
10
10
10
10
10
10
10
10
10
10
10
10
10
10
10
10
10
10
10
10
10
10
10
10
10
10
10
10
10
10
10
10
10
10
10
10
10
10
10
10
10
10
10
10
10
10
10
10
10
10
10
10
10
10
10
10
10
10
10
10
10
10
10
10
10
10
10
10
10
10
10
10
10
10
10
10
10
10
10
10
10
10
10
10
10
10
10
10
10
10
10
10
10
10
10
10
10
10
10
10
10
10
10
10
10
10
10
10
10
10
10
10
10
10
10
10
10
10
10
10
10
10
10
10
10
10
10
10
10
10
10
10
10
10
10
10
10
10
10
10
10
10
10
10
10
10
10
10
10
10
10
10
10
10
10
10
10
10
10
10
10
10
10
10
10
10
10
10
10
10
10
10
10
10
10
10
10
10
10
10
10
10
10
10
10
10
10
10
10
10
10
10
10
10
10
10
10
10
10
10
10
10
10
10
10
10
10
10
10
10
10
10
10
10
10
10
10
10
10
10
10
10
10
10
10
10
10
10
10
10
10
10
10
10
10
10
10
10
10
10
10
10
10
10
10
10
10
10
10
10
10
10
10
10
10
10
10
10
10
10
10
10
10
10
10
10
10
10
10
10
10
10
10
10
10
10
10
10
10
10
10
10
10
10
10
10
10
10
10
10
10
10
10
10
10
10
10
10
10
10
10
10
10
10
10
10
10
10
10
10
10
10
10
10
10
10
10
10
10
10
10
10
10
10
10
10
10
10
10
10
10
10
10
10
10
10
10
10
10
10
10
10
10
10
10
10
10
10
10
10
10
10
10
10
10
10
10
10
10
10
10
10
10
10
10
10
10
10
10
10
10
10
10
10
10
10
10
10
10
10
10
10
10
10
10
10
10
10
10
10
10
10
10
10
10
10
10
10
10
10
10
10
10
10
10
10
10
10
10
10
10
10
10
10
10
10
10
10
10
10
10
10
10
10
10
10
10
10
10
10
10
10
10
10
10
10
10
10
10
10
10
10
10
10
10
10
10
10
10
10
10
10
10
10
10
10
10
10
10
10
10
10
10
10
10
10
10
10
10
10
10
10
10
10
10
10
10
10
10
10
10
10
10
10
10
10
10
10
10
10
10
10
10
10
10
10
10
10
10
10
10
10
10
10
10
10
10
10
10
10
10
10
10
10
10
10
10
10
10
10
10
10
10
10
10
10
10
10
10
10
10
10
10
10
10
10
10
10
10
10
10
10
10
10
10
10
10
10
10
10
10
10
10
10
10
10
10
10
10
10
10
10
10
10
10
10
10
10
10
10
10
10
10
10
10
10
10
10
10
10
10
10
10
10
10
10
10
10
10
10
10
10
10
10
10
10
10
10
10
10
10
10
10
10
10
10
10
10
10
10
10
10
10
10
10
10
10
10
10
10
10
10
10
10
10
10
10
10
10
10
10
10
10
10
10
10
10
10
10
10
10
10
10
10
10
10
10
10
10
10
10
10
10
10
10
10
10
10
10
10
10
10
10
10
10
10
10
10
10
10
10
10
10
10
10
10
10
10
10
10
10
10
10
10
10
10
10
10
10
10
10
10
10
10
10
10
10
10
10
10
10
10
10
10
10
10
10
10
10
10
10
10
10
10
10
10
10
10
10
10
10
10
10
10
10
10
10
10
10
10
10
10
10
10
10
10
10
10
10
10
10
10
10
10
10
10
10
10
10
10
10
10
10
10
10
10
10
10
10
10
10
10
10
10
10
10
10
10
10
10
10
10
10
10
10
10
10
10
10
10
10
10
10
10
10
10
10
10
10
10
10
10
10
10
10
10
10
10
10
10
10
10
10
10
10
10
10
10
10
10
10
10
10
10
10
10
10
10
10
10
10
10
10
10
10
10
10
10
10
10
10
10
10
10
10
10
10
10
10
10
10
10
10
10
10
10
10
10
10
10
10
10
10
10
10
10
10
10
10
10
10
10
10
10
10
10
10
10
10
10
10
10
10
10
10
10
10
10
10
10
10
10
10
10
10
10
10
10
10
10
10
10
10
10
10
10
10
10
10
10
10
10
10
10
10
10
10
10
10
10
10
10
10
10
10
10
10
10
10
10
10
10
10
10
10
10
10
10
10
10
10
10
10
10
10
10
10
10
10
10
10
10
10
10
10
10
10
10
10
10
10
10
10
10
10
10
10
10
10
10
10
10
10
10
10
10
10
10
10
10
10
10
10
10
10
10
10
10
10
10
10
10
10
10
10
10
10
10
10
10
10
10
10
10
10
10
10
10
10
10
10
10
10
10
10
10
10
10
10
10
10
10
10
10
10
10
10
10
10
10
10
10
10
10
10
10
10
10
10
10
10
10
10
10
10
10
10
10
10
10
10
10
10
10
10
10
10
10
10
10
10
10
10
10
10
10
10
10
10
10
10
10
10
10
10
10
10
10
10
10
10
10
10
10
10
10
10
10
10
10
10
10
10
10
10
10
10
10
10
10
10
10
10
10
10
10
10
10
10
10
10
10
10
10
10
10
10
10
10
10
10
10
10
10
10
10
10
10
10
10
10
10
10
10
10
10
10
10
10
10
10
10
10
10
10
10
10
10
10
10
10
10
10
10
10
10
10
10
10
10
10
10
10
10
10
10
10
10
10
10
10
10
10
10
10
10
10
10
10
10
10
10
10
10
10
10
10
10
10
10
10
10
10
10
10
10
10
10
10
10
10
10
10
10
10
10
10
10
10
10
10
10
10
10
10
10
10
10
10
10
10
10
10
10
10
10
10
10
10
10
10
10
10
10
10
10
10
10
10
10
10
10
10
10
10
10
10
10
10
10
10
10
10
10
10
10
10
10
10
10
10
10
10
10
10
10
10
10
10
10
10
10
10
10
10
10
10
10
10
10
10
10
10
10
10
10
10
10
10
10
10
10
10
10
10
10
10
10
10
10
10
10
10
10
10
10
10
10
10
10
10
10
10
10
10
10
10
10
10
10
10
10
10
10
10
10
10
10
10
10
10
10
10
10
10
10
10
10
10
10
10
10
10
10
10
10
10
10
10
10
10
10
10
10
10
10
10
10
10
10
10
10
10
10
10
10
10
10
10
10
10
10
10
10
10
10
10
10
10
10
10
10
10
10
10
10
10
10
10
10
10
10
10
10
10
10
10
10
10
10
10
10
10
10
10
10
10
10
10
10
10
10
10
10
10
10
10
10
10
10
10
10
10
10
10
10
10
10
10
10
10
10
10
10
10
10
10
10
10
10
10
10
10
10
10
10
10
10
10
10
10
10
10
10
10
10
10
10
10
10
10
10
10
10
10
10
10
10
10
10
10
10
10
10
10
10
10
10
10
10
10
10
10
10
10
10
10
10
10
10
10
10
10
10
10
10
10
10
10
10
10
10
10
10
10
10
10
10
10
10
10
10
10
10
10
10
10
10
10
10
10
10
10
10
10
10
10
10
10
10
10
10
10
10
10
10
10
10
10
10
10
10
10
10
10
10
10
10
10
10
10
10
10
10
10
10
10
10
10
10
10
10
10
10
10
10
10
10
10
10
10
10
10
10
10
10
10
10
10
10
10
10
10
10
10
10
10
10
10
10
10
10
10
10
10
10
10
10
10
10
10
10
10
10
10
10
10
10
10
10
10
10
10
10
10
10
10
10
10
10
10
10
10
10
10
10
10
10
10
10
10
10
10
10
10
10
10
10
10
10
10
10
10
10
10
10
10
10
10
10
10
10
10
10
10
10
10
10
10
10
10
10
10
10
10
10
10
10
10
10
10
10
10
10
10
10
10
10
10
10
10
10
10
10
10
10
10
10
10
10
10
10
10
10
10
10
10
10
10
10
10
10
10
10
10
10
10
10
10
10
10
10
10
10
10
10
10
10
10
10
10
10
10
10
10
10
10
10
10
10
10
10
10
10
10
10
10
10
10
10
10
10
10
10
10
10
10
10
10
10
10
10
10
10
10
10
10
10
10
10
10
10
10
10
10
10
10
10
10
10
10
10
10
10
10
10
10
10
10
10
10
10
10
10
10
10
10
10
10
10
10
10
10
10
10
10
10
10
10
10
10
10
10
10
10
10
10
10
10
10
10
10
10
10
10
10
10
10
10
10
10
10
10
10
10
10
10
10
10
10
10
10
10
10
10
10
10
10
10
10
10
10
10
10
10
10
10
10
10
10
10
10
10
10
10
10
10
10
10
10
10
10
10
10
10
10
10
10
10
10
10
10
10
10
10
10
10
10
10
10
10
10
10
10
10
10
10
10
10
10
10
10
10
10
10
10
10
10
10
10
10
10
10
10
10
10
10
10
10
10
10
10
10
10
10
10
10
10
10
10
10
10
10
10
10
10
10
10
10
10
10
10
10
10
10
10
10
10
10
10
10
10
10
10
10
10
10
10
10
10
10
10
10
10
10
10
10
10
10
10
10
10
10
10
10
10
10
10
10
10
10
10
10
10
10
10
10
10
10
10
10
10
10
10
10
10
10
10
10
10
10
10
10
10
10
10
10
10
10
10
10
10
10
10
10
10
10
10
10
10
10
10
10
10
10
10
10
10
10
10
10
10
10
10
10
10
10
10
10
10
10
10
10
10
10
10
10
10
10
10
10
10
10
10
10
10
10
10
10
10
10
10
10
10
10
10
10
10
10
10
10
10
10
10
10
10
10
10
10
10
10
10
10
10
10
10
10
10
10
10
10
10
10
10
10
10
10
10
10
10
10
10
10
10
10
10
10
10
10
10
10
10
10
10
10
10
10
10
10
10
10
10
10
10
10
10
10
10
10
10
10
10
10
10
10
10
10
10
10
10
10
10
10
10
10
10
10
10
10
10
10
10
10
10
10
10
10
10
10
10
10
10
10
10
10
10
10
10
10
10
10
10
10
10
10
10
10
10
10
10
10
10
10
10
10
10
10
10
10
10
10
10
10
10
10
10
10
10
10
10
10
10
10
10
10
10
10
10
10
10
10
10
10
10
10
10
10
10
10
10
10
10
10
10
10
10
10
10
10
10
10
10
10
10
10
10
10
10
10
10
10
10
10
10
10
10
10
10
10
10
10
10
10
10
10
10
10
10
10
10
10
10
10
10
10
10
10
10
10
10
10
10
10
10
10
10
10
10
10
10
10
10
10
10
10
10
10
10
10
10
10
10
10
10
10
10
10
10
10
10
10
10
10
10
10
10
10
10
10
10
10
10
10
10
10
10
10
10
10
10
10
10
10
10
10
10
10
10
10
10
10
10
10
10
10
10
10
10
10
10
10
10
10
10
10
10
10
10
10
10
10
10
10
10
10
10
10
10
10
10
10
10
10
10
10
10
10
10
10
10
10
10
10
10
10
10
10
10
10
10
10
10
10
10
10
10
10
10
10
10
10
10
10
10
10
10
10
10
10
10
10
10
10
10
10
10
10
10
10
10
10
10
10
10
10
10
10
10
10
10
10
10
10
10
10
10
10
10
10
10
10
10
10
10
10
10
10
10
10
10
10
10
10
10
10
10
10
10
10
10
10
10
10
10
10
10
10
10
10
10
10
10
10
10
10
10
10
10
10
10
10
10
10
10
10
10
10
10
10
10
10
10
10
10
10
10
10
10
10
10
10
10
10
10
10
10
10
10
10
10
10
10
10
10
10
10
10
10
10
10
10
10
10
10
10
10
10
10
10
10
10
10
10
10
10
10
10
10
10
10
10
10
10
10
10
10
10
10
10
10
10
10
10
10
10
10
10
10
10
10
10
10
10
10
10
10
10
10
10
10
10
10
10
10
10
10
10
10
10
10
10
10
10
10
10
10
10
10
10
10
10
10
10
10
10
10
10
10
10
10
10
10
10
10
10
10
10
10
10
10
10
10
10
10
10
10
10
10
10
10
10
10
10
10
10
10
10
10
10
10
10
10
10
10
10
10
10
10
10
10
10
10
10
10
10
10
10
10
10
10
10
10
10
10
10
10
10
10
10
10
10
10
10
10
10
10
10
10
10
10
10
10
10
10
10
10
10
10
10
10
10
10
10
10
10
10
10
10
10
10
10
10
10
10
10
10
10
10
10
10
10
10
10
10
10
10
10
10
10
10
10
10
10
10
10
10
10
10
10
10
10
10
10
10
10
10
10
10
10
10
10
10
10
10
10
10
10
10
10
10
10
10
10
10
10
10
10
10
10
10
10
10
10
10
10
10
10
10
10
10
10
10
10
10
10
10
10
10
10
10
10
10
10
10
10
10
10
10
10
10
10
10
10
10
10
10
10
10
10
10
10
10
10
10
10
10
10
10
10
10
10
10
10
10
10
10
10
10
10
10
10
10
10
10
10
10
10
10
10
10
10
10
10
10
10
10
10
10
10
10
10
10
10
10
10
10
10
10
10
10
10
10
10
10
10
10
10
10
10
10
10
10
10
10
10
10
10
10
10
10
10
10
10
10
10
10
10
10
10
10
10
10
10
10
10
10
10
10
10
10
10
10
10
10
10
10
10
10
10
10
10
10
10
10
10
10
10
10
10
10
10
10
10
10
10
10
10
10
10
10
10
10
10
10
10
10
10
10
10
10
10
10
10
10
10
10
10
10
10
10
10
10
10
10
10
10
10
10
10
10
10
10
10
10
10
10
10
10
10
10
10
10
10
10
10
10
10
10
10
10
10
10
10
10
10
10
10
10
10
10
10
10
10
10
10
10
10
10
10
10
10
10
10
10
10
10
10
10
10
10
10
10
10
10
10
10
10
10
10
10
10
10
10
10
10
10
10
10
10
10
10
10
10
10
10
10
10
10
10
10
10
10
10
10
10
10
10
10
10
10
10
10
10
10
10
10
10
10
10
10
10
10
10
10
10
10
10
10
10
10
10
10
10
10
10
10
10
10
10
10
10
10
10
10
10
10
10
10
10
10
10
10
10
10
10
10
10
10
10
10
10
10
10
10
10
10
10
10
10
10
10
10
10
10
10
10
10
10
10
10
10
10
10
10
10
10
10
10
10
10
10
10
10
10
10
10
10
10
10
10
10
10
10
10
10
10
10
10
10
10
10
10
10
10
10
10
10
10
10
10
10
10
10
10
10
10
10
10
10
10
10
10
10
10
10
10
10
10
10
10
10
10
10
10
10
10
10
10
10
10
10
10
10
10
10
10
10
10
10
10
10
10
10
10
10
10
10
10
10
10
10
10
10
10
10
10
10
10
10
10
10
10
10
10
10
10
10
10
10
10
10
10
10
10
10
10
10
10
10
10
10
10
10
10
10
10
10
10
10
10
10
10
10
10
10
10
10
10
10
10
10
10
10
10
10
10
10
10
10
10
10
10
10
10
10
10
10
10
10
10
10
10
10
10
10
10
10
10
10
10
10
10
10
10
10
10
10
10
10
10
10
10
10
10
10
10
10
10
10
10
10
10
10
10
10
10
10
10
10
10
10
10
10
10
10
10
10
10
10
10
10
10
10
10
10
10
10
10
10
10
10
10
10
10
10
10
10
10
10
10
10
10
10
10
10
10
10
10
10
10
10
10
10
10
10
10
10
10
10
10
10
10
10
10
10
10
10
10
10
10
10
10
10
10
10
10
10
10
10
10
10
10
10
10
10
10
10
10
10
10
10
10
10
10
10
10
10
10
10
10
10
10
10
10
10
10
10
10
10
10
10
10
10
10
10
10
10
10
10
10
10
10
10
10
10
10
10
10
10
10
10
10
10
10
10
10
10
10
10
10
10
10
10
10
10
10
10
10
10
10
10
10
10
10
10
10
10
10
10
10
10
10
10
10
10
10
10
10
10
10
10
10
10
10
10
10
10
10
10
10
10
10
10
10
10
10
10
10
10
10
10
10
10
10
10
10
10
10
10
10
10
10
10
10
10
10
10
10
10
10
10
10
10
10
10
10
10
10
10
10
10
10
10
10
10
10
10
10
10
10
10
10
10
10
10
10
10
10
10
10
10
10
10
10
10
10
10
10
10
10
10
10
10
10
10
10
10
10
10
10
10
10
10
10
10
10
10
10
10
10
10
10
10
10
10
10
10
10
10
10
10
10
10
10
10
10
10
10
10
10
10
10
10
10
10
10
10
10
10
10
10
10
10
10
10
10
10
10
10
10
10
10
10
10
10
10
10
10
10
10
10
10
10
10
10
10
10
10
10
10
10
10
10
10
10
10
10
10
10
10
10
10
10
10
10
10
10
10
10
10
10
10
10
10
10
10
10
10
10
10
10
10
10
10
10
10
10
10
10
10
10
10
10
10
10
10
10
10
10
10
10
10
10
10
10
10
10
10
10
10
10
10
10
10
10
10
10
10
10
10
10
10
10
10
10
10
10
10
10
10
10
10
10
10
10
10
10
10
10
10
10
10
10
10
10
10
10
10
10
10
10
10
10
10
10
10
10
10
10
10
10
10
10
10
10
10
10
10
10
10
10
10
10
10
10
10
10
10
10
10
10
10
10
10
10
10
10
10
10
10
10
10
10
10
10
10
10
10
10
10
10
10
10
10
10
10
10
10
10
10
10
10
10
10
10
10
10
10
10
10
10
10
10
10
10
10
10
10
10
10
10
10
10
10
10
10
10
10
10
10
10
10
10
10
10
10
10
10
10
10
10
10
10
10
10
10
10
10
10
10
10
10
10
10
10
10
10
10
10
10
10
10
10
10
10
10
10
10
10
10
10
10
10
10
10
10
10
10
10
10
10
10
10
10
10
10
10
10
10
10
10
10
10
10
10
10
10
10
10
10
10
10
10
10
10
10
10
10
10
10
10
10
10
10
10
10
10
10
10
10
10
10
10
10
10
10
10
10
10
10
10
10
10
10
10
10
10
10
10
10
10
10
10
10
10
10
10
10
10
10
10
10
10
10
10
10
10
10
10
10
10
10
10
10
10
10
10
10
10
10
10
10
10
10
10
10
10
10
10
10
10
10
10
10
10
10
10
10
10
10
10
10
10
10
10
10
10
10
10
10
10
10
10
10
10
10
10
10
10
10
10
10
10
10
10
10
10
10
10
10
10
10
10
10
10
10
10
10
10
10
10
10
10
10
10
10
10
10
10
10
10
10
10
10
10
10
10
10
10
10
10
10
10
10
10
10
10
10
10
10
10
10
10
10
10
10
10
10
10
10
10
10
10
10
10
10
10
10
10
10
10
10
10
10
10
10
10
10
10
10
10
10
10
10
10
10
10
10
10
10
10
10
10
10
10
10
10
10
10
10
10
10
10
10
10
10
10
10
10
10
10
10
10
10
10
10
10
10
10
10
10
10
10
10
10
10
10
10
10
10
10
10
10
10
10
10
10
10
10
10
10
10
10
10
10
10
10
10
10
10
10
10
10
10
10
10
10
10
10
10
10
10
10
10
10
10
10
10
10
10
10
10
10
10
10
10
10
10
10
10
10
10
10
10
10
10
10
10
10
10
10
10
10
10
10
10
10
10
10
10
10
10
10
10
10
10
10
10
10
10
10
10
10
10
10
10
10
10
10
10
10
10
10
10
10
10
10
10
10
10
10
10
10
10
10
10
10
10
10
10
10
10
10
10
10
10
10
10
10
10
10
10
10
10
10
10
10
10
10
10
10
10
10
10
10
10
10
10
10
10
10
10
10
10
10
10
10
10
10
10
10
10
10
10
10
10
10
10
10
10
10
10
10
10
10
10
10
10
10
10
10
10
10
10
10
10
10
10
10
10
10
10
10
10
10
10
10
10
10
10
10
10
10
10
10
10
10
10
10
10
10
10
10
10
10
10
10
10
10
10
10
10
10
10
10
10
10
10
10
10
10
10
10
10
10
10
10
10
10
10
10
10
10
10
10
10
10
10
10
10
10
10
10
10
10
10
10
10
10
10
10
10
10
10
10
10
10
10
10
10
10
10
10
10
10
10
10
10
10
10
10
10
10
10
10
10
10
10
10
10
10
10
10
10
10
10
10
10
10
10
10
10
10
10
10
10
10
10
10
10
10
10
10
10
10
10
10
10
10
10
10
10
10
10
10
10
10
10
10
10
10
10
10
10
10
10
10
10
10
10
10
10
10
10
10
10
10
10
10
10
10
10
10
10
10
10
10
10
10
10
10
10
10
10
10
10
10
10
10
10
10
10
10
10
10
10
10
10
10
10
10
10
10
10
10
10
10
10
10
10
10
10
10
10
10
10
10
10
10
10
10
10
10
10
10
10
10
10
10
10
10
10
10
10
10
10
10
10
10
10
10
10
10
10
10
10
10
10
10
10
10
10
10
10
10
10
10
10
10
10
10
10
10
10
10
10
10
10
10
10
10
10
10
10
10
10
10
10
10
10
10
10
10
10
10
10
10
10
10
10
10
10
10
10
10
10
10
10
10
10
10
10
10
10
10
10
10
10
10
10
10
10
10
10
10
10
10
10
10
10
10
10
10
10
10
10
10
10
10
10
10
10
10
10
10
10
10
10
10
10
10
10
10
10
10
10
10
10
10
10
10
10
10
10
10
10
10
10
10
10
10
10
10
10
10
10
10
10
10
10
10
10
10
10
10
10
10
10
10
10
10
10
10
10
10
10
10
10
10
10
10
10
10
10
10
10
10
10
10
10
10
10
10
10
10
10
10
10
10
10
10
10
10
10
10
10
10
10
10
10
10
10
10
10
10
10
10
10
10
10
10
10
10
10
10
10
10
10
10
10
10
10
10
10
10
10
10
10
10
10
10
10
10
10
10
10
10
10
10
10
10
10
10
10
10
10
10
10
10
10
10
10
10
10
10
10
10
10
10
10
10
10
10
10
10
10
10
10
10
10
10
10
10
10
10
10
10
10
10
10
10
10
10
10
10
10
10
10
10
10
10
10
10
10
10
10
10
10
10
10
10
10
10
10
10
10
10
10
10
10
10
10
10
10
10
10
10
10
10
10
10
10
10
10
10
10
10
10
10
10
10
10
10
10
10
10
10
10
10
10
10
10
10
10
10
10
10
10
10
10
10
10
10
10
10
10
10
10
10
10
10
10
10
10
10
10
10
10
10
10
10
10
10
10
10
10
10
10
10
10
10
10
10
10
10
10
10
10
10
10
10
10
10
10
10
10
10
10
10
10
10
10
10
10
10
10
10
10
10
10
10
10
10
10
10
10
10
10
10
10
10
10
10
10
10
10
10
10
10
10
10
10
10
10
10
10
10
10
10
10
10
10
10
10
10
10
10
10
10
10
10
10
10
10
10
10
10
10
10
10
10
10
10
10
10
10
10
10
10
10
10
10
10
10
10
10
10
10
10
10
10
10
10
10
10
10
10
10
10
10
10
10
10
10
10
10
10
10
10
10
10
10
10
10
10
10
10
10
10
10
10
10
10
10
10
10
10
10
10
10
10
10
10
10
10
10
10
10
10
10
10
10
10
10
10
10
10
10
10
10
10
10
10
10
10
10
10
10
10
10
10
10
10
10
10
10
10
10
10
10
10
10
10
10
10
10
10
10
10
10
10
10
10
10
10
10
10
10
10
10
10
10
10
10
10
10
10
10
10
10
10
10
10
10
10
10
10
10
10
10
10
10
10
10
10
10
10
10
10
10
10
10
10
10
10
10
10
10
10
10
10
10
10
10
10
10
10
10
10
10
10
10
10
10
10
10
10
10
10
10
10
10
10
10
10
10
10
10
10
10
10
10
10
10
10
10
10
10
10
10
10
10
10
10
10
10
10
10
10
10
10
10
10
10
10
10
10
10
10
10
10
10
10
10
10
10
10
10
10
10
10
10
10
10
10
10
10
10
10
10
10
10
10
10
10
10
10
10
10
10
10
10
10
10
10
10
10
10
10
10
10
10
10
10
10
10
10
10
10
10
10
10
10
10
10
10
10
10
10
10
10
10
10
10
10
10
10
10
10
10
10
10
10
10
10
10
10
10
10
10
10
10
10
10
10
10
10
10
10
10
10
10
10
10
10
10
10
10
10
10
10
10
10
10
10
10
10
10
10
10
10
10
10
10
10
10
10
10
10
10
10
10
10
10
10
10
10
10
10
10
10
10
10
10
10
10
10
10
10
10
10
10
10
10
10
10
10
10
10
10
10
10
10
10
10
10
10
10
10
10
10
10
10
10
10
10
10
10
10
10
10
10
10
10
10
10
10
10
10
10
10
10
10
10
10
10
10
10
10
10
10
10
10
10
10
10
10
10
10
10
10
10
10
10
10
10
10
10
10
10
10
10
10
10
10
10
10
10
10
10
10
10
10
10
10
10
10
10
10
10
10
10
10
10
10
10
10
10
10
10
10
10
10
10
10
10
10
10
10
10
10
10
10
10
10
10
10
10
10
10
10
10
10
10
10
10
10
10
10
10
10
10
10
10
10
10
10
10
10
10
10
10
10
10
10
10
10
10
10
10
10
10
10
10
10
10
10
10
10
10
10
10
10
10
10
10
10
10
10
10
10
10
10
10
10
10
10
10
10
10
10
10
10
10
10
10
10
10
10
10
10
10
10
10
10
10
10
10
10
10
10
10
10
10
10
10
10
10
10
10
10
10
10
10
10
10
10
10
10
10
10
10
10
10
10
10
10
10
10
10
10
10
10
10
10
10
10
10
10
10
10
10
10
10
10
10
10
10
10
10
10
10
10
10
10
10
10
10
10
10
10
10
10
10
10
10
10
10
10
10
10
10
10
10
10
10
10
10
10
10
10
10
10
10
10
10
10
10
10
10
10
10
10
10
10
10
10
10
10
10
10
10
10
10
10
10
10
10
10
10
10
10
10
10
10
10
10
10
10
10
10
10
10
10
10
10
10
10
10
10
10
10
10
10
10
10
10
10
10
10
10
10
10
10
10
10
10
10
10
10
10
10
10
10
10
10
10
10
10
10
10
10
10
10
10
10
10
10
10
10
10
10
10
10
10
10
10
10
10
10
10
10
10
10
10
10
10
10
10
10
10
10
10
10
10
10
10
10
10
10
10
10
10
10
10
10
10
10
10
10
10
10
10
10
10
10
10
10
10
10
10
10
10
10
10
10
10
10
10
10
10
10
10
10
10
10
10
10
10
10
10
10
10
10
10
10
10
10
10
10
10
10
10
10
10
10
10
10
10
10
10
10
10
10
10
10
10
10
10
10
10
10
10
10
10
10
10
10
10
10
10
10
10
10
10
10
10
10
10
10
10
10
10
10
10
10
10
10
10
10
10
10
10
10
10
10
10
10
10
10
10
10
10
10
10
10
10
10
10
10
10
10
10
10
10
10
10
10
10
10
10
10
10
10
10
10
10
10
10
10
10
10
10
10
10
10
10
10
10
10
10
10
10
10
10
10
10
10
10
10
10
10
10
10
10
10
10
10
10
10
10
10
10
10
10
10
10
10
10
10
10
10
10
10
10
10
10
10
10
10
10
10
10
10
10
10
10
10
10
10
10
10
10
10
10
10
10
10
10
10
10
10
10
10
10
10
10
10
10
10
10
10
10
10
10
10
10
10
10
10
10
10
10
10
10
10
10
10
10
10
10
10
10
10
10
10
10
10
10
10
10
10
10
10
10
10
10
10
10
10
10
10
10
10
10
10
10
10
10
10
10
10
10
10
10
10
10
10
10
10
10
10
10
10
10
10
10
10
10
10
10
10
10
10
10
10
10
10
10
10
10
10
10
10
10
10
10
10
10
10
10
10
10
10
10
10
10
10
10
10
10
10
10
10
10
10
10
10
10
10
10
10
10
10
10
10
10
10
10
10
10
10
10
10
10
10
10
10
10
10
10
10
10
10
10
10
10
10
10
10
10
10
10
10
10
10
10
10
10
10
10
10
10
10
10
10
10
10
10
10
10
10
10
10
10
10
10
10
10
10
10
10
10
10
10
10
10
10
10
10
10
10
10
10
10
10
10
10
10
10
10
10
10
10
10
10
10
10
10
10
10
10
10
10
10
10
10
10
10
10
10
10
10
10
10
10
10
10
10
10
10
10
10
10
10
10
10
10
10
10
10
10
10
10
10
10
10
10
10
10
10
10
10
10
10
10
10
10
10
10
10
10
10
10
10
10
10
10
10
10
10
10
10
10
10
10
10
10
10
10
10
10
10
10
10
10
10
10
10
10
10
10
10
10
10
10
10
10
10
10
10
10
10
10
10
10
10
10
10
10
10
10
10
10
10
10
10
10
10
10
10
10
10
10
10
10
10
10
10
10
10
10
10
10
10
10
10
10
10
10
10
10
10
10
10
10
10
10
10
10
10
10
10
10
10
10
10
10
10
10
10
10
10
10
10
10
10
10
10
10
10
10
10
10
10
10
10
10
10
10
10
10
10
10
10
10
10
10
10
10
10
10
10
10
10
10
10
10
10
10
10
10
10
10
10
10
10
10
10
10
10
10
10
10
10
10
10
10
10
10
10
10
10
10
10
10
10
10
10
10
10
10
10
10
10
10
10
10
10
10
10
10
10
10
10
10
10
10
10
10
10
10
10
10
10
10
10
10
10
10
10
10
10
10
10
10
10
10
10
10
10
10
10
10
10
10
10
10
10
10
10
10
10
10
10
10
10
10
10
10
10
10
10
10
10
10
10
10
10
10
10
10
10
10
10
10
10
10
10
10
10
10
10
10
10
10
10
10
10
10
10
10
10
10
10
10
10
10
10
10
10
10
10
10
10
10
10
10
10
10
10
10
10
10
10
10
10
10
10
10
10
10
10
10
10
10
10
10
10
10
10
10
10
10
10
10
10
10
10
10
10
10
10
10
10
10
10
10
10
10
10
10
10
10
10
10
10
10
10
10
10
10
10
10
10
10
10
10
10
10
10
10
10
10
10
10
10
10
10
10
10
10
10
10
10
10
10
10
10
10
10
10
10
10
10
10
10
10
10
10
10
10
10
10
10
10
10
10
10
10
10
10
10
10
10
10
10
10
10
10
10
10
10
10
10
10
10
10
10
10
10
10
10
10
10
10
10
10
10
10
10
10
10
10
10
10
10
10
10
10
10
10
10
10
10
10
10
10
10
10
10
10
10
10
10
10
10
10
10
10
10
10
10
10
10
10
10
10
10
10
10
10
10
10
10
10
10
10
10
10
10
10
10
10
10
10
10
10
10
10
10
10
10
10
10
10
10
10
10
10
10
10
10
10
10
10
10
10
10
10
10
10
10
10
10
10
10
10
10
10
10
10
10
10
10
10
10
10
10
10
10
10
10
10
10
10
10
10
10
10
10
10
10
10
10
10
10
10
10
10
10
10
10
10
10
10
10
10
10
10
10
10
10
10
10
10
10
10
10
10
10
10
10
10
10
10
10
10
10
10
10
10
10
10
10
10
10
10
10
10
10
10
10
10
10
10
10
10
10
10
10
10
10
10
10
10
10
10
10
10
10
10
10
10
10
10
10
10
10
10
10
10
10
10
10
10
10
10
10
10
10
10
10
10
10
10
10
10
10
10
10
10
10
10
10
10
10
10
10
10
10
10
10
10
10
10
10
10
10
10
10
10
10
10
10
10
10
10
10
10
10
10
10
10
10
10
10
10
10
10
10
10
10
10
10
10
10
10
10
10
10
10
10
10
10
10
10
10
10
10
10
10
10
10
10
10
10
10
10
10
10
10
10
10
10
10
10
10
10
10
10
10
10
10
10
10
10
10
10
10
10
10
10
10
10
10
10
10
10
10
10
10
10
10
10
10
10
10
10
10
10
10
10
10
10
10
10
10
10
10
10
10
10
10
10
10
10
10
10
10
10
10
10
10
10
10
10
10
10
10
10
10
10
10
10
10
10
10
10
10
10
10
10
10
10
10
10
10
10
10
10
10
10
10
10
10
10
10
10
10
10
10
10
10
10
10
10
10
10
10
10
10
10
10
10
10
10
10
10
10
10
10
10
10
10
10
10
10
10
10
10
10
10
10
10
10
10
10
10
10
10
10
10
10
10
10
10
10
10
10
10
10
10
10
10
10
10
10
10
10
10
10
10
10
10
10
10
10
10
10
10
10
10
10
10
10
10
10
10
10
10
10
10
10
10
10
10
10
10
10
10
10
10
10
10
10
10
10
10
10
10
10
10
10
10
10
10
10
10
10
10
10
10
10
10
10
10
10
10
10
10
10
10
10
10
10
10
10
10
10
10
10
10
10
10
10
10
10
10
10
10
10
10
10
10
10
10
10
10
10
10
10
10
10
10
10
10
10
10
10
10
10
10
10
10
10
10
10
10
10
10
10
10
10
10
10
10
10
10
10
10
10
10
10
10
10
10
10
10
10
10
10
10
10
10
10
10
10
10
10
10
10
10
10
10
10
10
10
10
10
10
10
10
10
10
10
10
10
10
10
10
10
10
10
10
10
10
10
10
10
10
10
10
10
10
10
10
10
10
10
10
10
10
10
10
10
10
10
10
10
10
10
10
10
10
10
10
10
10
10
10
10
10
10
10
10
10
10
10
10
10
10
10
10
10
10
10
10
10
10
10
10
10
10
10
10
10
10
10
10
10
10
10
10
10
10
10
10
10
10
10
10
10
10
10
10
10
10
10
10
10
10
10
10
10
10
10
10
10
10
10
10
10
10
10
10
10
10
10
10
10
10
10
10
10
10
10
10
10
10
10
10
10
10
10
10
10
10
10
10
10
10
10
10
10
10
10
10
10
10
10
10
10
10
10
10
10
10
10
10
10
10
10
10
10
10
10
10
10
10
10
10
10
10
10
10
10
10
10
10
10
10
10
10
10
10
10
10
10
10
10
10
10
10
10
10
10
10
10
10
10
10
10
10
10
10
10
10
10
10
10
10
10
10
10
10
10
10
10
10
10
10
10
10
10
10
10
10
10
10
10
10
10
10
10
10
10
10
10
10
10
10
10
10
10
10
10
10
10
10
10
10
10
10
10
10
10
10
10
10
10
10
10
10
10
10
10
10
10
10
10
10
10
10
10
10
10
10
10
10
10
10
10
10
10
10
10
10
10
10
10
10
10
10
10
10
10
10
10
10
10
10
10
10
10
10
10
10
10
10
10
10
10
10
10
10
10
10
10
10
10
10
10
10
10
10
10
10
10
10
10
10
10
10
10
10
10
10
10
10
10
10
10
10
10
10
10
10
10
10
10
10
10
10
10
10
10
10
10
10
10
10
10
10
10
10
10
10
10
10
10
10
10
10
10
10
10
10
10
10
10
10
10
10
10
10
10
10
10
10
10
10
10
10
10
10
10
10
10
10
10
10
10
10
10
10
10
10
10
10
10
10
10
10
10
10
10
10
10
10
10
10
10
10
10
10
10
10
10
10
10
10
10
10
10
10
10
10
10
10
10
10
10
10
10
10
10
10
10
10
10
10
10
10
10
10
10
10
10
10
10
10
10
10
10
10
10
10
10
10
10
10
10
10
10
10
10
10
10
10
10
10
10
10
10
10
10
10
10
10
10
10
10
10
10
10
10
10
10
10
10
10
10
10
10
10
10
10
10
10
10
10
10
10
10
10
10
10
10
10
10
10
10
10
10
10
10
10
10
10
10
10
10
10
10
10
10
10
10
10
10
10
10
10
10
10
10
10
10
10
10
10
10
10
10
10
10
10
10
10
10
10
10
10
10
10
10
10
10
10
10
10
10
10
10
10
10
10
10
10
10
10
10
10
10
10
10
10
10
10
10
10
10
10
10
10
10
10
10
10
10
10
10
10
10
10
10
10
10
10
10
10
10
10
10
10
10
10
10
10
10
10
10
10
10
10
10
10
10
10
10
10
10
10
10
10
10
10
10
10
10
10
10
10
10
10
10
10
10
10
10
10
10
10
10
10
10
10
10
10
10
10
10
10
10
10
10
10
10
10
10
10
10
10
10
10
10
10
10
10
10
10
10
10
10
10
10
10
10
10
10
10
10
10
10
10
10
10
10
10
10
10
10
10
10
10
10
10
10
10
10
10
10
10
10
10
10
10
10
10
10
10
10
10
10
10
10
10
10
10
10
10
10
10
10
10
10
10
10
10
10
10
10
10
10
10
10
10
10
10
10
10
10
10
10
10
10
10
10
10
10
10
10
10
10
10
10
10
10
10
10
10
10
10
10
10
10
10
10
10
10
10
10
10
10
10
10
10
10
10
10
10
10
10
10
10
10
10
10
10
10
10
10
10
10
10
10
10
10
10
10
10
10
10
10
10
10
10
10
10
10
10
10
10
10
10
10
10
10
10
10
10
10
10
10
10
10
10
10
10
10
10
10
10
10
10
10
10
10
10
10
10
10
10
10
10
10
10
10
10
10
10
10
10
10
10
10
10
10
10
10
10
10
10
10
10
10
10
10
10
10
10
10
10
10
10
10
10
10
10
10
10
10
10
10
10
10
10
10
10
10
10
10
10
10
10
10
10
10
10
10
10
10
10
10
10
10
10
10
10
10
10
10
10
10
10
10
10
10
10
10
10
10
10
10
10
10
10
10
10
10
10
10
10
10
10
10
10
10
10
10
10
10
10
10
10
10
10
10
10
10
10
10
10
10
10
10
10
10
10
10
10
10
10
10
10
10
10
10
10
10
10
10
10
10
10
10
10
10
10
10
10
10
10
10
10
10
10
10
10
10
10
10
10
10
10
10
10
10
10
10
10
10
10
10
10
10
10
10
10
10
10
10
10
10
10
10
10
10
10
10
10
10
10
10
10
10
10
10
10
10
10
10
10
10
10
10
10
10
10
10
10
10
10
10
10
10
10
10
10
10
10
10
10
10
10
10
10
10
10
10
10
10
10
10
10
10
10
10
10
10
10
10
10
10
10
10
10
10
10
10
10
10
10
10
10
10
10
10
10
10
10
10
10
10
10
10
10
10
10
10
10
10
10
10
10
10
10
10
10
10
10
10
10
10
10
10
10
10
10
10
10
10
10
10
10
10
10
10
10
10
10
10
10
10
10
10
10
10
10
10
10
10
10
10
10
10
10
10
10
10
10
10
10
10
10
10
10
10
10
10
10
10
10
10
10
10
10
10
10
10
10
10
10
10
10
10
10
10
10
10
10
10
10
10
10
10
10
10
10
10
10
10
10
10
10
10
10
10
10
10
10
10
10
10
10
10
10
10
10
10
10
10
10
10
10
10
10
10
10
10
10
10
10
10
10
10
10
10
10
10
10
10
10
10
10
10
10
10
10
10
10
10
10
10
10
10
10
10
10
10
10
10
10
10
10
10
10
10
10
10
10
10
10
10
10
10
10
10
10
10
10
10
10
10
10
10
10
10
10
10
10
10
10
10
10
10
10
10
10
10
10
10
10
10
10
10
10
10
10
10
10
10
10
10
10
10
10
10
10
10
10
10
10
10
10
10
10
10
10
10
10
10
10
10
10
10
10
10
10
10
10
10
10
10
10
10
10
10
10
10
10
10
10
10
10
10
10
10
10
10
10
10
10
10
10
10
10
10
10
10
10
10
10
10
10
10
10
10
10
10
10
10
10
10
10
10
10
10
10
10
10
10
10
10
10
10
10
10
10
10
10
10
10
10
10
10
10
10
10
10
10
10
10
10
10
10
10
10
10
10
10
10
10
10
10
10
10
10
10
10
10
10
10
10
10
10
10
10
10
10
10
10
10
10
10
10
10
10
10
10
10
10
10
10
10
10
10
10
10
10
10
10
10
10
10
10
10
10
10
10
10
10
10
10
10
10
10
10
10
10
10
10
10
10
10
10
10
10
10
10
10
10
10
10
10
10
10
10
10
10
10
10
10
10
10
10
10
10
10
10
10
10
10
10
10
10
10
10
10
10
10
10
10
10
10
10
10
10
10
10
10
10
10
10
10
10
10
10
10
10
10
10
10
10
10
10
10
10
10
10
10
10
10
10
10
10
10
10
10
10
10
10
10
10
10
10
10
10
10
10
10
10
10
10
10
10
10
10
10
10
10
10
10
10
10
10
10
10
10
10
10
10
10
10
10
10
10
10
10
10
10
10
10
10
10
10
10
10
10
10
10
10
10
10
10
10
10
10
10
10
10
10
10
10
10
10
10
10
10
10
10
10
10
10
10
10
10
10
10
10
10
10
10
10
10
10
10
10
10
10
10
10
10
10
10
10
10
10
10
10
10
10
10
10
10
10
10
10
10
10
10
10
10
10
10
10
10
10
10
10
10
10
10
10
10
10
10
10
10
10
10
10
10
10
10
10
10
10
10
10
10
10
10
10
10
10
10
10
10
10
10
10
10
10
10
10
10
10
10
10
10
10
10
10
10
10
10
10
10
10
10
10
10
10
10
10
10
10
10
10
10
10
10
10
10
10
10
10
10
10
10
10
10
10
10
10
10
10
10
10
10
10
10
10
10
10
10
10
10
10
10
10
10
10
10
10
10
10
10
10
10
10
10
10
10
10
10
10
10
10
10
10
10
10
10
10
10
10
10
10
10
10
10
10
10
10
10
10
10
10
10
10
10
10
10
10
10
10
10
10
10
10
10
10
10
10
10
10
10
10
10
10
10
10
10
10
10
10
10
10
10
10
10
10
10
10
10
10
10
10
10
10
10
10
10
10
10
10
10
10
10
10
10
10
10
10
10
10
10
10
10
10
10
10
10
10
10
10
10
10
10
10
10
10
10
10
10
10
10
10
10
10
10
10
10
10
10
10
10
10
10
10
10
10
10
10
10
10
10
10
10
10
10
10
10
10
10
10
10
10
10
10
10
10
10
10
10
10
10
10
10
10
10
10
10
10
10
10
10
10
10
10
10
10
10
10
10
10
10
10
10
10
10
10
10
10
10
10
10
10
10
10
10
10
10
10
10
10
10
10
10
10
10
10
10
10
10
10
10
10
10
10
10
10
10
10
10
10
10
10
10
10
10
10
10
10
10
10
10
10
10
10
10
10
10
10
10
10
10
10
10
10
10
10
10
10
10
10
10
10
10
10
10
10
10
10
10
10
10
10
10
10
10
10
10
10
10
10
10
10
10
10
10
10
10
10
10
10
10
10
10
10
10
10
10
10
10
10
10
10
10
10
10
10
10
10
10
10
10
10
10
10
10
10
10
10
10
10
10
10
10
10
10
10
10
10
10
10
10
10
10
10
10
10
10
10
10
10
10
10
10
10
10
10
10
10
10
10
10
10
10
10
10
10
10
10
10
10
10
10
10
10
10
10
10
10
10
10
10
10
10
10
10
10
10
10
10
10
10
10
10
10
10
10
10
10
10
10
10
10
10
10
10
10
10
10
10
10
10
10
10
10
10
10
10
10
10
10
10
10
10
10
10
10
10
10
10
10
10
10
10
10
10
10
10
10
10
10
10
10
10
10
10
10
10
10
10
10
10
10
10
10
10
10
10
10
10
10
10
10
10
10
10
10
10
10
10
10
10
10
10
10
10
10
10
10
10
10
10
10
10
10
10
10
10
10
10
10
10
10
10
10
10
10
10
10
10
10
10
10
10
10
10
10
10
10
10
10
10
10
10
10
10
10
10
10
10
10
10
10
10
10
10
10
10
10
10
10
10
10
10
10
10
10
10
10
10
10
10
10
10
10
10
10
10
10
10
10
10
10
10
10
10
10
10
10
10
10
10
10
10
10
10
10
10
10
10
10
10
10
10
10
10
10
10
10
10
10
10
10
10
10
10
10
10
10
10
10
10
10
10
10
10
10
10
10
10
10
10
10
10
10
10
10
10
10
10
10
10
10
10
10
10
10
10
10
10
10
10
10
10
10
10
10
10
10
10
10
10
10
10
10
10
10
10
10
10
10
10
10
10
10
10
10
10
10
10
10
10
10
10
10
10
10
10
10
10
10
10
10
10
10
10
10
10
10
10
10
10
10
10
10
10
10
10
10
10
10
10
10
10
10
10
10
10
10
10
10
10
10
10
10
10
10
10
10
10
10
10
10
10
10
10
10
10
10
10
10
10
10
10
10
10
10
10
10
10
10
10
10
10
10
10
10
10
10
10
10
10
10
10
10
10
10
10
10
10
10
10
10
10
10
10
10
10
10
10
10
10
10
10
10
10
10
10
10
10
10
10
10
10
10
10
10
10
10
10
10
10
10
10
10
10
10
10
10
10
10
10
10
10
10
10
10
10
10
10
10
10
10
10
10
10
10
10
10
10
10
10
10
10
10
10
10
10
10
10
10
10
10
10
10
10
10
10
10
10
10
10
10
10
10
10
10
10
10
10
10
10
10
10
10
10
10
10
10
10
10
10
10
10
10
10
10
10
10
10
10
10
10
10
10
10
10
10
10
10
10
10
10
10
10
10
10
10
10
10
10
10
10
10
10
10
10
10
10
10
10
10
10
10
10
10
10
10
10
10
10
10
10
10
10
10
10
10
10
10
10
10
10
10
10
10
10
10
10
10
10
10
10
10
10
10
10
10
10
10
10
10
10
10
10
10
10
10
10
10
10
10
10
10
10
10
10
10
10
10
10
10
10
10
10
10
10
10
10
10
10
10
10
10
10
10
10
10
10
10
10
10
10
10
10
10
10
10
10
10
10
10
10
10
10
10
10
10
10
10
10
10
10
10
10
10
10
10
10
10
10
10
10
10
10
10
10
10
10
10
10
10
10
10
10
10
10
10
10
10
10
10
10
10
10
10
10
10
10
10
10
10
10
10
10
10
10
10
10
10
10
10
10
10
10
10
10
10
10
10
10
10
10
10
10
10
10
10
10
10
10
10
10
10
10
10
10
10
10
10
10
10
10
10
10
10
10
10
10
10
10
10
10
10
10
10
10
10
10
10
10
10
10
10
10
10
10
10
10
10
10
10
10
10
10
10
10
10
10
10
10
10
10
10
10
10
10
10
10
10
10
10
10
10
10
10
10
10
10
10
10
10
10
10
10
10
10
10
10
10
10
10
10
10
10
10
10
10
10
10
10
10
10
10
10
10
10
10
10
10
10
10
10
10
10
10
10
10
10
10
10
10
10
10
10
10
10
10
10
10
10
10
10
10
10
10
10
10
10
10
10
10
10
10
10
10
10
10
10
10
10
10
10
10
10
10
10
10
10
10
10
10
10
10
10
10
10
10
10
10
10
10
10
10
10
10
10
10
10
10
10
10
10
10
10
10
10
10
10
10
10
10
10
10
10
10
10
10
10
10
10
10
10
10
10
10
10
10
10
10
10
10
10
10
10
10
10
10
10
10
10
10
10
10
10
10
10
10
10
10
10
10
10
10
10
10
10
10
10
10
10
10
10
10
10
10
10
10
10
10
10
10
10
10
10
10
10
10
10
10
10
10
10
10
10
10
10
10
10
10
10
10
10
10
10
10
10
10
10
10
10
10
10
10
10
10
10
10
10
10
10
10
10
10
10
10
10
10
10
10
10
10
10
10
10
10
10
10
10
10
10
10
10
10
10
10
10
10
10
10
10
10
10
10
10
10
10
10
10
10
10
10
10
10
10
10
10
10
10
10
10
10
10
10
10
10
10
10
10
10
10
10
10
10
10
10
10
10
10
10
10
10
10
10
10
10
10
10
10
10
10
10
10
10
10
10
10
10
10
10
10
10
10
10
10
10
10
10
10
10
10
10
10
10
10
10
10
10
10
10
10
10
10
10
10
10
10
10
10
10
10
10
10
10
10
10
10
10
10
10
10
10
10
10
10
10
10
10
10
10
10
10
10
10
10
10
10
10
10
10
10
10
10
10
10
10
10
10
10
10
10
10
10
10
10
10
10
10
10
10
10
10
10
10
10
10
10
10
10
10
10
10
10
10
10
10
10
10
10
10
10
10
10
10
10
10
10
10
10
10
10
10
10
10
10
10
10
10
10
10
10
10
10
10
10
10
10
10
10
10
10
10
10
10
10
10
10
10
10
10
10
10
10
10
10
10
10
10
10
10
10
10
10
10
10
10
10
10
10
10
10
10
10
10
10
10
10
10
10
10
10
10
10
10
10
10
10
10
10
10
10
10
10
10
10
10
10
10
10
10
10
10
10
10
10
10
10
10
10
10
10
10
10
10
10
10
10
10
10
10
10
10
10
10
10
10
10
10
10
10
10
10
10
10
10
10
10
10
10
10
10
10
10
10
10
10
10
10
10
10
10
10
10
10
10
10
10
10
10
10
10
10
10
10
10
10
10
10
10
10
10
10
10
10
10
10
10
10
10
10
10
10
10
10
10
10
10
10
10
10
10
10
10
10
10
10
10
10
10
10
10
10
10
10
10
10
10
10
10
10
10
10
10
10
10
10
10
10
10
10
10
10
10
10
10
10
10
10
10
10
10
10
10
10
10
10
10
10
10
10
10
10
10
10
10
10
10
10
10
10
10
10
10
10
10
10
10
10
10
10
10
10
10
10
10
10
10
10
10
10
10
10
10
10
10
10
10
10
10
10
10
10
10
10
10
10
10
10
10
10
10
10
10
10
10
10
10
10
10
10
10
10
10
10
10
10
10
10
10
10
10
10
10
10
10
10
10
10
10
10
10
10
10
10
10
10
10
10
10
10
10
10
10
10
10
10
10
10
10
10
10
10
10
10
10
10
10
10
10
10
10
10
10
10
10
10
10
10
10
10
10
10
10
10
10
10
10
10
10
10
10
10
10
10
10
10
10
10
10
10
10
10
10
10
10
10
10
10
10
10
10
10
10
10
10
10
10
10
10
10
10
10
10
10
10
10
10
10
10
10
10
10
10
10
10
10
10
10
10
10
10
10
10
10
10
10
10
10
10
10
10
10
10
10
10
10
10
10
10
10
10
10
10
10
10
10
10
10
10
10
10
10
10
10
10
10
10
10
10
10
10
10
10
10
10
10
10
10
10
10
10
10
10
10
10
10
10
10
10
10
10
10
10
10
10
10
10
10
10
10
10
10
10
10
10
10
10
10
10
10
10
10
10
10
10
10
10
10
10
10
10
10
10
10
10
10
10
10
10
10
10
10
10
10
10
10
10
10
10
10
10
10
10
10
10
10
10
10
10
10
10
10
10
10
10
10
10
10
10
10
10
10
10
10
10
10
10
10
10
10
10
10
10
10
10
10
10
10
10
10
10
10
10
10
10
10
10
10
10
10
10
10
10
10
10
10
10
10
10
10
10
10
10
10
10
10
10
10
10
10
10
10
10
10
10
10
10
10
10
10
10
10
10
10
10
10
10
10
10
10
10
10
10
10
10
10
10
10
10
10
10
10
10
10
10
10
10
10
10
10
10
10
10
10
10
10
10
10
10
10
10
10
10
10
10
10
10
10
10
10
10
10
10
10
10
10
10
10
10
10
10
10
10
10
10
10
10
10
10
10
10
10
10
10
10
10
10
10
10
10
10
10
10
10
10
10
10
10
10
10
10
10
10
10
10
10
10
10
10
10
10
10
10
10
10
10
10
10
10
10
10
10
10
10
10
10
10
10
10
10
10
10
10
10
10
10
10
10
10
10
10
10
10
10
10
10
10
10
10
10
10
10
10
10
10
10
10
10
10
10
10
10
10
10
10
10
10
10
10
10
10
10
10
10
10
10
10
10
10
10
10
10
10
10
10
10
10
10
10
10
10
10
10
10
10
10
10
10
10
10
10
10
10
10
10
10
10
10
10
10
10
10
10
10
10
10
10
10
10
10
10
10
10
10
10
10
10
10
10
10
10
10
10
10
10
10
10
10
10
10
10
10
10
10
10
10
10
10
10
10
10
10
10
10
10
10
10
10
10
10
10
10
10
10
10
10
10
10
10
10
10
10
10
10
10
10
10
10
10
10
10
10
10
10
10
10
10
10
10
10
10
10
10
10
10
10
10
10
10
10
10
10
10
10
10
10
10
10
10
10
10
10
10
10
10
10
10
10
10
10
10
10
10
10
10
10
10
10
10
10
10
10
10
10
10
10
10
10
10
10
10
10
10
10
10
10
10
10
10
10
10
10
10
10
10
10
10
10
10
10
10
10
10
10
10
10
10
10
10
10
10
10
10
10
10
10
10
10
10
10
10
10
10
10
10
10
10
10
10
10
10
10
10
10
10
10
10
10
10
10
10
10
10
10
10
10
10
10
10
10
10
10
10
10
10
10
10
10
10
10
10
10
10
10
10
10
10
10
10
10
10
10
10
10
10
10
10
10
10
10
10
10
10
10
10
10
10
10
10
10
10
10
10
10
10
10
10
10
10
10
10
10
10
10
10
10
10
10
10
10
10
10
10
10
10
10
10
10
10
10
10
10
10
10
10
10
10
10
10
10
10
10
10
10
10
10
10
10
10
10
10
10
10
10
10
10
10
10
10
10
10
10
10
10
10
10
10
10
10
10
10
10
10
10
10
10
10
10
10
10
10
10
10
10
10
10
10
10
10
10
10
10
10
10
10
10
10
10
10
10
10
10
10
10
10
10
10
10
10
10
10
10
10
10
10
10
10
10
10
10
10
10
10
10
10
10
10
10
10
10
10
10
10
10
10
10
10
10
10
10
10
10
10
10
10
10
10
10
10
10
10
10
10
10
10
10
10
10
10
10
10
10
10
10
10
10
10
10
10
10
10
10
10
10
10
10
10
10
10
10
10
10
10
10
10
10
10
10
10
10
10
10
10
10
10
10
10
10
10
10
10
10
10
10
10
10
10
10
10
10
10
10
10
10
10
10
10
10
10
10
10
10
10
10
10
10
10
10
10
10
10
10
10
10
10
10
10
10
10
10
10
10
10
10
10
10
10
10
10
10
10
10
10
10
10
10
10
10
10
10
10
10
10
10
10
10
10
10
10
10
10
10
10
10
10
10
10
10
10
10
10
10
10
10
10
10
10
10
10
10
10
10
10
10
10
10
10
10
10
10
10
10
10
10
10
10
10
10
10
10
10
10
10
10
10
10
10
10
10
10
10
10
10
10
10
10
10
10
10
10
10
10
10
10
10
10
10
10
10
10
10
10
10
10
10
10
10
10
10
10
10
10
10
10
10
10
10
10
10
10
10
10
10
10
10
10
10
10
10
10
10
10
10
10
10
10
10
10
10
10
10
10
10
10
10
10
10
10
10
10
10
10
10
10
10
10
10
10
10
10
10
10
10
10
10
10
10
10
10
10
10
10
10
10
10
10
10
10
10
10
10
10
10
10
10
10
10
10
10
10
10
10
10
10
10
10
10
10
10
10
10
10
10
10
10
10
10
10
10
10
10
10
10
10
10
10
10
10
10
10
10
10
10
10
10
10
10
10
10
10
10
10
10
10
10
10
10
10
10
10
10
10
10
10
10
10
10
10
10
10
10
10
10
10
10
10
10
10
10
10
10
10
10
10
10
10
10
10
10
10
10
10
10
10
10
10
10
10
10
10
10
10
10
10
10
10
10
10
10
10
10
10
10
10
10
10
10
10
10
10
10
10
10
10
10
10
10
10
10
10
10
10
10
10
10
10
10
10
10
10
10
10
10
10
10
10
10
10
10
10
10
10
10
10
10
10
10
10
10
10
10
10
10
10
10
10
10
10
10
10
10
10
10
10
10
10
10
10
10
10
10
10
10
10
10
10
10
10
10
10
10
10
10
10
10
10
10
10
10
10
10
10
10
10
10
10
10
10
10
10
10
10
10
10
10
10
10
10
10
10
10
10
10
10
10
10
10
10
10
10
10
10
10
10
10
10
10
10
10
10
10
10
10
10
10
10
10
10
10
10
10
10
10
10
10
10
10
10
10
10
10
10
10
10
10
10
10
10
10
10
10
10
10
10
10
10
10
10
10
10
10
10
10
10
10
10
10
10
10
10
10
10
10
10
10
10
10
10
10
10
10
10
10
10
10
10
10
10
10
10
10
10
10
10
10
10
10
10
10
10
10
10
10
10
10
10
10
10
10
10
10
10
10
10
10
10
10
10
10
10
10
10
10
10
10
10
10
10
10
10
10
10
10
10
10
10
10
10
10
10
10
10
10
10
10
10
10
10
10
10
10
10
10
10
10
10
10
10
10
10
10
10
10
10
10
10
10
10
10
10
10
10
10
10
10
10
10
10
10
10
10
10
10
10
10
10
10
10
10
10
10
10
10
10
10
10
10
10
10
10
10
10
10
10
10
10
10
10
10
10
10
10
10
10
10
10
10
10
10
10
10
10
10
10
10
10
10
10
10
10
10
10
10
10
10
POINT_DATA 4496
FIELD FieldData 5
DISPLACEMENT 3 4496  float
5.0797067e-03 5.5006347e-03 -7.3258110e-05 
5.0578676e-03 5.4701217e-03 -7.3251154e-05 
5.0900737e-03 5.5238460e-03 -8.0782200e-05 
5.1046894e-03 5.5109472e-03 -5.2072795e-05 
5.0685750e-03 5.4625771e-03 -5.3859811e-05 
5.0564939e-03 5.4770866e-03 -8.0908794e-05 
5.0358814e-03 5.4394035e-03 -7.3243384e-05 
5.1034219e-03 5.5458085e-03 -8.3642975e-05 
5.1253955e-03 5.5301446e-03 -4.3694705e-05 
5.0813984e-03 5.5155875e-03 -8.4108578e-05 
5.1035653e-03 5.4993290e-03 -4.3413427e-05 
5.0465888e-03 5.4317513e-03 -5.3758060e-05 
5.0343703e-03 5.4465164e-03 -8.1198821e-05 
5.0589694e-03 5.4848003e-03 -8.4580824e-05 
5.1173843e-03 5.5646454e-03 -8.3073188e-05 
5.0813397e-03 5.4679625e-03 -4.3130342e-05 
5.0137467e-03 5.4084766e-03 -7.3234231e-05 
5.1402496e-03 5.5489647e-03 -4.2034935e-05 
5.0597019e-03 5.4514403e-03 -5.4942422e-05 
5.0949804e-03 5.5327560e-03 -8.2560706e-05 
5.1173591e-03 5.5169174e-03 -4.1967043e-05 
5.0121020e-03 5.4157376e-03 -8.1480764e-05 
5.0244536e-03 5.4007196e-03 -5.3656742e-05 
5.0361226e-03 5.4534366e-03 -8.5060085e-05 
5.0587086e-03 5.4360246e-03 -4.2841897e-05 
5.1353276e-03 5.5834483e-03 -7.7680728e-05 
5.0621480e-03 5.4885675e-03 -8.4009509e-05 
4.9914750e-03 5.3773397e-03 -7.3220814e-05 
5.1543317e-03 5.5712727e-03 -4.4309982e-05 
5.0853333e-03 5.4714000e-03 -4.1281841e-05 
5.0128493e-03 5.4214783e-03 -8.5543863e-05 
4.9896860e-03 5.3847469e-03 -8.1767190e-05 
5.0021778e-03 5.3694849e-03 -5.3556607e-05 
5.0944723e-03 5.5252938e-03 -7.6753371e-05 
5.0356574e-03 5.4035033e-03 -4.2552001e-05 
5.0393273e-03 5.4571615e-03 -8.4424217e-05 
5.1125302e-03 5.5129305e-03 -4.4336393e-05 
5.1230039e-03 5.5611096e-03 -7.3265634e-05 
5.0627263e-03 5.4394850e-03 -4.0977757e-05 
5.1382408e-03 5.5515040e-03 -4.6635887e-05 
4.9690469e-03 5.3460067e-03 -7.3208714e-05 
5.1557599e-03 5.6044795e-03 -7.1207913e-05 
5.0701764e-03 5.4932735e-03 -7.8413192e-05 
5.0901086e-03 5.4806564e-03 -4.3503107e-05 
5.1686740e-03 5.5970470e-03 -4.9257596e-05 
4.9891323e-03 5.3889039e-03 -8.6032109e-05 
5.0160782e-03 5.4251561e-03 -8.4840001e-05 
4.9671223e-03 5.3535528e-03 -8.2047940e-05 
4.9797511e-03 5.3380383e-03 -5.3442644e-05 
5.0121853e-03 5.3703822e-03 -4.2258267e-05 
5.0397059e-03 5.4069841e-03 -4.0668510e-05 
5.1446692e-03 5.5865850e-03 -6.9139038e-05 
5.0495788e-03 5.4629687e-03 -7.7102908e-05 
5.1539508e-03 5.5813752e-03 -5.3465381e-05 
4.9464772e-03 5.3144493e-03 -7.3189127e-05 
5.0678006e-03 5.4499637e-03 -4.3892920e-05 
5.1051918e-03 5.5325879e-03 -7.0138769e-05 
5.1160324e-03 5.5258730e-03 -5.1263873e-05 
5.1775798e-03 5.6311255e-03 -6.7903151e-05 
5.1841172e-03 5.6279553e-03 -5.7294015e-05 
4.9923914e-03 5.3925351e-03 -8.5259919e-05 
5.0251610e-03 5.4307966e-03 -7.8781166e-05 
4.9649654e-03 5.3557064e-03 -8.6526648e-05 
4.9444032e-03 5.3221416e-03 -8.2332917e-05 
4.9571791e-03 5.3063855e-03 -5.3333941e-05 
5.0162575e-03 5.3738877e-03 -4.0363015e-05 
5.0445632e-03 5.4165148e-03 -4.3028787e-05 
4.9882652e-03 5.3366432e-03 -4.1964937e-05 
4.9237506e-03 5.2826907e-03 -7.3172785e-05 
5.0643743e-03 5.4755327e-03 -7.0126538e-05 
5.0750170e-03 5.4686838e-03 -5.1335075e-05 
4.9682534e-03 5.3592874e-03 -8.5673128e-05 
4.9923635e-03 5.3401696e-03 -4.0049548e-05 
4.9215415e-03 5.2905302e-03 -8.2608967e-05 
4.9344627e-03 5.2745268e-03 -5.3222990e-05 
5.0029997e-03 5.3982530e-03 -7.7425429e-05 
4.9403338e-03 5.3218580e-03 -8.7020839e-05 
5.0214049e-03 5.3846762e-03 -4.3454580e-05 
4.9638944e-03 5.3022709e-03 -4.1668791e-05 
5.1973304e-03 5.6656171e-03 -7.3846648e-05 
4.9008741e-03 5.2507133e-03 -7.3158102e-05 
5.1582893e-03 5.6111440e-03 -7.3912917e-05 
4.9776696e-03 5.3648627e-03 -7.9155892e-05 
4.9973084e-03 5.3499886e-03 -4.2553405e-05 
4.9436563e-03 5.3253882e-03 -8.6088410e-05 
4.9095233e-03 5.2412343e-03 -5.4548549e-05 
4.8985099e-03 5.2586850e-03 -8.2894592e-05 
4.9680285e-03 5.3058276e-03 -3.9740444e-05 
4.9152276e-03 5.2873576e-03 -8.7516921e-05 
4.9390728e-03 5.2672615e-03 -4.1360665e-05 
5.1190509e-03 5.5563957e-03 -7.3976575e-05 
5.0182049e-03 5.4110624e-03 -7.0160073e-05 
4.8778383e-03 5.2185333e-03 -7.3142844e-05 
5.0257081e-03 5.3998460e-03 -5.1344057e-05 
4.9546394e-03 5.3310064e-03 -7.7717777e-05 
4.9185851e-03 5.2908282e-03 -8.6496657e-05 
4.8753559e-03 5.2266470e-03 -8.3161263e-05 
4.8885597e-03 5.2101538e-03 -5.2987099e-05 
4.9732453e-03 5.3169415e-03 -4.3023199e-05 
4.9432162e-03 5.2708322e-03 -3.9422415e-05 
4.8896321e-03 5.2521657e-03 -8.8011162e-05 
5.0796163e-03 5.5013327e-03 -7.4036936e-05 
4.9137603e-03 5.2315765e-03 -4.1062569e-05 
4.8546782e-03 5.1861252e-03 -7.3111703e-05 
4.9283514e-03 5.2963323e-03 -7.9496793e-05 
4.9482458e-03 5.2809538e-03 -4.2087056e-05 
4.8520388e-03 5.1943883e-03 -8.3441642e-05 
4.8654005e-03 5.1776660e-03 -5.2875104e-05 
4.8930277e-03 5.2555809e-03 -8.6904241e-05 
4.9179443e-03 5.2351840e-03 -3.9115967e-05 
4.9690437e-03 5.3424002e-03 -7.0197253e-05 
4.8635299e-03 5.2162698e-03 -8.8503133e-05 
4.9791280e-03 5.3346218e-03 -5.1193059e-05 
4.8879795e-03 5.1952358e-03 -4.0767638e-05 
5.0400035e-03 5.4460312e-03 -7.4118114e-05 
4.8313448e-03 5.1535433e-03 -7.3085219e-05 
4.8470697e-03 5.1498031e-03 -5.0888655e-05 
4.8285839e-03 5.1619480e-03 -8.3696083e-05 
4.9044052e-03 5.2611069e-03 -7.7972276e-05 
4.9232300e-03 5.2466495e-03 -4.2613530e-05 
4.8669614e-03 5.2196449e-03 -8.7306093e-05 
4.8921681e-03 5.1988554e-03 -3.8795632e-05 
4.8369346e-03 5.1796958e-03 -8.8992907e-05 
4.8078806e-03 5.1207463e-03 -7.3047551e-05 
4.8616841e-03 5.1581650e-03 -4.0462379e-05 
5.0002025e-03 5.3904550e-03 -7.4178002e-05 
4.8771109e-03 5.2250894e-03 -7.9798185e-05 
4.8239008e-03 5.1164711e-03 -5.0023806e-05 
4.8049856e-03 5.1292866e-03 -8.3933970e-05 
4.8972801e-03 5.2093044e-03 -4.1637752e-05 
4.9204780e-03 5.2744816e-03 -7.0144582e-05 
4.8404122e-03 5.1829950e-03 -8.7712302e-05 
4.9307719e-03 5.2674008e-03 -5.1445924e-05 
4.8659095e-03 5.1618414e-03 -3.8512371e-05 
4.7842809e-03 5.0877347e-03 -7.2987721e-05 
4.8097963e-03 5.1423809e-03 -8.9495232e-05 
4.8348797e-03 5.1204213e-03 -4.0166735e-05 
4.7812196e-03 5.0964272e-03 -8.4191182e-05 
4.7989185e-03 5.0813337e-03 -4.9778759e-05 
4.9602813e-03 5.3347289e-03 -7.4230615e-05 
4.8522102e-03 5.1884288e-03 -7.8172372e-05 
4.8712734e-03 5.1736846e-03 -4.2218107e-05 
4.8133316e-03 5.1456243e-03 -8.8081797e-05 
4.7605159e-03 5.0545516e-03 -7.2944240e-05 
4.8391265e-03 5.1241205e-03 -3.8206057e-05 
4.7821314e-03 5.1043276e-03 -8.9976231e-05 
4.8075551e-03 5.0819591e-03 -3.9869396e-05 
4.7573312e-03 5.0633834e-03 -8.4430554e-05 
4.7727670e-03 5.0455020e-03 -5.0339320e-05 
4.8238635e-03 5.1509887e-03 -8.0037673e-05 
4.8443540e-03 5.1349299e-03 -4.1199470e-05 
4.7366228e-03 5.0211907e-03 -7.2893628e-05 
4.8610144e-03 5.1915869e-03 -7.0297305e-05 
4.7857254e-03 5.1075220e-03 -8.8441935e-05 
4.8715910e-03 5.1842355e-03 -5.0987193e-05 
4.8118308e-03 5.0857053e-03 -3.7909260e-05 
4.9201809e-03 5.2787350e-03 -7.4266638e-05 
4.7539198e-03 5.0655217e-03 -9.0453570e-05 
4.7796890e-03 5.0427616e-03 -3.9574803e-05 
4.7333213e-03 5.0301743e-03 -8.4652325e-05 
4.7474178e-03 5.0123087e-03 -5.2207750e-05 
4.7979830e-03 5.1128855e-03 -7.8318313e-05 
4.7125909e-03 4.9876203e-03 -7.2849361e-05 
4.8173056e-03 5.0979680e-03 -4.1876156e-05 
4.7575808e-03 5.0686719e-03 -8.8794368e-05 
4.7840327e-03 5.0465609e-03 -3.7597994e-05 
4.7091134e-03 4.9967100e-03 -8.4911968e-05 
4.7212145e-03 4.9771089e-03 -5.3353171e-05 
4.7251466e-03 5.0259475e-03 -9.0923066e-05 
4.8799571e-03 5.2225576e-03 -7.4307369e-05 
4.7513195e-03 5.0028525e-03 -3.9258302e-05 
4.7685541e-03 5.0740023e-03 -8.0214857e-05 
4.6883547e-03 4.9538328e-03 -7.2815259e-05 
4.7893748e-03 5.0577642e-03 -4.0806201e-05 
4.7180424e-03 4.9935388e-03 -7.1390517e-05 
4.8093176e-03 5.1194527e-03 -7.0341237e-05 
4.8200232e-03 5.1120999e-03 -5.0861643e-05 
4.7288933e-03 5.0290781e-03 -8.9142355e-05 
4.7556870e-03 5.0066966e-03 -3.7288133e-05 
4.6847542e-03 4.9630459e-03 -8.5146479e-05 
4.6991389e-03 4.9447245e-03 -5.1946383e-05 
4.6957978e-03 4.9856193e-03 -9.1400296e-05 
4.7223945e-03 4.9621332e-03 -3.8940707e-05 
4.6639894e-03 4.9198275e-03 -7.2749172e-05 
4.8396713e-03 5.1663262e-03 -7.4356336e-05 
4.7416328e-03 5.0343713e-03 -7.8404591e-05 
4.7612395e-03 5.0194045e-03 -4.1566138e-05 
4.6796626e-03 4.9150074e-03 -4.9705242e-05 
4.6602911e-03 4.9292198e-03 -8.5344014e-05 
4.6996125e-03 4.9886559e-03 -8.9481829e-05 
4.7267657e-03 4.9660336e-03 -3.6971385e-05 
4.6395035e-03 4.8856246e-03 -7.2655690e-05 
4.6658656e-03 4.9444423e-03 -9.1867703e-05 
4.6928539e-03 4.9206316e-03 -3.8652292e-05 
4.7110505e-03 4.9939631e-03 -8.0322643e-05 
4.7591762e-03 5.0489809e-03 -6.9893060e-05 
4.7322023e-03 4.9776491e-03 -4.0445451e-05 
4.7691790e-03 5.0426684e-03 -5.2185602e-05 
4.6356479e-03 4.8951842e-03 -8.5562882e-05 
4.6503660e-03 4.8764176e-03 -5.1620824e-05 
4.7993935e-03 5.1101558e-03 -7.4394899e-05 
4.6697562e-03 4.9474258e-03 -8.9804467e-05 
4.6972949e-03 4.9246191e-03 -3.6702088e-05 
4.6148743e-03 4.8512919e-03 -7.2575225e-05 
4.6353173e-03 4.9024522e-03 -9.2299320e-05 
4.6627391e-03 4.8783626e-03 -3.8378417e-05 
4.6109054e-03 4.8609823e-03 -8.5746571e-05 
4.6257600e-03 4.8420350e-03 -5.1492152e-05 
4.6830340e-03 4.9527148e-03 -7.8399535e-05 
4.7029657e-03 4.9378676e-03 -4.1273830e-05 
4.5900852e-03 4.8168139e-03 -7.2514071e-05 
4.6393019e-03 4.9053985e-03 -9.0087742e-05 
4.6672323e-03 4.8824139e-03 -3.6393503e-05 
4.7589811e-03 5.0537623e-03 -7.4385374e-05 
4.6041626e-03 4.8596496e-03 -9.2716022e-05 
4.5860070e-03 4.8266444e-03 -8.5933265e-05 
4.6009840e-03 4.8074443e-03 -5.1315321e-05 
4.6320409e-03 4.8352736e-03 -3.8041417e-05 
4.7011389e-03 4.9679107e-03 -6.9737362e-05 
4.6512568e-03 4.9106963e-03 -8.0357408e-05 
4.7110794e-03 4.9621342e-03 -5.2572406e-05 
4.6728267e-03 4.8945099e-03 -4.0093237e-05 
4.5651807e-03 4.7820685e-03 -7.2432245e-05 
4.6082656e-03 4.8625306e-03 -9.0385751e-05 
4.6365438e-03 4.8393947e-03 -3.6094301e-05 
4.5609563e-03 4.7920300e-03 -8.6136723e-05 
4.5761219e-03 4.7726510e-03 -5.1170508e-05 
4.5723836e-03 4.8159538e-03 -9.3157483e-05 
4.6007168e-03 4.7913757e-03 -3.7750568e-05 
4.7185342e-03 4.9973712e-03 -7.4398966e-05 
4.5400965e-03 4.7471887e-03 -7.2358969e-05 
4.6221069e-03 4.8677954e-03 -7.8328951e-05 
4.6423366e-03 4.8531592e-03 -4.1048224e-05 
4.5357645e-03 4.7572879e-03 -8.6333464e-05 
4.5510638e-03 4.7376780e-03 -5.0996459e-05 
4.5765564e-03 4.8187594e-03 -9.0634698e-05 
4.6052854e-03 4.7955695e-03 -3.5820613e-05 
4.5149056e-03 4.7120843e-03 -7.2252325e-05 
4.5399652e-03 4.7713970e-03 -9.3532115e-05 
4.5687342e-03 4.7466154e-03 -3.7432470e-05 
4.6407701e-03 4.8836297e-03 -6.9574213e-05 
4.6506771e-03 4.8785107e-03 -5.3018273e-05 
4.5907041e-03 4.8240297e-03 -7.8200501e-05 
4.6781125e-03 4.9410509e-03 -7.4413103e-05 
4.5104632e-03 4.7223391e-03 -8.6467779e-05 
4.5259153e-03 4.7025783e-03 -5.0875638e-05 
4.6110926e-03 4.8096390e-03 -4.0926268e-05 
4.5442646e-03 4.7741635e-03 -9.0862661e-05 
4.5733573e-03 4.7508874e-03 -3.5544919e-05 
4.4895518e-03 4.6769045e-03 -7.2167451e-05 
4.5068366e-03 4.7259303e-03 -9.3924304e-05 
4.5361887e-03 4.7010239e-03 -3.7133479e-05 
4.4850269e-03 4.6873386e-03 -8.6599699e-05 
4.5005884e-03 4.6673096e-03 -5.0693881e-05 
4.5587048e-03 4.7794231e-03 -7.8094141e-05 
4.5153894e-03 4.6936655e-03 -5.5772231e-05 
4.5792693e-03 4.7653038e-03 -4.0869534e-05 
4.4640913e-03 4.6414980e-03 -7.2038172e-05 
4.6375422e-03 4.8844530e-03 -7.4385345e-05 
4.5886836e-03 4.8114052e-03 -6.9802452e-05 
4.5113023e-03 4.7286805e-03 -9.0995840e-05 
4.5990683e-03 4.8050927e-03 -5.1623188e-05 
4.5408406e-03 4.7054417e-03 -3.5268044e-05 
4.4594277e-03 4.6520517e-03 -8.6691012e-05 
4.4751456e-03 4.6318797e-03 -5.0525930e-05 
4.4731796e-03 4.6796682e-03 -9.4187613e-05 
4.5029302e-03 4.6546254e-03 -3.6916168e-05 
4.4384957e-03 4.6060123e-03 -7.1951734e-05 
4.5260931e-03 4.7339792e-03 -7.7984099e-05 
4.5468090e-03 4.7201510e-03 -4.0787210e-05 
4.4777286e-03 4.6823467e-03 -9.1176655e-05 
4.4337688e-03 4.6166745e-03 -8.6816181e-05 
4.4496213e-03 4.5963167e-03 -5.0346891e-05 
4.5076511e-03 4.6591316e-03 -3.4967914e-05 
4.5969188e-03 4.8280363e-03 -7.4427480e-05 
4.4387570e-03 4.6324581e-03 -9.4559560e-05 
4.4127805e-03 4.5703300e-03 -7.1828916e-05 
4.5603006e-03 4.7554597e-03 -5.5368459e-05 
4.5529180e-03 4.7605666e-03 -6.8819645e-05 
4.4690454e-03 4.6073548e-03 -3.6568741e-05 
4.4928300e-03 4.6876776e-03 -7.7800578e-05 
4.5136693e-03 4.6741208e-03 -4.0759776e-05 
4.4079269e-03 4.5811241e-03 -8.6950175e-05 
4.4239131e-03 4.5605861e-03 -5.0166498e-05 
4.4434443e-03 4.6350672e-03 -9.1332178e-05 
4.4738357e-03 4.6119406e-03 -3.4699038e-05 
4.3868725e-03 4.5344578e-03 -7.1694638e-05 
4.5563639e-03 4.7716000e-03 -7.4356147e-05 
4.4035777e-03 4.5842640e-03 -9.4912386e-05 
4.4344608e-03 4.5591393e-03 -3.6221751e-05 
4.3819030e-03 4.5454144e-03 -8.7059307e-05 
4.3979986e-03 4.5246677e-03 -5.0004241e-05 
4.5198514e-03 4.6992619e-03 -5.5322977e-05 
4.5125075e-03 4.7044414e-03 -6.8776375e-05 
4.4581075e-03 4.6395054e-03 -7.7653160e-05 
4.4787936e-03 4.6256585e-03 -4.0617630e-05 
4.4012889e-03 4.5446898e-03 -6.3335072e-05 
4.3608798e-03 4.4984869e-03 -7.1532726e-05 
4.4083088e-03 4.5868638e-03 -9.1591217e-05 
4.4392324e-03 4.5637037e-03 -3.4419125e-05 
4.3558571e-03 4.5094066e-03 -8.6912238e-05 
4.3719425e-03 4.4887960e-03 -5.0064245e-05 
4.3683653e-03 4.5360113e-03 -9.5088588e-05 
4.5158817e-03 4.7153560e-03 -7.4272859e-05 
4.4000978e-03 4.5114146e-03 -3.5987036e-05 
4.3351855e-03 4.4630696e-03 -7.1432252e-05 
4.4214628e-03 4.5894459e-03 -7.8152836e-05 
4.4434955e-03 4.5760870e-03 -4.0000141e-05 
4.4796579e-03 4.6435511e-03 -5.5291002e-05 
4.4723698e-03 4.6487581e-03 -6.8682552e-05 
4.3665404e-03 4.4968440e-03 -6.3383144e-05 
4.3301876e-03 4.4739814e-03 -8.6737149e-05 
4.3729260e-03 4.5385938e-03 -9.2001988e-05 
4.3461719e-03 4.4533350e-03 -5.0074170e-05 
4.4049062e-03 4.5159208e-03 -3.4087894e-05 
4.3098554e-03 4.4280142e-03 -7.1247319e-05 
4.3340358e-03 4.4889986e-03 -9.5261414e-05 
4.3664956e-03 4.4648508e-03 -3.5764286e-05 
4.4756113e-03 4.6594567e-03 -7.4204712e-05 
4.3858248e-03 4.5411894e-03 -7.8933146e-05 
4.4092336e-03 4.5280214e-03 -3.9395822e-05 
4.3047196e-03 4.4388701e-03 -8.6639637e-05 
4.3206913e-03 4.4183475e-03 -5.0097660e-05 
4.4219550e-03 4.5800665e-03 -6.9528563e-05 
4.4329511e-03 4.5743259e-03 -5.1211595e-05 
4.3384121e-03 4.4915741e-03 -9.2398965e-05 
4.3712920e-03 4.4691446e-03 -3.3746768e-05 
4.3242164e-03 4.4385055e-03 -6.3228661e-05 
4.2847726e-03 4.3934705e-03 -7.1109629e-05 
4.3336237e-03 4.4192872e-03 -3.5490953e-05 
4.3004188e-03 4.4430275e-03 -9.5407064e-05 
4.2796275e-03 4.4042454e-03 -8.6484128e-05 
4.2955163e-03 4.3838392e-03 -5.0120212e-05 
4.3756585e-03 4.4810232e-03 -3.8787293e-05 
4.3509952e-03 4.4940761e-03 -7.9694160e-05 
4.4356566e-03 4.6041762e-03 -7.4177449e-05 
4.2599211e-03 4.3593347e-03 -7.0993847e-05 
4.3383623e-03 4.4234409e-03 -3.3409655e-05 
4.3046270e-03 4.4456734e-03 -9.2781098e-05 
4.3929867e-03 4.5389826e-03 -6.8637179e-05 
4.3915338e-03 4.5177853e-03 -5.1827770e-05 
4.2547509e-03 4.3700421e-03 -8.6315289e-05 
4.2691561e-03 4.3483735e-03 -5.0668270e-05 
4.3014572e-03 4.3746722e-03 -3.5113422e-05 
4.2675743e-03 4.3982654e-03 -9.5637821e-05 
4.2671366e-03 4.3629603e-03 -6.5579174e-05 
4.2353552e-03 4.3254825e-03 -7.0793532e-05 
4.3426831e-03 4.4350242e-03 -3.8279501e-05 
4.3239146e-03 4.4523571e-03 -7.5852302e-05 
4.3060365e-03 4.3787733e-03 -3.3187163e-05 
4.2716316e-03 4.4007832e-03 -9.3128423e-05 
4.2301198e-03 4.3361373e-03 -8.6108004e-05 
4.3961727e-03 4.5496626e-03 -7.4209907e-05 
4.2458745e-03 4.3158503e-03 -5.0078044e-05 
4.2620371e-03 4.3491814e-03 -5.9714115e-05 
4.3553626e-03 4.4678291e-03 -5.1669369e-05 
4.2110458e-03 4.2921263e-03 -7.0636161e-05 
4.2697550e-03 4.3311156e-03 -3.4984692e-05 
4.2354204e-03 4.3543717e-03 -9.5709867e-05 
4.3537207e-03 4.4848495e-03 -6.8547692e-05 
4.3104123e-03 4.3901210e-03 -3.7674956e-05 
4.2836848e-03 4.4031236e-03 -8.0916550e-05 
4.2057699e-03 4.3027215e-03 -8.5984320e-05 
4.2214934e-03 4.2825141e-03 -5.0066075e-05 
4.2744125e-03 4.3351012e-03 -3.2851076e-05 
4.2393566e-03 4.3569230e-03 -9.3391835e-05 
4.2234319e-03 4.2950241e-03 -5.8507379e-05 
4.1869576e-03 4.2591449e-03 -7.0482900e-05 
4.3568723e-03 4.4955253e-03 -7.4245683e-05 
4.2387848e-03 4.2884345e-03 -3.4655521e-05 
4.2039179e-03 4.3115299e-03 -9.5829819e-05 
4.3150708e-03 4.4087865e-03 -4.8490208e-05 
4.2985161e-03 4.4111745e-03 -7.0386879e-05 
4.1816444e-03 4.2696688e-03 -8.5806103e-05 
4.2787935e-03 4.3461225e-03 -3.7138208e-05 
4.2003873e-03 4.2499485e-03 -4.6739919e-05 
4.2511518e-03 4.3592984e-03 -8.1540245e-05 
4.1630496e-03 4.2264839e-03 -7.0342459e-05 
4.2433608e-03 4.2922748e-03 -3.2498967e-05 
4.2077270e-03 4.3141055e-03 -9.3633993e-05 
4.1733440e-03 4.2169266e-03 -5.0032664e-05 
4.1562398e-03 4.2334017e-03 -8.4286978e-05 
4.2084022e-03 4.2466479e-03 -3.4387227e-05 
4.1730232e-03 4.2695915e-03 -9.5941185e-05 
4.3178219e-03 4.4417274e-03 -7.4150972e-05 
4.1741193e-03 4.2393166e-03 -6.8402689e-05 
4.2477828e-03 4.3031503e-03 -3.6637903e-05 
4.2192033e-03 4.3163584e-03 -8.2138577e-05 
4.1394075e-03 4.1942890e-03 -7.0224938e-05 
4.2128554e-03 4.2504822e-03 -3.2275879e-05 
4.2759981e-03 4.3778387e-03 -6.8416601e-05 
4.2830054e-03 4.3726126e-03 -5.5424691e-05 
4.1586333e-03 4.1929907e-03 -4.6595291e-05 
4.1766791e-03 4.2720716e-03 -9.3821996e-05 
4.1377158e-03 4.2115105e-03 -8.7106971e-05 
4.2559709e-03 4.3222806e-03 -4.3621960e-05 
4.2358134e-03 4.3276460e-03 -7.2387738e-05 
4.1784714e-03 4.2057568e-03 -3.4197965e-05 
4.1429084e-03 4.2285728e-03 -9.5825519e-05 
4.1160728e-03 4.1624587e-03 -7.0036345e-05 
4.2173225e-03 4.2610206e-03 -3.6129783e-05 
4.1880296e-03 4.2744889e-03 -8.2664403e-05 
4.2788312e-03 4.3880865e-03 -7.4065174e-05 
4.1351155e-03 4.1595097e-03 -4.5151104e-05 
4.1121403e-03 4.1769571e-03 -8.7160362e-05 
4.1829715e-03 4.2094099e-03 -3.2010477e-05 
4.1463794e-03 4.2311242e-03 -9.4057134e-05 
4.0929704e-03 4.1309334e-03 -6.9849215e-05 
4.2374367e-03 4.3249791e-03 -6.8295434e-05 
4.2443508e-03 4.3197828e-03 -5.5428758e-05 
4.1491804e-03 4.1655987e-03 -3.3868764e-05 
4.1133408e-03 4.1885655e-03 -9.5861316e-05 
4.1873991e-03 4.2197416e-03 -3.5669720e-05 
4.0869750e-03 4.1422942e-03 -8.6650114e-05 
4.1501238e-03 4.2259037e-03 -8.5205131e-05 
4.2023654e-03 4.2483606e-03 -4.2901480e-05 
4.1056746e-03 4.1194707e-03 -4.5057302e-05 
4.1535646e-03 4.1692229e-03 -3.1773954e-05 
4.1167089e-03 4.1909856e-03 -9.4194038e-05 
4.0699863e-03 4.0997812e-03 -6.9664748e-05 
4.2402656e-03 4.3350994e-03 -7.3914060e-05 
4.0917597e-03 4.1265655e-03 -6.7426910e-05 
4.1203708e-03 4.1263802e-03 -3.3594537e-05 
4.1721486e-03 4.2399867e-03 -7.1602793e-05 
4.0642074e-03 4.1081789e-03 -8.3650062e-05 
4.0843165e-03 4.1492088e-03 -9.5868578e-05 
4.0799445e-03 4.0903469e-03 -4.9887396e-05 
4.1580177e-03 4.1793408e-03 -3.5201956e-05 
4.1992217e-03 4.2726696e-03 -6.8101770e-05 
4.2060828e-03 4.2675002e-03 -5.5311695e-05 
4.1274866e-03 4.1933008e-03 -8.3665174e-05 
4.0852604e-03 4.0881867e-03 -4.1743770e-05 
4.0472620e-03 4.0690065e-03 -6.9503229e-05 
4.1247127e-03 4.1298885e-03 -3.1443207e-05 
4.0875464e-03 4.1516889e-03 -9.4320952e-05 
4.0598288e-03 4.0637958e-03 -5.0349157e-05 
4.0419335e-03 4.0790457e-03 -8.4424166e-05 
4.0920638e-03 4.0877908e-03 -3.3335207e-05 
4.0558302e-03 4.1108206e-03 -9.5805859e-05 
4.2019226e-03 4.2826822e-03 -7.3815812e-05 
4.1290903e-03 4.1397163e-03 -3.4764827e-05 
4.0247650e-03 4.0385327e-03 -6.9312235e-05 
4.0910649e-03 4.1467315e-03 -8.5968451e-05 
4.0511093e-03 4.0448545e-03 -4.4056535e-05 
4.1468814e-03 4.1734907e-03 -4.3351894e-05 
4.0962966e-03 4.0912484e-03 -3.1202129e-05 
4.0684370e-03 4.0820991e-03 -5.6052475e-05 
4.0229470e-03 4.0562060e-03 -8.6784748e-05 
4.1612457e-03 4.2208554e-03 -6.8025220e-05 
4.0589594e-03 4.1131922e-03 -9.4443931e-05 
4.1680471e-03 4.2157243e-03 -5.5317996e-05 
4.0641841e-03 4.0500858e-03 -3.3164117e-05 
4.1125412e-03 4.1598505e-03 -7.2238705e-05 
4.0024384e-03 4.0084035e-03 -6.9123867e-05 
4.0279175e-03 4.0730787e-03 -9.5687385e-05 
4.1006701e-03 4.1008410e-03 -3.4344106e-05 
4.0692100e-03 4.1154418e-03 -8.4458836e-05 
3.9992169e-03 4.0246416e-03 -8.6945656e-05 
4.0354216e-03 4.0556439e-03 -7.1710441e-05 
4.1637598e-03 4.2305570e-03 -7.3708143e-05 
4.0683732e-03 4.0533794e-03 -3.0932973e-05 
4.0308870e-03 4.0755067e-03 -9.4522438e-05 
4.0169442e-03 3.9996007e-03 -4.4528777e-05 
3.9803353e-03 3.9786194e-03 -6.8860150e-05 
4.0367744e-03 4.0130424e-03 -3.2949447e-05 
4.1233720e-03 4.1692164e-03 -6.7869965e-05 
4.1300990e-03 4.1641328e-03 -5.5273100e-05 
4.0005436e-03 4.0362044e-03 -9.5599826e-05 
4.0727369e-03 4.0627709e-03 -3.3959484e-05 
3.9899154e-03 3.9693173e-03 -4.9637561e-05 
4.0341872e-03 4.0707891e-03 -8.6554588e-05 
3.9748820e-03 3.9908462e-03 -8.5784806e-05 
4.0861708e-03 4.0888665e-03 -4.1004405e-05 
4.0409607e-03 4.0162257e-03 -3.0673502e-05 
4.0003145e-03 3.9726323e-03 -4.0349165e-05 
4.0033255e-03 4.0386412e-03 -9.4594878e-05 
3.9584753e-03 3.9492035e-03 -6.8602931e-05 
4.1258186e-03 4.1787699e-03 -7.3574745e-05 
4.0071062e-03 4.0086540e-03 -6.3832224e-05 
4.0551550e-03 4.0831189e-03 -7.2832117e-05 
4.0098717e-03 3.9767670e-03 -3.2676118e-05 
3.9736391e-03 4.0000821e-03 -9.5493255e-05 
3.9530410e-03 3.9580544e-03 -8.2566738e-05 
3.9679105e-03 3.9399504e-03 -4.9592974e-05 
3.9792703e-03 3.9782207e-03 -6.9747381e-05 
4.0452532e-03 4.0254570e-03 -3.3597775e-05 
4.0132268e-03 4.0407288e-03 -8.5015883e-05 
4.0857578e-03 4.1181725e-03 -6.7626235e-05 
4.0924018e-03 4.1131368e-03 -5.5206983e-05 
3.9367890e-03 3.9201379e-03 -6.8416593e-05 
3.9777150e-03 3.9409474e-03 -3.9016493e-05 
4.0138913e-03 3.9798939e-03 -3.0499745e-05 
3.9763688e-03 4.0024118e-03 -9.4524876e-05 
3.9314977e-03 3.9297449e-03 -8.2891253e-05 
3.9461572e-03 3.9109224e-03 -4.9544735e-05 
3.9577163e-03 3.9471881e-03 -6.7740351e-05 
3.9834101e-03 3.9412007e-03 -3.2455981e-05 
3.9472547e-03 3.9646137e-03 -9.5240684e-05 
3.9744116e-03 3.9601000e-03 -5.9573085e-05 
4.0129097e-03 3.9809034e-03 -3.2531956e-05 
3.9152987e-03 3.8914592e-03 -6.8249312e-05 
3.9795386e-03 3.9979462e-03 -8.6931832e-05 
3.9558122e-03 3.9119180e-03 -3.9074806e-05 
4.0882109e-03 4.1278880e-03 -7.3468480e-05 
3.9873505e-03 3.9442070e-03 -3.0326602e-05 
3.9499248e-03 3.9670435e-03 -9.4452887e-05 
3.9145113e-03 3.9104815e-03 -8.5776701e-05 
3.9245603e-03 3.8822361e-03 -4.9501326e-05 
3.9342260e-03 3.9167758e-03 -6.8431400e-05 
4.0485701e-03 4.0679597e-03 -6.7506677e-05 
4.0551545e-03 4.0629487e-03 -5.5151762e-05 
4.0233070e-03 4.0038386e-03 -4.0511120e-05 
3.9998000e-03 4.0094517e-03 -7.3409887e-05 
3.9573372e-03 3.9062588e-03 -3.2207899e-05 
3.9213803e-03 3.9299331e-03 -9.5057745e-05 
3.9612786e-03 3.9476878e-03 -6.4087530e-05 
3.8940548e-03 3.8629952e-03 -6.8002897e-05 
3.9342074e-03 3.8831769e-03 -3.9058450e-05 
3.9917235e-03 3.9530741e-03 -3.2922737e-05 
3.9593191e-03 3.9692014e-03 -8.5477768e-05 
3.8923009e-03 3.8813599e-03 -8.6069907e-05 
3.9032211e-03 3.8538575e-03 -4.9414986e-05 
3.9612954e-03 3.9092447e-03 -3.0083836e-05 
3.9238348e-03 3.9323708e-03 -9.4416871e-05 
4.0507717e-03 4.0772320e-03 -7.3283132e-05 
3.8729536e-03 3.8348935e-03 -6.7770365e-05 
3.9127492e-03 3.8547218e-03 -3.9050112e-05 
3.9317897e-03 3.8720644e-03 -3.1962496e-05 
3.9365683e-03 3.9113858e-03 -6.0989169e-05 
3.8958541e-03 3.8959519e-03 -9.4935633e-05 
3.8963261e-03 3.8682539e-03 -6.9942340e-05 
3.9603231e-03 3.9101182e-03 -3.1834621e-05 
3.9269188e-03 3.9280835e-03 -8.7207307e-05 
4.0113698e-03 4.0177326e-03 -6.7297391e-05 
3.8820372e-03 3.8257898e-03 -4.9324433e-05 
4.0178667e-03 4.0127919e-03 -5.5086824e-05 
3.8688611e-03 3.8495001e-03 -8.5250489e-05 
3.9070947e-03 3.8708698e-03 -5.9679824e-05 
3.9355680e-03 3.8749871e-03 -2.9915152e-05 
3.8983061e-03 3.8982891e-03 -9.4261108e-05 
3.8519835e-03 3.8071219e-03 -6.7571636e-05 
3.8914131e-03 3.8266447e-03 -3.9076989e-05 
3.9707460e-03 3.9323876e-03 -3.9329534e-05 
3.9466354e-03 3.9391397e-03 -7.3960298e-05 
3.9064586e-03 3.8384295e-03 -3.1817439e-05 
3.8709003e-03 3.8625631e-03 -9.4615556e-05 
3.8742807e-03 3.8380730e-03 -6.8991183e-05 
3.8609754e-03 3.7980208e-03 -4.9232345e-05 
3.9399178e-03 3.8833513e-03 -3.2151998e-05 
3.9073122e-03 3.9004469e-03 -8.5753592e-05 
4.0135100e-03 4.0268791e-03 -7.3091775e-05 
3.8467250e-03 3.8195034e-03 -8.4534964e-05 
3.9103976e-03 3.8412989e-03 -2.9631548e-05 
3.8312345e-03 3.7795687e-03 -6.7344765e-05 
3.8730891e-03 3.8649745e-03 -9.4244555e-05 
3.8703415e-03 3.7988427e-03 -3.9017879e-05 
3.9745318e-03 3.9681476e-03 -6.7049972e-05 
3.9809239e-03 3.9632856e-03 -5.5011595e-05 
3.8815732e-03 3.8054117e-03 -3.1563341e-05 
3.8260722e-03 3.7887089e-03 -8.1295053e-05 
3.8401319e-03 3.7705728e-03 -4.9167778e-05 
3.8520687e-03 3.8084972e-03 -6.8685848e-05 
3.8462530e-03 3.8298862e-03 -9.4419709e-05 
3.8792701e-03 3.8326387e-03 -5.8381982e-05 
3.9095618e-03 3.8421331e-03 -3.1153180e-05 
3.8760887e-03 3.8609572e-03 -8.7375338e-05 
3.8106365e-03 3.7524255e-03 -6.7199268e-05 
3.8493867e-03 3.7713237e-03 -3.8999224e-05 
3.8854333e-03 3.8082055e-03 -2.9468365e-05 
3.8484635e-03 3.8322252e-03 -9.4069925e-05 
3.9766189e-03 3.9771912e-03 -7.2894196e-05 
3.8095857e-03 3.7709419e-03 -8.4767598e-05 
3.8194284e-03 3.7433575e-03 -4.9087575e-05 
3.9197509e-03 3.8634334e-03 -3.8201091e-05 
3.8952474e-03 3.8714304e-03 -7.4394280e-05 
3.8298853e-03 3.7796006e-03 -6.8926260e-05 
3.8571525e-03 3.7730101e-03 -3.1318243e-05 
3.8219986e-03 3.7977186e-03 -9.4190109e-05 
3.8897486e-03 3.8163178e-03 -3.1433112e-05 
3.8571020e-03 3.8343463e-03 -8.5970809e-05 
3.7902109e-03 3.7254503e-03 -6.6968365e-05 
3.8285803e-03 3.7440576e-03 -3.8967213e-05 
3.9381008e-03 3.9192755e-03 -6.6755019e-05 
3.9444007e-03 3.9144871e-03 -5.4890363e-05 
3.8360527e-03 3.7865473e-03 -6.7885383e-05 
3.8609151e-03 3.7757186e-03 -2.9168295e-05 
3.8241474e-03 3.8001251e-03 -9.3937742e-05 
3.7988888e-03 3.7164220e-03 -4.8981401e-05 
3.7846817e-03 3.7386534e-03 -8.5080115e-05 
3.8329568e-03 3.7410420e-03 -3.1077663e-05 
3.7981863e-03 3.7661465e-03 -9.3914889e-05 
3.7698823e-03 3.6987253e-03 -6.6735833e-05 
3.8513823e-03 3.7904559e-03 -5.3472282e-05 
3.9400314e-03 3.9282679e-03 -7.2768722e-05 
3.8239660e-03 3.7540609e-03 -5.3072643e-05 
3.7939372e-03 3.7326282e-03 -6.9021815e-05 
3.7497424e-03 3.6722806e-03 -6.6532724e-05 
3.7545082e-03 3.6935254e-03 -7.9908794e-05 
3.7712113e-03 3.6782818e-03 -4.7033383e-05 
3.7627278e-03 3.7139126e-03 -8.8602770e-05 
3.7897276e-03 3.6923469e-03 -3.8018661e-05 
3.7747270e-03 3.7350550e-03 -9.3589966e-05 
3.8090160e-03 3.7095651e-03 -3.0790015e-05 
3.7945050e-03 3.7587597e-03 -9.1854556e-05 
3.8292329e-03 3.7339530e-03 -2.8860579e-05 
3.8210046e-03 3.7815087e-03 -8.1364247e-05 
3.8485997e-03 3.7634887e-03 -3.2562457e-05 
3.8508982e-03 3.8079415e-03 -6.9974427e-05 
3.8682539e-03 3.7984790e-03 -4.0729388e-05 
3.8793283e-03 3.8411554e-03 -6.6350978e-05 
3.8879367e-03 3.8373009e-03 -5.2467407e-05 
3.7294910e-03 3.6456785e-03 -6.6284432e-05 
3.7900570e-03 3.7166437e-03 -5.9282007e-05 
3.9035624e-03 3.8797560e-03 -7.2540694e-05 
3.7512295e-03 3.7040799e-03 -9.3319817e-05 
3.7452166e-03 3.6443602e-03 -4.6929945e-05 
3.7847168e-03 3.6775733e-03 -3.0567509e-05 
3.7322396e-03 3.6696496e-03 -8.4467691e-05 
3.7975216e-03 3.6921995e-03 -2.8506382e-05 
3.7546249e-03 3.6460350e-03 -3.7422749e-05 
3.7531387e-03 3.7062811e-03 -9.3278431e-05 
3.7085889e-03 3.6183826e-03 -6.6014290e-05 
3.7273960e-03 3.6727400e-03 -9.3003466e-05 
3.7544952e-03 3.6709446e-03 -5.9785300e-05 
3.7311292e-03 3.6523312e-03 -7.0267270e-05 
3.7600063e-03 3.6453451e-03 -3.0323077e-05 
3.7175263e-03 3.6092007e-03 -4.7468729e-05 
3.7626121e-03 3.7095614e-03 -8.5259177e-05 
3.7058038e-03 3.6344919e-03 -8.3609149e-05 
3.7936994e-03 3.6895736e-03 -3.0473831e-05 
3.8669819e-03 3.8308995e-03 -7.2278017e-05 
3.8351740e-03 3.7824344e-03 -6.5973254e-05 
3.6870285e-03 3.5903344e-03 -6.5733831e-05 
3.7294338e-03 3.6749227e-03 -9.2840135e-05 
3.7583483e-03 3.6703958e-03 -5.4765740e-05 
3.7278596e-03 3.6112161e-03 -3.7173431e-05 
3.7636599e-03 3.6480036e-03 -2.8218381e-05 
3.7783163e-03 3.7168912e-03 -7.3705982e-05 
3.7734169e-03 3.6911166e-03 -5.5835659e-05 
3.8011884e-03 3.7067647e-03 -3.7047852e-05 
3.8349023e-03 3.7692841e-03 -5.4256252e-05 
3.7031970e-03 3.6409118e-03 -9.2656024e-05 
3.6820930e-03 3.6002367e-03 -8.0292775e-05 
3.6961255e-03 3.5810738e-03 -4.6880337e-05 
3.7378918e-03 3.6783367e-03 -8.6157139e-05 
3.7079977e-03 3.6186699e-03 -6.6919565e-05 
3.7349160e-03 3.6126520e-03 -3.0018184e-05 
3.7686832e-03 3.6564756e-03 -2.9814999e-05 
3.6647776e-03 3.5614744e-03 -6.5498425e-05 
3.7059579e-03 3.5826145e-03 -3.6755213e-05 
3.7052406e-03 3.6430729e-03 -9.2501097e-05 
3.7091232e-03 3.6179114e-03 -6.4966443e-05 
3.7385388e-03 3.6152881e-03 -2.7933025e-05 
3.8304217e-03 3.7825105e-03 -7.2130730e-05 
3.6595576e-03 3.5709634e-03 -8.0101294e-05 
3.6740163e-03 3.5520594e-03 -4.6247485e-05 
3.6785931e-03 3.6086657e-03 -9.2275310e-05 
3.7093267e-03 3.5795374e-03 -2.9728881e-05 
3.7885830e-03 3.7208528e-03 -6.5495064e-05 
3.7149382e-03 3.6462452e-03 -8.4116349e-05 
3.6840988e-03 3.5862047e-03 -6.5413842e-05 
3.7438304e-03 3.6247061e-03 -3.0209711e-05 
3.6417684e-03 3.5317016e-03 -6.5237939e-05 
3.6832599e-03 3.5531551e-03 -3.6330141e-05 
3.7985523e-03 3.7214267e-03 -5.4036915e-05 
3.6805898e-03 3.6108023e-03 -9.2061971e-05 
3.7093293e-03 3.6065255e-03 -5.4363652e-05 
3.7130516e-03 3.5820985e-03 -2.7584216e-05 
3.7309781e-03 3.6538087e-03 -7.2308052e-05 
3.6364794e-03 3.5413536e-03 -8.0113939e-05 
3.6511743e-03 3.5221421e-03 -4.5602428e-05 
3.7514798e-03 3.6424752e-03 -3.7207377e-05 
3.6535885e-03 3.5760279e-03 -9.1854228e-05 
3.6893159e-03 3.6142350e-03 -8.5085274e-05 
3.6828152e-03 3.5800366e-03 -6.1299259e-05 
3.6833403e-03 3.5458386e-03 -2.9446952e-05 
3.7181105e-03 3.5907754e-03 -2.9375644e-05 
3.6620430e-03 3.5560133e-03 -6.3730848e-05 
3.7939982e-03 3.7343639e-03 -7.1871349e-05 
3.6179090e-03 3.5010118e-03 -6.4985004e-05 
3.6598265e-03 3.5226883e-03 -3.5821584e-05 
3.6556961e-03 3.5781099e-03 -9.1553535e-05 
3.6772047e-03 3.5573482e-03 -4.7074573e-05 
3.6870039e-03 3.5484838e-03 -2.7315282e-05 
3.6126093e-03 3.5107636e-03 -8.0127014e-05 
3.6275098e-03 3.4912301e-03 -4.4904980e-05 
3.7486011e-03 3.6682566e-03 -6.5010594e-05 
3.7624014e-03 3.6741893e-03 -5.3809224e-05 
3.6281308e-03 3.5428982e-03 -9.1505746e-05 
3.6655930e-03 3.5813090e-03 -8.3016050e-05 
3.6568160e-03 3.5117238e-03 -2.9111343e-05 
3.5932250e-03 3.4692842e-03 -6.4663000e-05 
3.6355162e-03 3.4912478e-03 -3.5321515e-05 
3.6923103e-03 3.5581274e-03 -2.9803226e-05 
3.6388170e-03 3.5175998e-03 -5.5661192e-05 
3.6606968e-03 3.5399934e-03 -5.0536855e-05 
3.6301927e-03 3.5449259e-03 -9.1167356e-05 
3.7576742e-03 3.6866434e-03 -7.1595074e-05 
3.6820259e-03 3.5890278e-03 -7.0928130e-05 
3.6604495e-03 3.5143017e-03 -2.6962955e-05 
3.5878450e-03 3.4790484e-03 -8.0042155e-05 
3.6029355e-03 3.4593607e-03 -4.4172397e-05 
3.7000352e-03 3.5763143e-03 -3.7312329e-05 
3.6021965e-03 3.5091506e-03 -9.1108093e-05 
3.6390950e-03 3.5482789e-03 -8.3977509e-05 
3.6297871e-03 3.4770789e-03 -2.8768105e-05 
3.6655741e-03 3.5231085e-03 -2.8901175e-05 
3.7203673e-03 3.6313932e-03 -6.5019703e-05 
3.7261609e-03 3.6270404e-03 -5.3785814e-05 
3.5676693e-03 3.4364294e-03 -6.4302527e-05 
3.6042230e-03 3.5111369e-03 -9.0783004e-05 
3.5973547e-03 3.4428905e-03 -3.5185647e-05 
3.6023257e-03 3.4824111e-03 -6.6198023e-05 
3.5617144e-03 3.4453962e-03 -7.9578247e-05 
3.5767972e-03 3.4259760e-03 -4.3804859e-05 
3.6334023e-03 3.4796156e-03 -2.6526332e-05 
3.5757455e-03 3.4749780e-03 -9.0686917e-05 
3.7215736e-03 3.6394391e-03 -7.1411014e-05 
3.6143519e-03 3.5142184e-03 -8.1817452e-05 
3.6021236e-03 3.4417983e-03 -2.8422241e-05 
3.5409457e-03 3.4024876e-03 -6.3970983e-05 
3.6386298e-03 3.4894638e-03 -2.9405001e-05 
3.6090505e-03 3.4717736e-03 -4.8165883e-05 
3.5777923e-03 3.4768383e-03 -9.0221009e-05 
3.6904693e-03 3.5809635e-03 -5.3495718e-05 
3.5413010e-03 3.4222396e-03 -8.2049519e-05 
3.6835223e-03 3.5836734e-03 -6.4543696e-05 
3.6310665e-03 3.5221481e-03 -6.9525646e-05 
3.5696379e-03 3.4073654e-03 -3.4681576e-05 
3.5493777e-03 3.3911713e-03 -4.3470201e-05 
3.6057148e-03 3.4442791e-03 -2.6257587e-05 
3.5486736e-03 3.4402574e-03 -9.0291971e-05 
3.5868392e-03 3.4801648e-03 -8.2780301e-05 
3.5783076e-03 3.4377531e-03 -5.2847077e-05 
3.6388698e-03 3.4979410e-03 -3.7074653e-05 
3.5739734e-03 3.4058990e-03 -2.7979708e-05 
3.5131117e-03 3.3672231e-03 -6.3579944e-05 
3.6108280e-03 3.4532142e-03 -2.8425879e-05 
3.6855789e-03 3.5929317e-03 -7.1219038e-05 
3.5207383e-03 3.3988140e-03 -8.4332205e-05 
3.5507192e-03 3.4419559e-03 -8.9771900e-05 
3.5296306e-03 3.3608545e-03 -3.8082300e-05 
3.5775388e-03 3.4083710e-03 -2.5837926e-05 
3.6545461e-03 3.5347121e-03 -5.3266744e-05 
3.6418596e-03 3.5296548e-03 -6.3954350e-05 
3.5210259e-03 3.4048413e-03 -8.9828551e-05 
3.5510689e-03 3.4022224e-03 -5.1643048e-05 
3.5610737e-03 3.4449103e-03 -8.0460959e-05 
3.5450868e-03 3.3693893e-03 -2.7538626e-05 
3.4842668e-03 3.3306754e-03 -6.3153879e-05 
3.5826182e-03 3.4183839e-03 -2.8989571e-05 
3.4929316e-03 3.3633960e-03 -8.3967418e-05 
3.5231423e-03 3.4064979e-03 -8.9174449e-05 
3.6496129e-03 3.5464298e-03 -7.1009010e-05 
3.5121818e-03 3.3346976e-03 -3.3652890e-05 
3.5485364e-03 3.3717710e-03 -2.5483094e-05 
3.4928098e-03 3.3687903e-03 -8.9426205e-05 
3.5763863e-03 3.4486251e-03 -6.6083754e-05 
3.5906436e-03 3.4374222e-03 -3.7613936e-05 
3.5320907e-03 3.4087743e-03 -8.0857055e-05 
3.6129579e-03 3.4926871e-03 -6.4068830e-05 
3.6184941e-03 3.4885649e-03 -5.3123305e-05 
3.4789387e-03 3.3023003e-03 -4.2354277e-05 
3.5155597e-03 3.3322200e-03 -2.7069193e-05 
3.5536396e-03 3.3809182e-03 -2.7966971e-05 
3.4541427e-03 3.2928996e-03 -6.2698142e-05 
3.4649733e-03 3.3280603e-03 -8.3568259e-05 
3.4948264e-03 3.3703346e-03 -8.8710978e-05 
3.4835250e-03 3.2988053e-03 -3.3250832e-05 
3.5189667e-03 3.3345877e-03 -2.5007283e-05 
3.6133830e-03 3.4999056e-03 -7.0886461e-05 
3.4639060e-03 3.3321530e-03 -8.8917994e-05 
3.4947330e-03 3.3292621e-03 -4.9060804e-05 
3.5053045e-03 3.3732101e-03 -7.9102894e-05 
3.4505001e-03 3.2667564e-03 -4.1885993e-05 
3.4852882e-03 3.2943753e-03 -2.6638620e-05 
3.4227867e-03 3.2537323e-03 -6.2226020e-05 
3.4366793e-03 3.2922307e-03 -8.2984938e-05 
3.5769106e-03 3.4466349e-03 -6.3807463e-05 
3.5823684e-03 3.4426025e-03 -5.2990996e-05 
3.5240247e-03 3.3447912e-03 -2.8541595e-05 
3.4659554e-03 3.3335765e-03 -8.8154498e-05 
3.5225765e-03 3.3816721e-03 -6.6638197e-05 
3.4548829e-03 3.2631927e-03 -3.2838478e-05 
3.4885523e-03 3.2966102e-03 -2.4587527e-05 
3.4343160e-03 3.2947676e-03 -8.8498673e-05 
3.4752851e-03 3.3367607e-03 -8.0138707e-05 
3.5319712e-03 3.3642272e-03 -3.7756348e-05 
3.5771027e-03 3.4537399e-03 -7.0848102e-05 
3.4220319e-03 3.2314016e-03 -4.1413114e-05 
3.4542773e-03 3.2557605e-03 -2.6081227e-05 
3.4935088e-03 3.3058978e-03 -2.7399676e-05 
3.4053831e-03 3.2533372e-03 -8.2854924e-05 
3.3900365e-03 3.2130620e-03 -6.1740946e-05 
3.4362769e-03 3.2960372e-03 -8.7615146e-05 
3.5502361e-03 3.4031777e-03 -5.4149314e-05 
3.5408479e-03 3.4009165e-03 -6.3657506e-05 
3.4262545e-03 3.2276786e-03 -3.2389966e-05 
3.4574363e-03 3.2579368e-03 -2.4130122e-05 
3.4039731e-03 3.2566779e-03 -8.8045825e-05 
3.4468547e-03 3.2987003e-03 -7.7682962e-05 
3.3934824e-03 3.1960281e-03 -4.0958890e-05 
3.5411357e-03 3.4080942e-03 -7.0650211e-05 
3.3769750e-03 3.2177169e-03 -8.2245206e-05 
3.4224414e-03 3.2163500e-03 -2.5553907e-05 
3.4058860e-03 3.2577834e-03 -8.7037530e-05 
3.4622822e-03 3.2680668e-03 -2.7994000e-05 
3.3975993e-03 3.1923363e-03 -3.1959462e-05 
3.3557666e-03 3.1707229e-03 -6.1225597e-05 
3.4641882e-03 3.3072499e-03 -6.5333312e-05 
3.5049745e-03 3.3558167e-03 -6.3322223e-05 
3.5102912e-03 3.3519028e-03 -5.2714713e-05 
3.3728727e-03 3.2177868e-03 -8.7568471e-05 
3.4254540e-03 3.2183453e-03 -2.3619328e-05 
3.4153359e-03 3.2607168e-03 -7.8759469e-05 
3.3649793e-03 3.1609470e-03 -4.0468520e-05 
3.4708651e-03 3.2908230e-03 -4.0389128e-05 
3.3475428e-03 3.1805995e-03 -8.1257516e-05 
3.3897466e-03 3.1761078e-03 -2.4992234e-05 
3.5049040e-03 3.3626219e-03 -7.0591537e-05 
3.3689137e-03 3.1571689e-03 -3.1515945e-05 
3.3747009e-03 3.2187090e-03 -8.6465348e-05 
3.4302454e-03 3.2286665e-03 -2.7718965e-05 
3.3199070e-03 3.1266646e-03 -6.0677168e-05 
3.4687819e-03 3.3104760e-03 -6.3225401e-05 
3.4740171e-03 3.3066419e-03 -5.2649400e-05 
3.3409693e-03 3.1780635e-03 -8.7092158e-05 
3.3926165e-03 3.1779569e-03 -2.3067905e-05 
3.3317043e-03 3.1204242e-03 -4.0112955e-05 
3.3853475e-03 3.2211228e-03 -7.6148797e-05 
3.3401819e-03 3.1220769e-03 -3.1033887e-05 
3.4173580e-03 3.2472450e-03 -6.3175852e-05 
3.4348043e-03 3.2463404e-03 -4.0270261e-05 
3.3561329e-03 3.1350374e-03 -2.4370469e-05 
3.3104224e-03 3.1352236e-03 -8.1185251e-05 
3.3426483e-03 3.1787730e-03 -8.6006745e-05 
3.4684550e-03 3.3169780e-03 -7.0580652e-05 
3.3973258e-03 3.1883353e-03 -2.7531982e-05 
3.3103055e-03 3.0923281e-03 -3.7432816e-05 
3.2822248e-03 3.0807802e-03 -6.0068392e-05 
3.3081027e-03 3.1375797e-03 -8.6693341e-05 
3.3611362e-03 3.1887521e-03 -7.3521667e-05 
3.4324599e-03 3.2652945e-03 -6.3062689e-05 
3.4375910e-03 3.2615308e-03 -5.2561074e-05 
3.3588028e-03 3.1367163e-03 -2.2459859e-05 
3.3114287e-03 3.0871574e-03 -3.0615942e-05 
3.2816271e-03 3.0999901e-03 -8.0723636e-05 
3.3885660e-03 3.2107669e-03 -6.2213599e-05 
3.3985253e-03 3.2019024e-03 -4.0132196e-05 
3.3215599e-03 3.0930366e-03 -2.3714223e-05 
3.3096650e-03 3.1379620e-03 -8.5524713e-05 
3.2822546e-03 3.0602349e-03 -3.8782902e-05 
3.2916761e-03 3.0953134e-03 -6.3488704e-05 
3.3633672e-03 3.1471364e-03 -2.7274453e-05 
3.4318808e-03 3.2714990e-03 -7.0548405e-05 
3.2743129e-03 3.0961263e-03 -8.6226843e-05 
3.2858474e-03 3.0560615e-03 -2.9813220e-05 
3.2427488e-03 3.0329744e-03 -5.9406884e-05 
3.3239957e-03 3.0946224e-03 -2.1871147e-05 
3.3960561e-03 3.2202837e-03 -6.2884465e-05 
3.3202805e-03 3.1401468e-03 -7.4772463e-05 
3.4011018e-03 3.2165961e-03 -5.2444404e-05 
3.2509975e-03 3.0619558e-03 -7.9462006e-05 
3.2611664e-03 3.0593695e-03 -6.4082538e-05 
3.2499705e-03 3.0215411e-03 -3.8361180e-05 
3.3523284e-03 3.1662898e-03 -6.1814462e-05 
3.2858744e-03 3.0499790e-03 -2.3076112e-05 
3.2757090e-03 3.0963186e-03 -8.5036423e-05 
3.3621322e-03 3.1575998e-03 -3.9854196e-05 
3.3282705e-03 3.1048413e-03 -2.7098806e-05 
3.3951681e-03 3.2262304e-03 -7.0588729e-05 
3.2567561e-03 3.0208975e-03 -2.8966728e-05 
3.2395099e-03 3.0538009e-03 -8.5711385e-05 
3.2863077e-03 3.0982704e-03 -7.3991556e-05 
3.2880476e-03 3.0514081e-03 -2.1303002e-05 
3.3594251e-03 3.1754635e-03 -6.2764499e-05 
3.3643912e-03 3.1718467e-03 -5.2359486e-05 
3.2263258e-03 2.9914731e-03 -3.6089732e-05 
3.2009440e-03 2.9828686e-03 -5.8795289e-05 
3.2068610e-03 3.0088963e-03 -7.9238831e-05 
3.2407718e-03 3.0537057e-03 -8.4462612e-05 
3.2491065e-03 3.0059814e-03 -2.2422222e-05 
3.3158830e-03 3.1218824e-03 -6.1548308e-05 
3.3255229e-03 3.1133632e-03 -3.9694751e-05 
3.2252539e-03 2.9842844e-03 -2.9457316e-05 
3.2921191e-03 3.0616061e-03 -2.6907286e-05 
3.3582554e-03 3.1810845e-03 -7.0642105e-05 
3.1810850e-03 2.9692068e-03 -6.9231712e-05 
3.1949230e-03 2.9570139e-03 -3.8645852e-05 
3.2036414e-03 3.0103617e-03 -8.5274885e-05 
3.2510189e-03 3.0551592e-03 -7.3308111e-05 
3.2510376e-03 3.0071740e-03 -2.0762014e-05 
3.3226302e-03 3.1307195e-03 -6.2685955e-05 
3.3275189e-03 3.1271686e-03 -5.2314292e-05 
3.1767222e-03 2.9729304e-03 -7.9031568e-05 
3.1943673e-03 2.9484662e-03 -2.9816822e-05 
3.1572380e-03 2.9308882e-03 -5.8053520e-05 
3.2046838e-03 3.0100041e-03 -8.3926046e-05 
3.2793141e-03 3.0775946e-03 -6.1307859e-05 
3.2887899e-03 3.0692357e-03 -3.9552066e-05 
3.2112398e-03 2.9610707e-03 -2.1724534e-05 
3.2537400e-03 3.0158188e-03 -2.6558848e-05 
3.3211675e-03 3.1360418e-03 -7.0750240e-05 
3.1603079e-03 2.9364862e-03 -6.0385726e-05 
3.1847006e-03 2.9496022e-03 -4.3342530e-05 
3.1593132e-03 2.9153074e-03 -3.8366030e-05 
3.1669906e-03 2.9663346e-03 -8.4786974e-05 
3.2133425e-03 3.0098478e-03 -7.2912662e-05 
3.2128044e-03 2.9618258e-03 -2.0144244e-05 
3.2856658e-03 3.0861155e-03 -6.2665051e-05 
3.2904774e-03 3.0826298e-03 -5.2325810e-05 
3.1636578e-03 2.9129542e-03 -3.0151501e-05 
3.1341212e-03 2.9219040e-03 -7.8286183e-05 
3.1676735e-03 2.9657476e-03 -8.3679864e-05 
3.2425683e-03 3.0335232e-03 -6.1109480e-05 
3.2518888e-03 3.0253178e-03 -3.9433420e-05 
3.1731927e-03 2.9162478e-03 -2.1065393e-05 
3.1135876e-03 2.8791556e-03 -5.7345893e-05 
3.1350106e-03 2.8843847e-03 -3.5354555e-05 
3.2839023e-03 3.0911269e-03 -7.0918657e-05 
3.2147819e-03 2.9694405e-03 -2.5820944e-05 
3.1303896e-03 2.9227841e-03 -8.4407744e-05 
3.1353561e-03 2.8778289e-03 -2.7374295e-05 
3.1757776e-03 2.9654035e-03 -7.2991861e-05 
3.2485260e-03 3.0416725e-03 -6.2690335e-05 
3.2532569e-03 3.0382511e-03 -5.2370182e-05 
3.1744756e-03 2.9167121e-03 -1.9522859e-05 
3.1307270e-03 2.9219962e-03 -8.3499908e-05 
3.0999493e-03 2.8452028e-03 -3.6880625e-05 
3.2056719e-03 2.9896263e-03 -6.0949220e-05 
3.2148345e-03 2.9815668e-03 -3.9316703e-05 
3.0925246e-03 2.8731064e-03 -7.8118268e-05 
3.1353848e-03 2.8720049e-03 -2.0345991e-05 
3.2464343e-03 3.0463189e-03 -7.1145012e-05 
3.1761786e-03 2.9238106e-03 -2.5074460e-05 
3.0712737e-03 2.8297983e-03 -5.6536166e-05 
3.0939768e-03 2.8797339e-03 -8.4067287e-05 
3.1383578e-03 2.9214302e-03 -7.3110037e-05 
3.2111586e-03 2.9973085e-03 -6.2786617e-05 
3.2158105e-03 2.9939595e-03 -5.2440515e-05 
3.1363196e-03 2.8721374e-03 -1.8859193e-05 
3.0664559e-03 2.8081739e-03 -3.8266477e-05 
3.0617861e-03 2.8371641e-03 -7.7694880e-05 
3.0939407e-03 2.8787674e-03 -8.3432751e-05 
3.0797892e-03 2.8137551e-03 -2.6908938e-05 
3.1776156e-03 2.9379043e-03 -3.9134306e-05 
3.1605940e-03 2.9368240e-03 -6.1221341e-05 
3.0977768e-03 2.8283461e-03 -1.9593890e-05 
3.2086708e-03 3.0015169e-03 -7.1444250e-05 
3.1376630e-03 2.8787039e-03 -2.4363200e-05 
3.0300068e-03 2.7817495e-03 -5.5797602e-05 
3.0742809e-03 2.8193633e-03 -4.0560026e-05 
3.0576913e-03 2.8371976e-03 -8.3783234e-05 
3.0496467e-03 2.8086056e-03 -6.0863942e-05 
3.0503173e-03 2.7855325e-03 -3.3202734e-05 
3.1075198e-03 2.8837132e-03 -7.1260169e-05 
3.1734984e-03 2.9529934e-03 -6.2940904e-05 
3.1780661e-03 2.9497067e-03 -5.2574949e-05 
3.0982941e-03 2.8280432e-03 -1.8119730e-05 
3.0518270e-03 2.7811851e-03 -2.5886702e-05 
3.0573425e-03 2.8360407e-03 -8.3410596e-05 
3.1400677e-03 2.8942567e-03 -3.9088820e-05 
3.1231323e-03 2.8930209e-03 -6.1219922e-05 
3.0339684e-03 2.7925791e-03 -6.3382249e-05 
3.0601509e-03 2.7851393e-03 -1.8807321e-05 
3.1706498e-03 2.9567645e-03 -7.1766837e-05 
3.0199711e-03 2.7513262e-03 -3.3209690e-05 
3.0053291e-03 2.7655177e-03 -6.9762842e-05 
3.0992643e-03 2.8342095e-03 -2.3722720e-05 
3.0215115e-03 2.7951354e-03 -8.3590916e-05 
2.9897597e-03 2.7354746e-03 -5.5101376e-05 
3.0694879e-03 2.8397883e-03 -7.1663671e-05 
3.0237366e-03 2.7486610e-03 -2.4709889e-05 
3.1356364e-03 2.9087490e-03 -6.3133099e-05 
3.1401245e-03 2.9055206e-03 -5.2751813e-05 
3.0604000e-03 2.7845372e-03 -1.7353121e-05 
2.9763754e-03 2.7285542e-03 -6.4834931e-05 
3.0207448e-03 2.7936962e-03 -8.3381208e-05 
2.9916172e-03 2.7185297e-03 -3.1990723e-05 
3.0856174e-03 2.8494885e-03 -6.1281738e-05 
3.1023622e-03 2.8507318e-03 -3.9065406e-05 
3.0227352e-03 2.7423250e-03 -1.8012252e-05 
3.1324383e-03 2.9121016e-03 -7.2142895e-05 
2.9772646e-03 2.7396455e-03 -7.7358651e-05 
3.0609709e-03 2.7901158e-03 -2.3020510e-05 
2.9853077e-03 2.7534079e-03 -8.3379913e-05 
2.9923755e-03 2.7128700e-03 -2.3769368e-05 
3.0267609e-03 2.7922287e-03 -7.3780633e-05 
2.9502681e-03 2.6905448e-03 -5.4428925e-05 
2.9527748e-03 2.7041291e-03 -6.7650959e-05 
3.0976087e-03 2.8646260e-03 -6.3382344e-05 
3.1020148e-03 2.8614549e-03 -5.2973697e-05 
3.0225948e-03 2.7414775e-03 -1.6617991e-05 
2.9602032e-03 2.6844912e-03 -3.3379914e-05 
2.9841701e-03 2.7517218e-03 -8.3410909e-05 
2.9486232e-03 2.7071629e-03 -7.7277495e-05 
3.0480386e-03 2.8062521e-03 -6.1367995e-05 
3.0644985e-03 2.8073613e-03 -3.9025974e-05 
2.9853538e-03 2.7000252e-03 -1.7218616e-05 
3.0939830e-03 2.8675336e-03 -7.2612434e-05 
3.0252642e-03 2.7510528e-03 -2.4480345e-05 
2.9491608e-03 2.7121250e-03 -8.3173923e-05 
2.9503440e-03 2.6678019e-03 -2.6150623e-05 
2.9241275e-03 2.6717100e-03 -6.7407927e-05 
2.9963641e-03 2.7556554e-03 -7.1666967e-05 
2.9554998e-03 2.6875939e-03 -4.3579505e-05 
2.9117984e-03 2.6470439e-03 -5.3785410e-05 
3.0592966e-03 2.8205805e-03 -6.3733234e-05 
3.0636194e-03 2.8174624e-03 -5.3271313e-05 
2.9848653e-03 2.6987705e-03 -1.5893816e-05 
2.9181927e-03 2.6724944e-03 -7.6926968e-05 
2.9476627e-03 2.7102840e-03 -8.3604507e-05 
3.0260854e-03 2.7624134e-03 -3.7337359e-05 
2.9375702e-03 2.6499743e-03 -2.1360309e-05 
3.0102856e-03 2.7631940e-03 -6.1583603e-05 
2.9459181e-03 2.6863243e-03 -5.5588083e-05 
2.9480446e-03 2.6580801e-03 -1.6519904e-05 
3.0552510e-03 2.8230185e-03 -7.3129013e-05 
2.9107446e-03 2.6263092e-03 -2.9074188e-05 
2.9203829e-03 2.6560558e-03 -5.3248175e-05 
2.8943119e-03 2.6408774e-03 -7.0757553e-05 
2.9131579e-03 2.6711489e-03 -8.3078652e-05 
2.9872474e-03 2.7081114e-03 -2.3895856e-05 
2.9592300e-03 2.7136477e-03 -7.1884213e-05 
2.8744147e-03 2.6048217e-03 -5.2999963e-05 
3.0206828e-03 2.7766204e-03 -6.4083215e-05 
2.9471272e-03 2.6565681e-03 -1.5203264e-05 
3.0249329e-03 2.7735471e-03 -5.3575041e-05 
2.9103276e-03 2.6198879e-03 -2.1147109e-05 
2.8867903e-03 2.6386653e-03 -7.8946039e-05 
2.9112266e-03 2.6691181e-03 -8.3795559e-05 
2.9875925e-03 2.7188864e-03 -3.7074409e-05 
2.9725234e-03 2.7205148e-03 -6.1812047e-05 
2.8645063e-03 2.6066934e-03 -6.9468151e-05 
2.9108417e-03 2.6165843e-03 -1.5725185e-05 
2.8879978e-03 2.6154025e-03 -4.7272802e-05 
2.8777330e-03 2.5890740e-03 -2.7547590e-05 
3.0162660e-03 2.7786540e-03 -7.3657364e-05 
2.8771737e-03 2.6306896e-03 -8.3090265e-05 
2.9007813e-03 2.6293951e-03 -4.7088586e-05 
2.9490311e-03 2.6650247e-03 -2.3000455e-05 
2.9214632e-03 2.6714134e-03 -7.2441537e-05 
2.8580597e-03 2.6059945e-03 -7.8288998e-05 
2.8376859e-03 2.5639501e-03 -5.2307136e-05 
2.8755716e-03 2.5815084e-03 -2.0453723e-05 
2.9095451e-03 2.6147761e-03 -1.4487275e-05 
2.9818558e-03 2.7328250e-03 -6.4477259e-05 
2.9860393e-03 2.7297947e-03 -5.3930864e-05 
2.8749434e-03 2.6282945e-03 -8.4031766e-05 
2.8351585e-03 2.5735283e-03 -6.8776491e-05 
2.8627259e-03 2.5958058e-03 -5.8254340e-05 
2.8471535e-03 2.5557412e-03 -2.7454411e-05 
2.9487098e-03 2.6750183e-03 -3.6583064e-05 
2.9354435e-03 2.6788709e-03 -6.2111227e-05 
2.8736666e-03 2.5756627e-03 -1.4849355e-05 
2.8412202e-03 2.5905534e-03 -8.3208863e-05 
2.9772054e-03 2.7345072e-03 -7.4181502e-05 
2.8283179e-03 2.5726971e-03 -7.7962461e-05 
2.9110368e-03 2.6227685e-03 -2.2433534e-05 
2.8789684e-03 2.6260116e-03 -7.5315562e-05 
2.8446780e-03 2.5478918e-03 -2.0169147e-05 
2.8016714e-03 2.5241510e-03 -5.1554223e-05 
2.8720405e-03 2.5732710e-03 -1.3754627e-05 
2.8055636e-03 2.5405008e-03 -6.8119982e-05 
2.9430788e-03 2.6892810e-03 -6.4863496e-05 
2.9471966e-03 2.6862724e-03 -5.4284767e-05 
2.8385520e-03 2.5881631e-03 -8.4255764e-05 
2.8163660e-03 2.5224730e-03 -2.7380280e-05 
2.9102445e-03 2.6322741e-03 -3.6495450e-05 
2.8366745e-03 2.5348281e-03 -1.4057432e-05 
2.7983692e-03 2.5393919e-03 -7.7581339e-05 
2.9024314e-03 2.6421358e-03 -6.2365049e-05 
2.8052570e-03 2.5508036e-03 -8.3404608e-05 
2.8138389e-03 2.5144075e-03 -1.9842109e-05 
2.8316497e-03 2.5473575e-03 -3.8719249e-05 
2.9380654e-03 2.6906729e-03 -7.4840536e-05 
2.8459541e-03 2.5734969e-03 -5.3175176e-05 
2.8728279e-03 2.5806888e-03 -2.1916496e-05 
2.8058742e-03 2.5216411e-03 -4.1800609e-05 
2.8503651e-03 2.5910996e-03 -7.1346360e-05 
2.7758509e-03 2.5075315e-03 -6.7448513e-05 
2.7660935e-03 2.4851391e-03 -5.0992425e-05 
2.7855581e-03 2.4892783e-03 -2.7321455e-05 
2.8345766e-03 2.5323012e-03 -1.3010887e-05 
2.9040305e-03 2.6459801e-03 -6.5401917e-05 
2.9081041e-03 2.6430280e-03 -5.4682678e-05 
2.8021717e-03 2.5479693e-03 -8.4700572e-05 
2.7684111e-03 2.5062016e-03 -7.7183431e-05 
2.8715960e-03 2.5895170e-03 -3.6153586e-05 
2.7828761e-03 2.4809306e-03 -1.9501702e-05 
2.7995303e-03 2.4944767e-03 -1.3162900e-05 
2.8605482e-03 2.5959434e-03 -6.2806299e-05 
2.7693459e-03 2.5114233e-03 -8.3609237e-05 
2.7948830e-03 2.5079614e-03 -3.9264487e-05 
2.8088954e-03 2.5333760e-03 -5.3981239e-05 
2.7459660e-03 2.4745867e-03 -6.6774788e-05 
2.8345613e-03 2.5387348e-03 -2.1371576e-05 
2.8985003e-03 2.6468635e-03 -7.5644923e-05 
2.7546363e-03 2.4560979e-03 -2.7306327e-05 
2.8120007e-03 2.5490434e-03 -7.1745235e-05 
2.7312841e-03 2.4471674e-03 -5.0290077e-05 
2.7969764e-03 2.4915584e-03 -1.2255119e-05 
2.7382267e-03 2.4731949e-03 -7.6863806e-05 
2.7658909e-03 2.5082887e-03 -8.5156214e-05 
2.8645815e-03 2.6025730e-03 -6.6106215e-05 
2.8685913e-03 2.5996345e-03 -5.5259901e-05 
2.7517348e-03 2.4475779e-03 -1.9280767e-05 
2.8323808e-03 2.5466471e-03 -3.5964211e-05 
2.7159783e-03 2.4417557e-03 -6.6114633e-05 
2.7625705e-03 2.4544355e-03 -1.2248555e-05 
2.7416789e-03 2.4515644e-03 -4.0492254e-05 
2.8211589e-03 2.5529719e-03 -6.3421787e-05 
2.7331940e-03 2.4722139e-03 -8.3953331e-05 
2.7582829e-03 2.4688595e-03 -3.9838145e-05 
2.7235097e-03 2.4231076e-03 -2.7371905e-05 
2.7719380e-03 2.4936660e-03 -5.4669876e-05 
2.7959626e-03 2.4966809e-03 -2.0722717e-05 
2.8587237e-03 2.6030052e-03 -7.6471275e-05 
2.6969730e-03 2.4101266e-03 -4.9664410e-05 
2.7079666e-03 2.4401746e-03 -7.6510885e-05 
2.7692302e-03 2.5023548e-03 -7.2091600e-05 
2.7596119e-03 2.4512042e-03 -1.1464660e-05 
2.7205225e-03 2.4143185e-03 -1.8984001e-05 
2.7294566e-03 2.4689492e-03 -8.5691769e-05 
2.8248883e-03 2.5592088e-03 -6.6794906e-05 
2.8288511e-03 2.5562884e-03 -5.5815712e-05 
2.6855208e-03 2.4086994e-03 -6.5576271e-05 
2.6924717e-03 2.3902191e-03 -2.7396931e-05 
2.7255374e-03 2.4146743e-03 -1.1411575e-05 
2.7919607e-03 2.5024526e-03 -3.5396937e-05 
2.6971847e-03 2.4335755e-03 -8.4289633e-05 
2.7216352e-03 2.4301545e-03 -4.0469102e-05 
2.7350427e-03 2.4543207e-03 -5.5506691e-05 
2.7848671e-03 2.5136303e-03 -6.4169719e-05 
2.7316003e-03 2.4654544e-03 -7.7958641e-05 
2.6777096e-03 2.4074852e-03 -7.6307202e-05 
2.7566303e-03 2.4538909e-03 -1.9614796e-05 
2.6632021e-03 2.3739634e-03 -4.9047136e-05 
2.8186862e-03 2.5592502e-03 -7.7364086e-05 
2.6892745e-03 2.3811730e-03 -1.8882527e-05 
2.7222580e-03 2.4113399e-03 -1.0589523e-05 
2.6930985e-03 2.4299822e-03 -8.6331165e-05 
2.6646706e-03 2.3764772e-03 -5.0661038e-05 
2.7850589e-03 2.5160231e-03 -6.7580389e-05 
2.7889675e-03 2.5131283e-03 -5.6482229e-05 
2.6605248e-03 2.3565795e-03 -2.7517104e-05 
2.6497361e-03 2.3732544e-03 -6.9685593e-05 
2.7300925e-03 2.4570809e-03 -6.8282105e-05 
2.6885516e-03 2.3753282e-03 -1.0483870e-05 
2.6716718e-03 2.3781124e-03 -4.2082200e-05 
2.6611248e-03 2.3949945e-03 -8.4806619e-05 
2.6849825e-03 2.3916902e-03 -4.1215844e-05 
2.7194917e-03 2.4124999e-03 -1.6640968e-05 
2.7459310e-03 2.4513460e-03 -3.2957236e-05 
2.6947046e-03 2.4261312e-03 -7.8694706e-05 
2.6301555e-03 2.3385950e-03 -4.8429993e-05 
2.7453541e-03 2.4711525e-03 -6.4923835e-05 
2.6582901e-03 2.3485189e-03 -1.8477704e-05 
2.7784274e-03 2.5157209e-03 -7.8396304e-05 
2.6336533e-03 2.3286508e-03 -2.7834283e-05 
2.6313919e-03 2.3584238e-03 -7.7229757e-05 
2.6850072e-03 2.3716111e-03 -9.7933098e-06 
2.6568973e-03 2.3913907e-03 -8.6988912e-05 
2.6188155e-03 2.3371801e-03 -6.4682623e-05 
2.7449846e-03 2.4732084e-03 -6.8530397e-05 
2.7488363e-03 2.4703590e-03 -5.7312020e-05 
2.6782977e-03 2.4045960e-03 -7.2895040e-05 
2.6515892e-03 2.3361261e-03 -9.7229477e-06 
2.6250486e-03 2.3567020e-03 -8.5403473e-05 
2.6956275e-03 2.3906061e-03 -2.1627449e-05 
2.7004485e-03 2.4238084e-03 -6.6086941e-05 
2.5977800e-03 2.3041819e-03 -4.7905029e-05 
2.6213694e-03 2.3110677e-03 -2.0285643e-05 
2.6008866e-03 2.3228622e-03 -7.1976137e-05 
2.7058583e-03 2.4100372e-03 -3.4865116e-05 
2.6153454e-03 2.3308052e-03 -6.0849929e-05 
2.7381212e-03 2.4724510e-03 -7.9423575e-05 
2.6326107e-03 2.3402257e-03 -4.7496789e-05 
2.5973201e-03 2.2976229e-03 -3.8448310e-05 
2.5657376e-03 2.2704725e-03 -4.7315858e-05 
2.5708689e-03 2.2870824e-03 -6.5295659e-05 
2.5834248e-03 2.2742033e-03 -2.4288176e-05 
2.5787386e-03 2.3031018e-03 -7.7878241e-05 
2.5990854e-03 2.2846374e-03 -1.4947079e-05 
2.5891105e-03 2.3188516e-03 -8.6065353e-05 
2.6148048e-03 2.2974205e-03 -8.8287716e-06 
2.6055563e-03 2.3364683e-03 -8.7308086e-05 
2.6316794e-03 2.3155767e-03 -9.2448445e-06 
2.6254165e-03 2.3522377e-03 -7.8961195e-05 
2.6470106e-03 2.3361484e-03 -1.6396332e-05 
2.6461771e-03 2.3681545e-03 -6.9652218e-05 
2.6616971e-03 2.3586070e-03 -2.7349481e-05 
2.5908421e-03 2.2940657e-03 -4.3470296e-05 
2.6659148e-03 2.3869870e-03 -6.6523833e-05 
2.6759650e-03 2.3814817e-03 -4.0034080e-05 
2.6834819e-03 2.4073576e-03 -6.9162073e-05 
2.6886773e-03 2.4049375e-03 -5.5957873e-05 
2.6977062e-03 2.4295538e-03 -8.0479207e-05 
2.5482925e-03 2.2675931e-03 -7.1914466e-05 
2.5648442e-03 2.2513696e-03 -1.8455559e-05 
2.5324780e-03 2.2356256e-03 -4.6716999e-05 
2.5532225e-03 2.2813899e-03 -8.6752261e-05 
2.5766459e-03 2.2573981e-03 -7.9027377e-06 
2.5449519e-03 2.2431705e-03 -3.8273876e-05 
2.5641099e-03 2.2925369e-03 -8.7150664e-05 
2.5933550e-03 2.3156269e-03 -7.4880627e-05 
2.6117817e-03 2.3026012e-03 -2.1203845e-05 
2.5194676e-03 2.2330780e-03 -6.4639746e-05 
2.5305150e-03 2.2198716e-03 -2.4515182e-05 
2.5870984e-03 2.2696455e-03 -9.4919615e-06 
2.6119431e-03 2.3309174e-03 -6.8266731e-05 
2.5262402e-03 2.2482956e-03 -7.8365287e-05 
2.6244826e-03 2.3239402e-03 -3.4229375e-05 
2.5418096e-03 2.2255743e-03 -1.4661709e-05 
2.6571306e-03 2.3866822e-03 -8.1603423e-05 
2.6302757e-03 2.3509376e-03 -6.9669164e-05 
2.6363269e-03 2.3476430e-03 -5.3176846e-05 
2.5304365e-03 2.2332580e-03 -4.6528028e-05 
2.4972777e-03 2.1988531e-03 -4.6089768e-05 
2.5169181e-03 2.2439389e-03 -8.7553708e-05 
2.5487489e-03 2.2733579e-03 -8.2311315e-05 
2.5186471e-03 2.2014135e-03 -1.3929567e-05 
2.5361395e-03 2.2153885e-03 -6.9853568e-06 
2.4884138e-03 2.2008976e-03 -6.4644773e-05 
2.4993839e-03 2.1875314e-03 -2.3680786e-05 
2.5694321e-03 2.2556891e-03 -1.6094922e-05 
2.4888355e-03 2.2104613e-03 -8.0152466e-05 
2.5852895e-03 2.3030799e-03 -6.8822992e-05 
2.5115495e-03 2.2396375e-03 -9.0439848e-05 
2.5933415e-03 2.2958878e-03 -4.1717627e-05 
2.4935228e-03 2.1964705e-03 -4.8692455e-05 
2.6164262e-03 2.3440286e-03 -8.2746672e-05 
2.5661956e-03 2.2586223e-03 -2.6511841e-05 
2.5008405e-03 2.2022466e-03 -4.5821223e-05 
2.5046307e-03 2.1844457e-03 -8.9459918e-06 
2.5306433e-03 2.2101442e-03 -7.1530294e-06 
2.5446301e-03 2.2633830e-03 -7.3403462e-05 
2.4597379e-03 2.1601846e-03 -4.5451139e-05 
2.4658388e-03 2.1798078e-03 -6.8481895e-05 
2.4838999e-03 2.1671746e-03 -1.5837471e-05 
2.5126282e-03 2.2369605e-03 -8.4717765e-05 
2.4804247e-03 2.2062436e-03 -8.8415065e-05 
2.5105206e-03 2.2106164e-03 -4.3197753e-05 
2.5834665e-03 2.3033067e-03 -7.2581104e-05 
2.5872267e-03 2.3004285e-03 -6.0625774e-05 
2.5318088e-03 2.2160111e-03 -1.4484917e-05 
2.4933463e-03 2.1713886e-03 -6.0433267e-06 
2.4574995e-03 2.1782138e-03 -8.0786856e-05 
2.4579973e-03 2.1612376e-03 -5.0697723e-05 
2.4748165e-03 2.2017993e-03 -9.1420319e-05 
2.5449183e-03 2.2614014e-03 -6.9935530e-05 
2.5529922e-03 2.2541967e-03 -4.2261967e-05 
2.4497546e-03 2.1349946e-03 -1.9992569e-05 
2.4643240e-03 2.1446834e-03 -1.1233576e-05 
2.5755286e-03 2.3014434e-03 -8.3950072e-05 
2.4811716e-03 2.2038752e-03 -8.4309984e-05 
2.4436188e-03 2.1687259e-03 -8.9325265e-05 
2.4300755e-03 2.1470606e-03 -7.5411786e-05 
2.4869782e-03 2.1656491e-03 -6.5429599e-06 
2.4197446e-03 2.1189339e-03 -4.4754885e-05 
2.4649834e-03 2.1653983e-03 -4.5791065e-05 
2.5428995e-03 2.2614088e-03 -7.3683710e-05 
2.5466431e-03 2.2585252e-03 -6.1577593e-05 
2.5036111e-03 2.1917168e-03 -2.2061049e-05 
2.4153078e-03 2.1039834e-03 -2.6701535e-05 
2.4303785e-03 2.1122901e-03 -1.4595704e-05 
2.4361124e-03 2.1273699e-03 -3.0640749e-05 
2.4377874e-03 2.1639518e-03 -9.2567047e-05 
2.4482058e-03 2.1250935e-03 -4.9720716e-06 
2.4007198e-03 2.1120235e-03 -6.6484572e-05 
2.5046091e-03 2.2201163e-03 -7.1040362e-05 
2.4792259e-03 2.1955988e-03 -7.4340125e-05 
2.5127775e-03 2.2127768e-03 -4.2784144e-05 
2.4057769e-03 2.1255857e-03 -8.1595252e-05 
2.5347690e-03 2.2593874e-03 -8.5194813e-05 
2.4046598e-03 2.1062046e-03 -4.9475424e-05 
2.4383480e-03 2.1610714e-03 -8.6947381e-05 
2.4065662e-03 2.1311499e-03 -9.0369838e-05 
2.4275805e-03 2.1278129e-03 -4.6665660e-05 
2.3963645e-03 2.0804699e-03 -1.8768469e-05 
2.4105061e-03 2.0898802e-03 -1.0047223e-05 
2.3771215e-03 2.0754971e-03 -4.4013690e-05 
2.4409117e-03 2.1187840e-03 -5.9825993e-06 
2.5024416e-03 2.2200255e-03 -7.4822718e-05 
2.5061604e-03 2.2171247e-03 -6.2578270e-05 
2.3730954e-03 2.0870189e-03 -7.2022711e-05 
2.3962914e-03 2.1000535e-03 -5.3737946e-05 
2.3796288e-03 2.1009520e-03 -8.5561114e-05 
2.4004281e-03 2.1262683e-03 -9.3729301e-05 
2.4644078e-03 2.1794527e-03 -7.2182294e-05 
2.3789383e-03 2.0776154e-03 -4.4934859e-05 
2.4000630e-03 2.0762435e-03 -3.9119577e-06 
2.3619467e-03 2.0497977e-03 -2.5453832e-05 
2.3766698e-03 2.0578543e-03 -1.3449099e-05 
2.4708216e-03 2.1717376e-03 -4.5855832e-05 
2.4940763e-03 2.2177903e-03 -8.6478438e-05 
2.3692711e-03 2.0933782e-03 -9.1407877e-05 
2.3959801e-03 2.0911680e-03 -3.8497114e-05 
2.3996674e-03 2.1213409e-03 -8.6834683e-05 
2.3436518e-03 2.0524943e-03 -6.3321451e-05 
2.3492584e-03 2.0666562e-03 -7.9288286e-05 
2.4342837e-03 2.1229482e-03 -2.5157846e-05 
2.4618586e-03 2.1788485e-03 -7.6041339e-05 
2.4655648e-03 2.1759500e-03 -6.3509935e-05 
2.3498966e-03 2.0478156e-03 -4.3624324e-05 
2.3315581e-03 2.0293891e-03 -4.3288896e-05 
2.3571278e-03 2.0630106e-03 -5.8471840e-05 
2.3628750e-03 2.0884494e-03 -9.4871335e-05 
2.3850556e-03 2.0829637e-03 -4.3567405e-05 
2.3916718e-03 2.0692225e-03 -5.6866720e-06 
2.3427708e-03 2.0263772e-03 -1.7591336e-05 
2.3566252e-03 2.0354851e-03 -8.8237366e-06 
2.3950932e-03 2.0959370e-03 -4.8597969e-05 
2.4380565e-03 2.1389117e-03 -4.6851277e-05 
2.4238564e-03 2.1386303e-03 -7.3457799e-05 
2.3961610e-03 2.1121432e-03 -7.7180353e-05 
2.3195413e-03 2.0324341e-03 -7.1090908e-05 
2.3255739e-03 2.0461199e-03 -8.5699037e-05 
2.3629193e-03 2.0851328e-03 -8.9277477e-05 
2.3318031e-03 2.0558699e-03 -9.2440132e-05 
2.4531437e-03 2.1762373e-03 -8.7782100e-05 
2.3520701e-03 2.0525467e-03 -4.8552345e-05 
2.3249232e-03 2.0235004e-03 -4.4927707e-05 
2.3490286e-03 2.0249577e-03 -2.8561205e-06 
2.3085272e-03 1.9960189e-03 -2.4293417e-05 
2.3229390e-03 2.0038777e-03 -1.2308908e-05 
2.4210305e-03 2.1376698e-03 -7.7255325e-05 
2.4247300e-03 2.1347620e-03 -6.4491069e-05 
2.3251872e-03 2.0507104e-03 -9.6083306e-05 
2.2917925e-03 1.9999810e-03 -6.2366395e-05 
2.2954030e-03 2.0122172e-03 -7.8838937e-05 
2.3489594e-03 2.0433760e-03 -3.7272293e-05 
2.2828754e-03 1.9804717e-03 -4.2488824e-05 
2.3833066e-03 2.0978607e-03 -7.4782583e-05 
2.3916794e-03 2.0904422e-03 -4.4305831e-05 
2.2957989e-03 1.9947980e-03 -4.5511311e-05 
2.2940324e-03 2.0183655e-03 -9.3615163e-05 
2.3396211e-03 2.0173558e-03 -5.3429189e-06 
2.3141091e-03 2.0150894e-03 -4.9549675e-05 
2.2891478e-03 1.9727487e-03 -1.6376740e-05 
2.3026865e-03 1.9816060e-03 -7.6858087e-06 
2.4121918e-03 2.1348016e-03 -8.9033652e-05 
2.3240198e-03 2.0454773e-03 -8.9039531e-05 
2.2659062e-03 1.9783196e-03 -7.0225520e-05 
2.2603746e-03 1.9661202e-03 -5.7360772e-05 
2.3540426e-03 2.0426470e-03 -2.5523768e-05 
2.2714676e-03 1.9918699e-03 -8.5784079e-05 
2.2680224e-03 1.9679614e-03 -4.6703532e-05 
2.3802861e-03 2.0966895e-03 -7.8487530e-05 
2.3839769e-03 2.0937743e-03 -6.5519576e-05 
2.2871911e-03 2.0131206e-03 -9.7225369e-05 
2.2619881e-03 1.9483198e-03 -2.0718655e-05 
2.2948692e-03 1.9709235e-03 -1.5736996e-06 
2.3271423e-03 2.0432796e-03 -7.9415215e-05 
2.2730734e-03 1.9682937e-03 -3.7883492e-05 
2.2690771e-03 1.9503533e-03 -1.1134507e-05 
2.3573092e-03 2.0576015e-03 -4.7623082e-05 
2.3427641e-03 2.0574832e-03 -7.6055563e-05 
2.2824001e-03 1.9820782e-03 -4.6638273e-05 
2.2867713e-03 2.0095336e-03 -9.1855261e-05 
2.2560477e-03 1.9809648e-03 -9.4782808e-05 
2.2368568e-03 1.9445315e-03 -6.0714894e-05 
2.2414944e-03 1.9582892e-03 -7.8389312e-05 
2.3712316e-03 2.0936157e-03 -9.0310779e-05 
2.2306237e-03 1.9284803e-03 -4.1704563e-05 
2.2473426e-03 1.9592198e-03 -6.9596084e-05 
2.3012517e-03 2.0004530e-03 -4.5869972e-05 
2.2354478e-03 1.9194339e-03 -1.5177694e-05 
2.2487589e-03 1.9280247e-03 -6.4294181e-06 
2.2843091e-03 1.9624874e-03 -4.8912812e-06 
2.2489768e-03 1.9754146e-03 -9.8609889e-05 
2.2350652e-03 1.9358961e-03 -4.7911035e-05 
2.3394634e-03 2.0560152e-03 -7.9669539e-05 
2.3431431e-03 2.0531015e-03 -6.6535169e-05 
2.2538179e-03 1.9398857e-03 -1.9631188e-05 
2.2123454e-03 1.9176480e-03 -5.5488657e-05 
2.2120585e-03 1.9242943e-03 -6.9206413e-05 
2.2176888e-03 1.9384359e-03 -8.6109765e-05 
2.2147649e-03 1.9184086e-03 -5.2716758e-05 
2.2385356e-03 1.9462514e-03 -6.1656589e-05 
2.3022634e-03 2.0173537e-03 -7.7321725e-05 
2.2178928e-03 1.9433855e-03 -9.5958399e-05 
2.3106968e-03 2.0098377e-03 -4.5520304e-05 
2.2080033e-03 1.8949026e-03 -1.9556692e-05 
2.2474637e-03 1.9699656e-03 -9.1563998e-05 
2.2185266e-03 1.9251560e-03 -5.8756414e-05 
2.3303479e-03 2.0528068e-03 -9.1512047e-05 
2.2372180e-03 1.9137339e-03 -2.3208099e-07 
2.2152548e-03 1.8970591e-03 -9.9246845e-06 
2.2737612e-03 1.9631202e-03 -2.5875659e-05 
2.1926747e-03 1.9161394e-03 -9.1320275e-05 
2.1849205e-03 1.9013239e-03 -7.6529665e-05 
2.2106380e-03 1.9377978e-03 -9.9964775e-05 
2.2317765e-03 1.9324244e-03 -4.7515721e-05 
2.2988613e-03 2.0157059e-03 -8.0833997e-05 
2.3025342e-03 2.0127867e-03 -6.7532084e-05 
2.1743432e-03 1.8729004e-03 -4.0819919e-05 
2.2499859e-03 1.9672976e-03 -8.1957958e-05 
2.2412613e-03 1.9442813e-03 -5.2755273e-05 
2.1890674e-03 1.8895031e-03 -4.5423567e-05 
2.2035164e-03 1.9008722e-03 -3.9928629e-05 
2.1816229e-03 1.8663203e-03 -1.3969088e-05 
2.1947918e-03 1.8747902e-03 -5.1612119e-06 
2.2764187e-03 1.9774856e-03 -4.8980630e-05 
2.2099297e-03 1.9340354e-03 -9.4178860e-05 
2.1794483e-03 1.9058277e-03 -9.7233402e-05 
2.2618726e-03 1.9776188e-03 -7.8532743e-05 
2.2251778e-03 1.9048189e-03 -4.6902587e-06 
2.1618605e-03 1.8829081e-03 -8.5387379e-05 
2.2895792e-03 2.0123380e-03 -9.2718787e-05 
2.1551102e-03 1.8677569e-03 -6.7943241e-05 
2.1521943e-03 1.8400578e-03 -1.8421475e-05 
2.1717113e-03 1.9000702e-03 -1.0148299e-04 
2.1612509e-03 1.8440463e-03 -8.7296867e-06 
2.2582659e-03 1.9757298e-03 -8.1960556e-05 
2.2619243e-03 1.9728157e-03 -6.8500391e-05 
2.1343175e-03 1.8441384e-03 -6.1206054e-05 
2.1471812e-03 1.8445504e-03 -3.7099169e-05 
2.1753826e-03 1.8531018e-03 1.1808863e-06 
2.1507519e-03 1.8490446e-03 -3.9224269e-05 
2.1316216e-03 1.8495992e-03 -7.7761528e-05 
2.1403637e-03 1.8682546e-03 -9.8610552e-05 
2.1596826e-03 1.8648416e-03 -5.3784635e-05 
2.2216451e-03 1.9382053e-03 -7.9720914e-05 
2.2301448e-03 1.9305577e-03 -4.6686935e-05 
2.1698179e-03 1.8945155e-03 -9.4036637e-05 
2.1136131e-03 1.8135253e-03 -3.9942504e-05 
2.2488844e-03 1.9721955e-03 -9.3863746e-05 
2.1276639e-03 1.8136420e-03 -1.2857343e-05 
2.1405960e-03 1.8218711e-03 -4.0695300e-06 
2.1443532e-03 1.8336645e-03 -2.0554025e-05 
2.1280581e-03 1.8418612e-03 -6.9559625e-05 
2.1328533e-03 1.8624573e-03 -1.0258341e-04 
2.1536706e-03 1.8569791e-03 -4.9703140e-05 
2.1082673e-03 1.8312895e-03 -8.6885855e-05 
2.1018111e-03 1.8163630e-03 -6.8973699e-05 
2.1194902e-03 1.8196165e-03 -4.1043098e-05 
2.2178090e-03 1.9360426e-03 -8.3060047e-05 
2.1720820e-03 1.8919131e-03 -8.4611471e-05 
2.2214500e-03 1.9331356e-03 -6.9430920e-05 
2.1620223e-03 1.8429874e-03 -4.5382271e-06 
2.1630391e-03 1.8687939e-03 -5.4855132e-05 
2.1240623e-03 1.8045807e-03 -1.1143005e-06 
2.1365695e-03 1.8277542e-03 -2.3840157e-05 
2.0937540e-03 1.7844278e-03 -1.9748639e-05 
2.1319673e-03 1.8586391e-03 -9.6802964e-05 
2.1072053e-03 1.7914922e-03 -7.7172290e-06 
2.1015131e-03 1.8306779e-03 -9.9752106e-05 
2.0963184e-03 1.7974221e-03 -4.1292064e-05 
2.1813193e-03 1.8990096e-03 -8.0893660e-05 
2.1113742e-03 1.8074907e-03 -3.2214295e-05 
2.0771082e-03 1.7888849e-03 -6.1598708e-05 
2.1877144e-03 1.8908122e-03 -5.0335388e-05 
2.0939265e-03 1.8042800e-03 -6.0347043e-05 
2.2082566e-03 1.9323131e-03 -9.4990472e-05 
2.0783013e-03 1.7983493e-03 -7.9026002e-05 
2.1094717e-03 1.7888872e-03 2.5022371e-06 
2.0937885e-03 1.8248846e-03 -1.0388463e-04 
2.1540071e-03 1.8462116e-03 -2.6300417e-05 
2.0738330e-03 1.7614800e-03 -1.1784483e-05 
2.0866133e-03 1.7694560e-03 -2.9451510e-06 
2.1773232e-03 1.8965715e-03 -8.4111605e-05 
2.1809505e-03 1.8936769e-03 -7.0308677e-05 
2.1150969e-03 1.8166727e-03 -4.3853990e-05 
2.0482580e-03 1.7501886e-03 -3.9033490e-05 
2.0878690e-03 1.7898189e-03 -4.2585452e-05 
2.0549570e-03 1.7801612e-03 -8.8294546e-05 
2.0486922e-03 1.7655268e-03 -7.0034286e-05 
2.0623470e-03 1.7932249e-03 -1.0091397e-04 
2.1551058e-03 1.8594379e-03 -5.1479197e-05 
2.0915749e-03 1.8189208e-03 -9.6501397e-05 
2.1410773e-03 1.8599393e-03 -8.2063736e-05 
2.0635142e-03 1.7582986e-03 -2.5721758e-05 
2.1675965e-03 1.8926922e-03 -9.6062722e-05 
2.0400784e-03 1.7325404e-03 -1.8691457e-05 
2.0533712e-03 1.7394731e-03 -6.6446632e-06 
2.0644995e-03 1.7468875e-03 2.1440532e-07 
2.0945063e-03 1.7780190e-03 -4.2992306e-06 
2.0362188e-03 1.7415655e-03 -4.5238470e-05 
2.0545884e-03 1.7873542e-03 -1.0508277e-04 
2.0250666e-03 1.7475764e-03 -8.0330217e-05 
2.0195243e-03 1.7328194e-03 -6.0177168e-05 
2.0937251e-03 1.8161782e-03 -8.6879292e-05 
2.1368559e-03 1.8573387e-03 -8.5109416e-05 
2.1404696e-03 1.8544473e-03 -7.1175891e-05 
2.0216871e-03 1.7173775e-03 -2.3537616e-05 
2.0486109e-03 1.7450394e-03 -2.7810014e-05 
2.0781036e-03 1.7807729e-03 -4.3554690e-05 
2.0534438e-03 1.7831834e-03 -9.9222365e-05 
2.0230210e-03 1.7556869e-03 -1.0218447e-04 
2.0498056e-03 1.7591488e-03 -5.5281595e-05 
2.0200917e-03 1.7097068e-03 -1.0671872e-05 
2.1062160e-03 1.8264542e-03 -8.3104009e-05 
2.0327442e-03 1.7176021e-03 -1.8182953e-06 
2.1094079e-03 1.8135399e-03 -4.8326245e-05 
2.0389899e-03 1.7208796e-03 4.0452096e-06 
2.1271356e-03 1.8533263e-03 -9.7002092e-05 
2.0016748e-03 1.7295192e-03 -8.9808076e-05 
1.9955558e-03 1.7150749e-03 -7.1172450e-05 
2.0149727e-03 1.7261722e-03 -5.5883072e-05 
2.0081475e-03 1.7106198e-03 -3.6577512e-05 
2.0151595e-03 1.7496899e-03 -1.0627138e-04 
2.0561458e-03 1.7654337e-03 -5.5771608e-05 
1.9776262e-03 1.6823906e-03 -3.8070706e-05 
2.0966306e-03 1.8184467e-03 -8.5995096e-05 
1.9855879e-03 1.6985235e-03 -5.6318182e-05 
2.1002295e-03 1.8155798e-03 -7.1978837e-05 
1.9995864e-03 1.6878811e-03 -5.5049491e-06 
2.0119275e-03 1.6960023e-03 2.2767288e-06 
2.0618623e-03 1.7578834e-03 -2.7251177e-05 
1.9835576e-03 1.7182271e-03 -1.0334271e-04 
1.9718457e-03 1.6972617e-03 -8.1640770e-05 
1.9664974e-03 1.6826713e-03 -6.1037783e-05 
2.0105692e-03 1.7194994e-03 -5.0710478e-05 
2.0128048e-03 1.7435530e-03 -9.8628807e-05 
2.0609510e-03 1.7829511e-03 -8.3948107e-05 
1.9984599e-03 1.6826760e-03 3.6786710e-06 
2.0695052e-03 1.7752945e-03 -4.8662987e-05 
1.9872251e-03 1.6905786e-03 -3.6218527e-05 
1.9750877e-03 1.6723721e-03 -2.1806363e-05 
2.0868147e-03 1.8143803e-03 -9.7942662e-05 
1.9931928e-03 1.6952092e-03 -3.4099365e-05 
2.0169860e-03 1.7033581e-03 -2.4411183e-06 
1.9663672e-03 1.6584387e-03 -9.6013500e-06 
1.9788833e-03 1.6661531e-03 -6.9227377e-07 
1.9592554e-03 1.6643670e-03 -3.6756879e-05 
1.9755354e-03 1.7121441e-03 -1.0762083e-04 
1.9599765e-03 1.6773799e-03 -6.3560314e-05 
2.0108097e-03 1.7123318e-03 -3.4748471e-05 
1.9484563e-03 1.6792429e-03 -9.1241069e-05 
1.9425573e-03 1.6650343e-03 -7.2256313e-05 
1.9392765e-03 1.6545504e-03 -5.6162880e-05 
2.0141047e-03 1.7402574e-03 -8.9278736e-05 
1.9740392e-03 1.6669177e-03 -1.2055290e-05 
2.0564522e-03 1.7799112e-03 -8.6835797e-05 
2.0600343e-03 1.7770630e-03 -7.2700648e-05 
1.9412305e-03 1.6370169e-03 -1.4421359e-05 
1.9529184e-03 1.6524750e-03 -2.4095338e-05 
1.9552507e-03 1.6617161e-03 -3.9405455e-05 
1.9437404e-03 1.6806928e-03 -1.0455593e-04 
1.9624776e-03 1.6774070e-03 -5.8867910e-05 
1.9727594e-03 1.7055097e-03 -9.9748031e-05 
1.9458042e-03 1.6367465e-03 -4.4953299e-06 
2.0207632e-03 1.7446759e-03 -8.4888328e-05 
2.0295244e-03 1.7370841e-03 -4.9064853e-05 
1.9633174e-03 1.6486506e-03 5.7939906e-06 
2.0464745e-03 1.7757763e-03 -9.8825723e-05 
1.9187420e-03 1.6473036e-03 -8.2934646e-05 
1.9135985e-03 1.6329528e-03 -6.2008527e-05 
1.9447543e-03 1.6423024e-03 -1.8639856e-05 
1.9361856e-03 1.6492832e-03 -5.1607960e-05 
1.9357147e-03 1.6745909e-03 -1.0872822e-04 
1.9266397e-03 1.6338791e-03 -3.7504375e-05 
1.9011362e-03 1.6097882e-03 -3.7081289e-05 
2.0161867e-03 1.7416024e-03 -8.7673703e-05 
2.0197767e-03 1.7387657e-03 -7.3436073e-05 
1.9127488e-03 1.6075961e-03 -8.5072643e-06 
1.9251078e-03 1.6151406e-03 4.5533739e-07 
1.9631307e-03 1.6761684e-03 -5.4929580e-05 
1.9040349e-03 1.6433276e-03 -1.0567283e-04 
1.8953019e-03 1.6294024e-03 -9.2678529e-05 
1.8895528e-03 1.6153908e-03 -7.3425581e-05 
1.9203724e-03 1.6261167e-03 -3.3364227e-05 
1.9327323e-03 1.6492401e-03 -5.8860551e-05 
1.9395970e-03 1.6726590e-03 -9.7106917e-05 
1.9204315e-03 1.6086061e-03 5.4942811e-06 
1.9108286e-03 1.6127443e-03 -2.3694396e-05 
1.9728586e-03 1.6995175e-03 -8.6301647e-05 
1.9894196e-03 1.6990604e-03 -4.9575250e-05 
1.9450422e-03 1.6353254e-03 -1.6764067e-06 
2.0063291e-03 1.7374068e-03 -9.9509380e-05 
1.8921550e-03 1.5859988e-03 -3.3455019e-06 
1.9041887e-03 1.5937787e-03 4.6788182e-06 
1.8791726e-03 1.5783410e-03 -1.3240780e-05 
1.9580133e-03 1.6586460e-03 -2.6326859e-05 
1.8958603e-03 1.6372306e-03 -1.0995191e-04 
1.8850358e-03 1.6054054e-03 -6.1201470e-05 
1.8606944e-03 1.5836295e-03 -6.2960411e-05 
1.8708853e-03 1.5824831e-03 -3.9525472e-05 
1.9762348e-03 1.7035815e-03 -8.8261921e-05 
1.8641610e-03 1.5970373e-03 -8.5913169e-05 
1.9798237e-03 1.7007630e-03 -7.3966658e-05 
1.8786391e-03 1.5833109e-03 -2.5197985e-05 
1.8644041e-03 1.6062777e-03 -1.0674847e-04 
1.8826223e-03 1.6030709e-03 -6.1382911e-05 
1.8883403e-03 1.5778431e-03 7.4400200e-06 
1.9553034e-03 1.6683214e-03 -5.3192034e-05 
1.8927084e-03 1.6304882e-03 -1.0205191e-04 
1.9408736e-03 1.6690633e-03 -8.6500659e-05 
1.8591346e-03 1.5571198e-03 -7.4305290e-06 
1.8713684e-03 1.5645111e-03 1.5915552e-06 
1.8580413e-03 1.5773305e-03 -5.4931526e-05 
1.9662611e-03 1.6993366e-03 -1.0015445e-04 
1.8421733e-03 1.5799274e-03 -9.4060641e-05 
1.8365585e-03 1.5661157e-03 -7.4536416e-05 
1.8284586e-03 1.5414312e-03 -3.6109959e-05 
1.8561616e-03 1.6001664e-03 -1.1102092e-04 
1.8464561e-03 1.5561283e-03 -3.1792628e-05 
1.8969487e-03 1.6294173e-03 -9.1293419e-05 
1.9362591e-03 1.6657389e-03 -8.8821813e-05 
1.9398334e-03 1.6629440e-03 -7.4431322e-05 
1.8293450e-03 1.5473666e-03 -4.7850404e-05 
1.8258208e-03 1.5293877e-03 -1.4596047e-05 
1.8384960e-03 1.5357186e-03 -2.3244938e-06 
1.8471802e-03 1.5405332e-03 5.1649281e-06 
1.8185462e-03 1.5362577e-03 -4.5291665e-05 
1.8268793e-03 1.5593455e-03 -8.0270242e-05 
1.8248467e-03 1.5694796e-03 -1.0781677e-04 
1.8127455e-03 1.5485545e-03 -8.5399930e-05 
1.8088630e-03 1.5370339e-03 -6.7232206e-05 
1.8722716e-03 1.5665465e-03 -2.6245056e-07 
1.9067064e-03 1.6369153e-03 -8.7039487e-05 
1.8530225e-03 1.5933928e-03 -1.0303379e-04 
1.8382755e-03 1.5645756e-03 -6.8377522e-05 
1.9097518e-03 1.6238368e-03 -4.9986495e-05 
1.8053001e-03 1.5128588e-03 -2.0057334e-05 
1.8306867e-03 1.5382305e-03 -2.4347964e-05 
1.9261993e-03 1.6613429e-03 -1.0069228e-04 
1.8069363e-03 1.5298013e-03 -5.5314627e-05 
1.8056600e-03 1.5071132e-03 -6.3664538e-06 
1.8177171e-03 1.5143030e-03 2.6896446e-06 
1.8166521e-03 1.5633109e-03 -1.1198339e-04 
1.7861655e-03 1.5115805e-03 -5.7318732e-05 
1.7931664e-03 1.5346123e-03 -9.5644784e-05 
1.7837272e-03 1.5172501e-03 -7.5629898e-05 
1.8962490e-03 1.6279760e-03 -8.9291330e-05 
1.8998119e-03 1.6252217e-03 -7.4854564e-05 
1.7999827e-03 1.5290080e-03 -6.8621441e-05 
1.8184837e-03 1.5123795e-03 9.0344092e-06 
1.8180100e-03 1.5320613e-03 -3.7148919e-05 
1.7851595e-03 1.5018740e-03 -3.7573718e-05 
1.7854959e-03 1.5328822e-03 -1.0868825e-04 
1.8576757e-03 1.5646844e-03 -2.6552696e-05 
1.8610354e-03 1.5939958e-03 -8.7664594e-05 
1.8067723e-03 1.5511927e-03 -1.0596219e-04 
1.7849656e-03 1.4858828e-03 -1.2509570e-06 
1.8698619e-03 1.5864768e-03 -5.0233648e-05 
1.7968335e-03 1.4932479e-03 7.0278197e-06 
1.7608538e-03 1.4785146e-03 -3.5328248e-05 
1.7931176e-03 1.5019345e-03 -2.0873098e-05 
1.7628755e-03 1.5032276e-03 -8.8175773e-05 
1.8861528e-03 1.6235694e-03 -1.0112644e-04 
1.7551754e-03 1.4860784e-03 -6.4857333e-05 
1.7735796e-03 1.5052374e-03 -7.0303591e-05 
1.7956184e-03 1.5079767e-03 -2.9431170e-05 
1.7772180e-03 1.5266984e-03 -1.1287146e-04 
1.8116450e-03 1.5347216e-03 -5.7020821e-05 
1.7601723e-03 1.4819206e-03 -4.4836575e-05 
1.7833884e-03 1.4802584e-03 8.6222308e-06 
1.8133681e-03 1.5519980e-03 -9.4166062e-05 
1.8562905e-03 1.5904763e-03 -8.9646688e-05 
1.8033932e-03 1.5019511e-03 1.8607770e-06 
1.8598451e-03 1.5877509e-03 -7.5199627e-05 
1.7825046e-03 1.5138763e-03 -7.1729890e-05 
1.7522143e-03 1.4575546e-03 -5.3381818e-06 
1.7641706e-03 1.4646343e-03 3.7944189e-06 
1.7463178e-03 1.4966780e-03 -1.0945440e-04 
1.7639244e-03 1.4936324e-03 -6.4548156e-05 
1.7283844e-03 1.4583021e-03 -5.7622372e-05 
1.7364003e-03 1.4821124e-03 -9.6477197e-05 
1.7310227e-03 1.4687844e-03 -7.6657147e-05 
1.8351714e-03 1.5622738e-03 -6.9832058e-05 
1.7738449e-03 1.5197484e-03 -1.0471391e-04 
1.8262529e-03 1.5614487e-03 -8.7930741e-05 
1.7599458e-03 1.4705159e-03 -1.8760880e-05 
1.8300907e-03 1.5493967e-03 -5.0478731e-05 
1.7300696e-03 1.4521622e-03 -4.0039744e-05 
1.8462379e-03 1.5860280e-03 -1.0138062e-04 
1.7287196e-03 1.4382729e-03 -1.0551328e-05 
1.7531123e-03 1.4518948e-03 1.0404876e-05 
1.7380506e-03 1.4904578e-03 -1.1359122e-04 
1.7339879e-03 1.4504832e-03 -2.7824635e-05 
1.7315818e-03 1.4365116e-03 -2.2203716e-07 
1.7025706e-03 1.4380009e-03 -6.5759399e-05 
1.8165545e-03 1.5532827e-03 -8.9836685e-05 
1.7059812e-03 1.4509819e-03 -8.9236994e-05 
1.8200832e-03 1.5506211e-03 -7.5423217e-05 
1.7588494e-03 1.4822882e-03 -4.8837035e-05 
1.6977635e-03 1.4202751e-03 -3.4512370e-05 
1.7202527e-03 1.4508503e-03 -5.8413465e-05 
1.7072671e-03 1.4607577e-03 -1.1022805e-04 
1.7055384e-03 1.4327271e-03 -4.7222286e-05 
1.7241071e-03 1.4372291e-03 -1.7775701e-05 
1.7294887e-03 1.4615331e-03 -6.3740488e-05 
1.7816954e-03 1.5199947e-03 -8.8312227e-05 
1.7280662e-03 1.4783589e-03 -1.0737987e-04 
1.6989717e-03 1.4084938e-03 -4.3573559e-06 
1.7108285e-03 1.4154625e-03 4.8557558e-06 
1.7892708e-03 1.5131906e-03 -5.4743799e-05 
1.8064430e-03 1.5486962e-03 -1.0151554e-04 
1.7388298e-03 1.4417901e-03 3.9512702e-06 
1.6837214e-03 1.4338982e-03 -9.7529221e-05 
1.6784507e-03 1.4208679e-03 -7.7562392e-05 
1.7117043e-03 1.4141158e-03 1.0196785e-05 
1.6724281e-03 1.4071035e-03 -5.7908586e-05 
1.6989454e-03 1.4545113e-03 -1.1424755e-04 
1.6794894e-03 1.4036554e-03 -3.4851408e-05 
1.7570291e-03 1.4714864e-03 -2.6482632e-05 
1.6816999e-03 1.4152505e-03 -5.7633762e-05 
1.7344627e-03 1.4789802e-03 -9.5315423e-05 
1.7768982e-03 1.5162202e-03 -8.9886438e-05 
1.7803771e-03 1.5136019e-03 -7.5534983e-05 
1.6723762e-03 1.3865574e-03 -9.6046197e-06 
1.6926205e-03 1.4082738e-03 -1.7286535e-05 
1.6910740e-03 1.4285789e-03 -6.9343565e-05 
1.6783474e-03 1.3876300e-03 7.9861627e-07 
1.6899548e-03 1.3947027e-03 9.2915570e-06 
1.6682988e-03 1.4251720e-03 -1.1090481e-04 
1.6970133e-03 1.4125739e-03 -1.7957054e-05 
1.7211991e-03 1.4417766e-03 -3.4409335e-05 
1.6752203e-03 1.3947143e-03 -2.2786877e-05 
1.6547304e-03 1.4035673e-03 -8.8451241e-05 
1.6955346e-03 1.4476327e-03 -1.0585144e-04 
1.6501491e-03 1.3903863e-03 -6.6653854e-05 
1.6920367e-03 1.3956544e-03 1.1715790e-05 
1.7470547e-03 1.4877953e-03 -8.8244975e-05 
1.7564719e-03 1.4825850e-03 -5.4073840e-05 
1.7301984e-03 1.4591940e-03 -5.6684810e-05 
1.6740588e-03 1.3874469e-03 -7.7746308e-06 
1.6653792e-03 1.3967835e-03 -4.9280345e-05 
1.6532011e-03 1.3855555e-03 -4.8684651e-05 
1.6577648e-03 1.4052067e-03 -8.6286971e-05 
1.7667669e-03 1.5115626e-03 -1.0148857e-04 
1.6387851e-03 1.3663191e-03 -3.3822176e-05 
1.6600610e-03 1.4188654e-03 -1.1481123e-04 
1.6458711e-03 1.3599530e-03 -3.3696558e-06 
1.6768485e-03 1.4123212e-03 -6.1818042e-05 
1.6576097e-03 1.3667889e-03 5.8848282e-06 
1.6260863e-03 1.3733044e-03 -7.8440586e-05 
1.6311761e-03 1.3866840e-03 -9.9903271e-05 
1.7373395e-03 1.4793837e-03 -8.9745816e-05 
1.7407916e-03 1.4768473e-03 -7.5474331e-05 
1.6592594e-03 1.3770425e-03 -1.4929986e-05 
1.6181569e-03 1.3577966e-03 -5.8195095e-05 
1.6555208e-03 1.3627275e-03 1.1408793e-05 
1.6785647e-03 1.3860991e-03 5.9090803e-06 
1.6465903e-03 1.3921433e-03 -7.9757898e-05 
1.6446495e-03 1.3651581e-03 -1.8381264e-05 
1.6296662e-03 1.3898206e-03 -1.1136089e-04 
1.6227666e-03 1.3554518e-03 -4.2765358e-05 
1.6295739e-03 1.3748517e-03 -7.5110358e-05 
1.6501102e-03 1.4068033e-03 -1.0830709e-04 
1.7028140e-03 1.4468093e-03 -8.8330475e-05 
1.7115214e-03 1.4396827e-03 -5.0440227e-05 
1.6130818e-03 1.3335211e-03 -1.0870258e-05 
1.6252724e-03 1.3392650e-03 1.8070310e-06 
1.6368134e-03 1.3462228e-03 1.0411385e-05 
1.7271867e-03 1.4747299e-03 -1.0135802e-04 
1.6592559e-03 1.3978798e-03 -6.6071698e-05 
1.6023996e-03 1.3561364e-03 -8.9265457e-05 
1.5978978e-03 1.3432095e-03 -6.7488967e-05 
1.6062022e-03 1.3654492e-03 -1.0399571e-04 
1.6213824e-03 1.3834675e-03 -1.1518064e-04 
1.6382167e-03 1.3769843e-03 -6.1658197e-05 
1.6347839e-03 1.3433977e-03 1.3039150e-05 
1.6783897e-03 1.3995488e-03 -2.6159656e-05 
1.6562253e-03 1.4070903e-03 -9.5894313e-05 
1.6039457e-03 1.3494457e-03 -6.9881724e-05 
1.6205033e-03 1.3382243e-03 -5.8903083e-06 
1.6065803e-03 1.3360968e-03 -3.1432599e-05 
1.6978931e-03 1.4428562e-03 -8.9530913e-05 
1.5835466e-03 1.3161761e-03 -3.3196317e-05 
1.7013117e-03 1.4403919e-03 -7.5369673e-05 
1.6074774e-03 1.3433280e-03 -4.7248115e-05 
1.5929304e-03 1.3118817e-03 -2.3868679e-06 
1.5911043e-03 1.3547244e-03 -1.1183001e-04 
1.6045633e-03 1.3185688e-03 6.9385710e-06 
1.6178770e-03 1.3764686e-03 -1.0643683e-04 
1.5790194e-03 1.3388209e-03 -9.9144585e-05 
1.5738998e-03 1.3262344e-03 -7.9217869e-05 
1.6684054e-03 1.4150834e-03 -8.7967150e-05 
1.6058341e-03 1.3462815e-03 -5.8344955e-05 
1.6721443e-03 1.4035600e-03 -5.0317674e-05 
1.6047435e-03 1.3272597e-03 -1.3768780e-05 
1.5654638e-03 1.3101982e-03 -5.8391441e-05 
1.6011692e-03 1.3133689e-03 1.2609023e-05 
1.6219273e-03 1.3342507e-03 7.8033700e-06 
1.5912845e-03 1.3164354e-03 -1.7049799e-05 
1.6462777e-03 1.3865925e-03 -6.7246496e-05 
1.6877392e-03 1.4381540e-03 -1.0107725e-04 
1.5703195e-03 1.3083565e-03 -4.3415337e-05 
1.6090584e-03 1.3492858e-03 -5.8654317e-05 
1.5828490e-03 1.3483703e-03 -1.1548917e-04 
1.5696550e-03 1.3158574e-03 -6.3491825e-05 
1.5602907e-03 1.2858051e-03 -1.0018563e-05 
1.5723648e-03 1.2914294e-03 2.8066245e-06 
1.5837874e-03 1.2982184e-03 1.1529054e-05 
1.6585761e-03 1.4065770e-03 -8.9146990e-05 
1.5458829e-03 1.2965088e-03 -6.8208028e-05 
1.6619534e-03 1.4041939e-03 -7.5140582e-05 
1.5495140e-03 1.3090534e-03 -9.1502094e-05 
1.5699277e-03 1.3109104e-03 -5.0851104e-05 
1.5618780e-03 1.2951307e-03 -2.9571494e-05 
1.5807413e-03 1.2945114e-03 1.4134074e-05 
1.5527626e-03 1.3200083e-03 -1.1214654e-04 
1.5730759e-03 1.3368318e-03 -1.0919726e-04 
1.5317261e-03 1.2694438e-03 -3.2591830e-05 
1.6058076e-03 1.3267495e-03 -9.1573365e-06 
1.6244270e-03 1.3747083e-03 -8.7748471e-05 
1.5423263e-03 1.2903468e-03 -6.1380350e-05 
1.5580653e-03 1.2831572e-03 -8.1839862e-06 
1.5401874e-03 1.2643792e-03 -1.4564823e-06 
1.5516736e-03 1.2708898e-03 8.0344671e-06 
1.6306019e-03 1.3671040e-03 -5.3599269e-05 
1.6484086e-03 1.4018443e-03 -1.0064705e-04 
1.5270067e-03 1.2918800e-03 -9.9695972e-05 
1.5415265e-03 1.2928675e-03 -6.9650559e-05 
1.5219830e-03 1.2795930e-03 -7.9822174e-05 
1.5444856e-03 1.3136481e-03 -1.1564532e-04 
1.5745156e-03 1.3230917e-03 -7.1600196e-05 
1.5603178e-03 1.3089550e-03 -6.8138470e-05 
1.5141740e-03 1.2642267e-03 -5.8641388e-05 
1.5788154e-03 1.3364885e-03 -9.5973046e-05 
1.5686860e-03 1.2858458e-03 9.5654777e-06 
1.6003784e-03 1.3285761e-03 -2.5591427e-05 
1.5540530e-03 1.2823789e-03 -1.5103792e-05 
1.5311351e-03 1.2649168e-03 -2.2724596e-05 
1.5185996e-03 1.2620824e-03 -4.3696960e-05 
1.6193819e-03 1.3705716e-03 -8.8613597e-05 
1.6226958e-03 1.3682724e-03 -7.4757940e-05 
1.5364548e-03 1.2559376e-03 1.1794397e-05 
1.5421885e-03 1.3085094e-03 -1.0874753e-04 
1.5145362e-03 1.2854546e-03 -1.1235601e-04 
1.5077108e-03 1.2385768e-03 -9.1303455e-06 
1.5196004e-03 1.2440406e-03 3.7899601e-06 
1.5903411e-03 1.3435525e-03 -8.7096618e-05 
1.4983958e-03 1.2624940e-03 -9.0418231e-05 
1.5256808e-03 1.2587307e-03 -1.9474594e-05 
1.4940200e-03 1.2502108e-03 -6.8914880e-05 
1.5938617e-03 1.3323030e-03 -4.9693444e-05 
1.5299132e-03 1.2488485e-03 1.5234802e-05 
1.5684658e-03 1.3146888e-03 -6.3909589e-05 
1.6091452e-03 1.3656669e-03 -1.0002329e-04 
1.4829695e-03 1.2257488e-03 -3.2030683e-05 
1.5000156e-03 1.2579897e-03 -7.5870776e-05 
1.5063062e-03 1.2790726e-03 -1.1563075e-04 
1.5308786e-03 1.2778724e-03 -5.6539175e-05 
1.4867281e-03 1.2327102e-03 -4.1411473e-05 
1.4876073e-03 1.2173677e-03 -5.5308988e-07 
1.4990325e-03 1.2237157e-03 9.0672584e-06 
1.5047237e-03 1.2351620e-03 -6.9384505e-06 
1.5802651e-03 1.3346447e-03 -8.7871027e-05 
1.4702524e-03 1.2334178e-03 -8.0306389e-05 
1.4746853e-03 1.2450401e-03 -1.0032368e-04 
1.4664604e-03 1.2210464e-03 -5.7255424e-05 
1.5835083e-03 1.3324278e-03 -7.4231328e-05 
1.5350721e-03 1.2835499e-03 -6.1231083e-05 
1.4765458e-03 1.2511959e-03 -1.1231612e-04 
1.5184738e-03 1.2405859e-03 1.1050052e-05 
1.5012024e-03 1.2572795e-03 -7.1754614e-05 
1.5026149e-03 1.2718267e-03 -1.0642227e-04 
1.4833139e-03 1.2402612e-03 -6.8906586e-05 
1.4770882e-03 1.2170835e-03 -2.3563576e-05 
1.5464396e-03 1.3034345e-03 -8.6531240e-05 
1.4658622e-03 1.2259186e-03 -7.1807553e-05 
1.4626129e-03 1.2154393e-03 -5.2078769e-05 
1.4799732e-03 1.2053145e-03 1.3312937e-05 
1.4553090e-03 1.1918365e-03 -8.3178847e-06 
1.4671137e-03 1.1971619e-03 4.7636026e-06 
1.4853352e-03 1.2234320e-03 -2.0885394e-05 
1.5700029e-03 1.3297187e-03 -9.9222452e-05 
1.4515824e-03 1.2260600e-03 -1.0475870e-04 
1.4682855e-03 1.2447871e-03 -1.1548648e-04 
1.5112575e-03 1.2394618e-03 -2.2134836e-06 
1.4466181e-03 1.2161337e-03 -9.0300215e-05 
1.4425495e-03 1.2045740e-03 -6.9571579e-05 
1.4819453e-03 1.2060102e-03 1.6217711e-05 
1.5288651e-03 1.2657070e-03 -2.8659671e-05 
1.4370349e-03 1.1848354e-03 -3.1514257e-05 
1.4655282e-03 1.2041730e-03 -1.6593380e-05 
1.5357306e-03 1.2804966e-03 -5.1059404e-05 
1.5412312e-03 1.2989175e-03 -8.6981745e-05 
1.4464423e-03 1.2101103e-03 -7.5661468e-05 
1.5444281e-03 1.2968055e-03 -7.3555624e-05 
1.4928188e-03 1.2580095e-03 -9.4033647e-05 
1.4387405e-03 1.2173270e-03 -1.1222487e-04 
1.4646351e-03 1.2375577e-03 -1.0611055e-04 
1.4478882e-03 1.2132075e-03 -8.0698614e-05 
1.4353157e-03 1.1708210e-03 3.5631140e-07 
1.4466000e-03 1.1770811e-03 1.0044438e-05 
1.4540794e-03 1.1816937e-03 1.5456402e-05 
1.4295420e-03 1.1809539e-03 -3.8794919e-05 
1.4235859e-03 1.1993203e-03 -9.9964534e-05 
1.4710376e-03 1.1979532e-03 1.2518769e-05 
1.4154125e-03 1.1758343e-03 -5.7408390e-05 
1.4185079e-03 1.1873915e-03 -8.0366772e-05 
1.4431655e-03 1.1982664e-03 -5.2705902e-05 
1.4553950e-03 1.1903676e-03 -3.9104284e-06 
1.4961128e-03 1.2486355e-03 -6.1195140e-05 
1.4765144e-03 1.2218714e-03 -3.6870111e-05 
1.5075956e-03 1.2680645e-03 -8.5553314e-05 
1.4572983e-03 1.2159806e-03 -6.6435554e-05 
1.4371388e-03 1.1788234e-03 -1.5898087e-05 
1.5309994e-03 1.2940281e-03 -9.8244294e-05 
1.4201576e-03 1.1799710e-03 -5.7783032e-05 
1.4294062e-03 1.2097033e-03 -1.1504183e-04 
1.4176216e-03 1.1890096e-03 -8.7503009e-05 
1.4366895e-03 1.1658544e-03 1.7172748e-05 
1.3937028e-03 1.1465612e-03 -3.1029238e-05 
1.4031550e-03 1.1457057e-03 -7.5426037e-06 
1.4148831e-03 1.1508645e-03 5.7219968e-06 
1.4259735e-03 1.1572792e-03 1.4697245e-05 
1.4022049e-03 1.1631085e-03 -5.5012741e-05 
1.3951567e-03 1.1706471e-03 -9.0906469e-05 
1.3908375e-03 1.1585243e-03 -6.8850830e-05 
1.5000763e-03 1.2614608e-03 -8.5540094e-05 
1.4526354e-03 1.1849581e-03 4.6277373e-06 
1.4012003e-03 1.1837118e-03 -1.1188853e-04 
1.4702198e-03 1.2102990e-03 -2.0134954e-05 
1.5018921e-03 1.2597286e-03 -7.6292956e-05 
1.4169094e-03 1.1797332e-03 -6.5216867e-05 
1.4921720e-03 1.2435317e-03 -5.6491801e-05 
1.4369728e-03 1.2097599e-03 -9.8586883e-05 
1.4777811e-03 1.2226907e-03 -3.5063287e-05 
1.4205886e-03 1.1990685e-03 -1.0838730e-04 
1.4535632e-03 1.1901462e-03 -6.1988308e-06 
1.4623052e-03 1.2277361e-03 -8.6619104e-05 
1.3975031e-03 1.1460796e-03 -2.1493361e-05 
1.4084975e-03 1.1536430e-03 -1.5850637e-05 
1.4238025e-03 1.1640065e-03 -7.4932386e-06 
1.4733552e-03 1.2367043e-03 -8.3939631e-05 
1.4425241e-03 1.2124871e-03 -9.2787588e-05 
1.4279637e-03 1.1821126e-03 -4.5665471e-05 
1.4922027e-03 1.2586785e-03 -9.7055512e-05 
1.3831973e-03 1.1248935e-03 1.2082645e-06 
1.3944645e-03 1.1310638e-03 1.1015894e-05 
1.3742064e-03 1.1553484e-03 -9.9679295e-05 
1.3677349e-03 1.1424463e-03 -8.0264792e-05 
1.3632890e-03 1.1301487e-03 -5.7877136e-05 
1.4152392e-03 1.1488764e-03 1.2937858e-05 
1.3711980e-03 1.1384139e-03 -6.2123283e-05 
1.3660624e-03 1.1269898e-03 -4.3618969e-05 
1.3841273e-03 1.1689464e-03 -1.1399054e-04 
1.3527327e-03 1.1104784e-03 -3.0628398e-05 
1.3938616e-03 1.1280871e-03 1.8074496e-05 
1.3637739e-03 1.1504177e-03 -1.1160206e-04 
1.3736875e-03 1.1248797e-03 -2.0647813e-05 
1.4128131e-03 1.1521038e-03 -5.8649931e-07 
1.3889932e-03 1.1685599e-03 -1.0199891e-04 
1.4555743e-03 1.2147224e-03 -6.6747692e-05 
1.4213821e-03 1.1642501e-03 -1.2656827e-05 
1.4503368e-03 1.2160322e-03 -8.3336345e-05 
1.3511329e-03 1.1001669e-03 -7.2791559e-06 
1.3429641e-03 1.1160957e-03 -6.8183261e-05 
1.3628418e-03 1.1050954e-03 6.7290607e-06 
1.3466680e-03 1.1277784e-03 -9.0965172e-05 
1.4016115e-03 1.1768519e-03 -9.4683164e-05 
1.3906974e-03 1.1402256e-03 -2.1468770e-05 
1.4294606e-03 1.1764744e-03 -2.6032414e-05 
1.4137862e-03 1.1852955e-03 -8.8332854e-05 
1.4366675e-03 1.1888620e-03 -4.2082625e-05 
1.3767214e-03 1.1444318e-03 -6.5955326e-05 
1.4253638e-03 1.1938231e-03 -8.3616309e-05 
1.3691226e-03 1.1252272e-03 -3.2171851e-05 
1.3915258e-03 1.1531714e-03 -5.4420514e-05 
1.4535756e-03 1.2235226e-03 -9.5657881e-05 
1.3445595e-03 1.1190209e-03 -7.3035328e-05 
1.3338983e-03 1.0984159e-03 -4.2589763e-05 
1.3857787e-03 1.1487070e-03 -5.6176901e-05 
1.3143667e-03 1.0768841e-03 -3.0181369e-05 
1.3144517e-03 1.0880636e-03 -5.9813821e-05 
1.3285527e-03 1.0774630e-03 9.6728581e-07 
1.3170181e-03 1.0975366e-03 -7.9396777e-05 
1.3415219e-03 1.0843432e-03 1.2894804e-05 
1.3205380e-03 1.1071016e-03 -9.7240059e-05 
1.3536178e-03 1.0927920e-03 1.8898525e-05 
1.3266265e-03 1.1173051e-03 -1.1095983e-04 
1.3369116e-03 1.1269744e-03 -1.1350712e-04 
1.3637474e-03 1.1029782e-03 1.5684420e-05 
1.3487036e-03 1.1347581e-03 -1.0713228e-04 
1.3725143e-03 1.1143312e-03 6.1855258e-06 
1.3612161e-03 1.1416661e-03 -9.6397082e-05 
1.3807575e-03 1.1261167e-03 -5.8877604e-06 
1.3731575e-03 1.1500161e-03 -9.0600712e-05 
1.3889185e-03 1.1379174e-03 -1.8167959e-05 
1.3182712e-03 1.0914418e-03 -6.0610902e-05 
1.3849650e-03 1.1582148e-03 -8.4215033e-05 
1.3967019e-03 1.1500710e-03 -3.2530330e-05 
1.3962711e-03 1.1671716e-03 -8.1185062e-05 
1.4036774e-03 1.1625105e-03 -4.9762639e-05 
1.3452471e-03 1.1043698e-03 -3.2018135e-05 
1.3237875e-03 1.0884838e-03 -3.9829636e-05 
1.4067343e-03 1.1769731e-03 -8.2438331e-05 
1.4099912e-03 1.1753201e-03 -6.9619389e-05 
1.3075187e-03 1.0919735e-03 -8.7702363e-05 
1.4150671e-03 1.1886818e-03 -9.4127754e-05 
1.3326724e-03 1.1050003e-03 -6.4060252e-05 
1.2880054e-03 1.0678009e-03 -6.7312700e-05 
1.2920179e-03 1.0795579e-03 -9.0168272e-05 
1.3447013e-03 1.1115541e-03 -5.3095115e-05 
1.3220649e-03 1.0807716e-03 -2.2844421e-05 
1.3022939e-03 1.0530867e-03 5.2708042e-06 
1.3126029e-03 1.0585897e-03 1.4878188e-05 
1.2905651e-03 1.0636217e-03 -5.0426348e-05 
1.3092782e-03 1.1015109e-03 -1.1085713e-04 
1.2771602e-03 1.0444580e-03 -2.9808705e-05 
1.3213621e-03 1.1078476e-03 -9.9889839e-05 
1.2894466e-03 1.0843836e-03 -1.1017704e-04 
1.3324233e-03 1.0771956e-03 1.2215150e-05 
1.3154732e-03 1.0594748e-03 1.9655577e-05 
1.2938303e-03 1.0563987e-03 -2.3405220e-05 
1.3405945e-03 1.0886476e-03 8.7738653e-07 
1.3328475e-03 1.1151036e-03 -9.2259848e-05 
1.3486519e-03 1.1000896e-03 -1.1040273e-05 
1.3444348e-03 1.1230636e-03 -8.5926913e-05 
1.3565356e-03 1.1116622e-03 -2.3829940e-05 
1.3561515e-03 1.1315596e-03 -8.0829508e-05 
1.3639793e-03 1.1238602e-03 -3.9444578e-05 
1.3672136e-03 1.1408302e-03 -7.9281686e-05 
1.2665453e-03 1.0529875e-03 -7.8051169e-05 
1.3707745e-03 1.1363605e-03 -5.7566598e-05 
1.3344928e-03 1.0998892e-03 -4.5239591e-05 
1.2609763e-03 1.0403523e-03 -5.6461031e-05 
1.2680279e-03 1.0612077e-03 -9.7619901e-05 
1.2826872e-03 1.0625998e-03 -6.6988207e-05 
1.2710668e-03 1.0283878e-03 -7.8125549e-07 
1.2815484e-03 1.0334102e-03 1.0393291e-05 
1.2915686e-03 1.0390882e-03 1.8719767e-05 
1.2886543e-03 1.0484229e-03 -1.3751925e-05 
1.3005505e-03 1.0532954e-03 1.6893138e-06 
1.2859431e-03 1.0671810e-03 -7.2037183e-05 
1.2638465e-03 1.0372901e-03 -4.1781368e-05 
1.3766339e-03 1.1538869e-03 -9.2357644e-05 
1.2674502e-03 1.0469484e-03 -5.9988866e-05 
1.2723947e-03 1.0362378e-03 -1.8856192e-05 
1.2976296e-03 1.0710171e-03 -5.4574062e-05 
1.2404983e-03 1.0260144e-03 -6.6036853e-05 
1.2383150e-03 1.0108439e-03 -2.9415685e-05 
1.2523273e-03 1.0514444e-03 -1.0925787e-04 
1.3045931e-03 1.0887525e-03 -8.7927590e-05 
1.3514314e-03 1.1230559e-03 -6.7924528e-05 
1.2434033e-03 1.0365547e-03 -8.8596367e-05 
1.2774501e-03 1.0265483e-03 2.0313282e-05 
1.2745298e-03 1.0687615e-03 -1.0466548e-04 
1.2814818e-03 1.0465935e-03 -2.5440686e-05 
1.2859582e-03 1.0745822e-03 -9.3732699e-05 
1.2506038e-03 1.0084655e-03 5.7248117e-06 
1.2608082e-03 1.0137953e-03 1.5482248e-05 
1.2487018e-03 1.0321419e-03 -6.4107910e-05 
1.2928694e-03 1.0448660e-03 7.6713732e-06 
1.3007091e-03 1.0558779e-03 -3.9123038e-06 
1.3085264e-03 1.0896483e-03 -8.0855760e-05 
1.2631214e-03 1.0293038e-03 -2.1806694e-05 
1.3084118e-03 1.0669118e-03 -1.5941288e-05 
1.3199565e-03 1.0985995e-03 -7.7595898e-05 
1.2422518e-03 1.0117021e-03 -2.2746022e-05 
1.3235270e-03 1.0909671e-03 -4.6344328e-05 
1.2442512e-03 1.0447218e-03 -1.1086392e-04 
1.2680412e-03 1.0197315e-03 1.7634853e-05 
1.3385289e-03 1.1196035e-03 -9.0354355e-05 
1.2138854e-03 9.9893962e-04 -5.4474403e-05 
1.2165486e-03 1.0088984e-03 -7.6019787e-05 
1.2192582e-03 1.0176784e-03 -9.4586205e-05 
1.2397926e-03 1.0253361e-03 -6.7108405e-05 
1.2686857e-03 1.0430099e-03 -4.6898003e-05 
1.2194944e-03 9.8410412e-04 -7.0206170e-07 
1.2299775e-03 9.8896259e-04 1.0938341e-05 
1.2346723e-03 9.9865557e-04 -4.5091115e-06 
1.2149710e-03 9.9412655e-04 -3.8995549e-05 
1.2955200e-03 1.0596554e-03 -2.6905651e-05 
1.2175174e-03 1.0027917e-03 -5.7261728e-05 
1.3105993e-03 1.0903978e-03 -7.7412325e-05 
1.2153751e-03 1.0189238e-03 -1.0823184e-04 
1.3133551e-03 1.0890256e-03 -6.6301625e-05 
1.2396501e-03 9.9394540e-04 2.1048907e-05 
1.2164203e-03 1.0066873e-03 -7.1112780e-05 
1.2405288e-03 1.0371258e-03 -9.9426754e-05 
1.1975542e-03 9.7563892e-04 -2.8940432e-05 
1.2082120e-03 9.8231563e-04 -2.2363462e-05 
1.2324053e-03 1.0068113e-03 -3.2956475e-05 
1.1900421e-03 9.8209234e-04 -6.4917847e-05 
1.1926576e-03 9.9109078e-04 -8.4217805e-05 
1.1965685e-03 1.0002187e-03 -1.0102642e-04 
1.2782352e-03 1.0615217e-03 -7.5953896e-05 
1.2515526e-03 1.0416083e-03 -8.5742977e-05 
1.1991872e-03 9.6433994e-04 6.1928140e-06 
1.2073577e-03 1.0121253e-03 -1.0947366e-04 
1.2093117e-03 9.6961786e-04 1.6010134e-05 
1.2149791e-03 9.8868401e-04 -2.3960483e-05 
1.2303151e-03 9.8699413e-04 1.8485644e-05 
1.3006227e-03 1.0855297e-03 -8.8168235e-05 
1.2530186e-03 1.0173520e-03 -1.0680463e-05 
1.1992216e-03 9.8792906e-04 -6.0323357e-05 
1.1820626e-03 9.6554129e-04 -3.8044247e-05 
1.1844678e-03 9.7393472e-04 -5.6052890e-05 
1.2334504e-03 9.9450198e-04 5.7615202e-06 
1.1642824e-03 9.5574447e-04 -5.2861007e-05 
1.1785638e-03 9.8662765e-04 -1.0708941e-04 
1.2728488e-03 1.0567156e-03 -7.5176831e-05 
1.1662494e-03 9.6473173e-04 -7.3801406e-05 
1.2755652e-03 1.0554860e-03 -6.4515451e-05 
1.1694806e-03 9.7378978e-04 -9.2086615e-05 
1.2021507e-03 9.6163189e-04 2.1937305e-05 
1.2034464e-03 1.0043537e-03 -9.7858807e-05 
1.1684110e-03 9.4050076e-04 -3.7106273e-07 
1.1787213e-03 9.4513770e-04 1.1381194e-05 
1.1548446e-03 9.3906350e-04 -2.8459337e-05 
1.2021821e-03 9.7891153e-04 -2.7106862e-05 
1.1727934e-03 9.5178437e-04 -2.1670572e-05 
1.1618130e-03 9.5754769e-04 -6.4735337e-05 
1.2477578e-03 1.0235609e-03 -4.1812658e-05 
1.1579784e-03 9.4771234e-04 -4.5825214e-05 
1.2092845e-03 9.8717387e-04 -3.3169959e-05 
1.2330863e-03 1.0217004e-03 -7.4359770e-05 
1.1704498e-03 9.7965111e-04 -1.0807299e-04 
1.1774999e-03 9.5631264e-04 -2.2997052e-05 
1.1926700e-03 9.5480331e-04 1.9211955e-05 
1.2629286e-03 1.0518113e-03 -8.5865970e-05 
1.1428182e-03 9.4053178e-04 -6.1657782e-05 
1.1500790e-03 9.5916324e-04 -9.8110911e-05 
1.1534196e-03 9.3282247e-04 -1.4573331e-05 
1.1428915e-03 9.4758661e-04 -8.2149680e-05 
1.1494074e-03 9.2223455e-04 5.8753212e-06 
1.1403875e-03 9.1950531e-04 -8.0563159e-06 
1.2170664e-03 9.8951533e-04 -1.9489171e-05 
1.1571075e-03 9.2536170e-04 1.5894404e-05 
1.1455598e-03 9.4464701e-04 -6.7820423e-05 
1.1419877e-03 9.5463806e-04 -1.0575746e-04 
1.2351921e-03 1.0231901e-03 -7.2771189e-05 
1.2378230e-03 1.0220903e-03 -6.2586390e-05 
1.1646294e-03 9.2963048e-04 2.2625502e-05 
1.1665093e-03 9.7185530e-04 -9.6033778e-05 
1.1834204e-03 9.5094234e-04 8.3085733e-06 
1.1321085e-03 9.2747348e-04 -5.1156778e-05 
1.1317277e-03 9.1449707e-04 -1.4767977e-05 
1.1156941e-03 9.1392023e-04 -5.1669369e-05 
1.1165111e-03 9.2161651e-04 -7.1880684e-05 
1.2031195e-03 9.9477300e-04 -7.1306145e-05 
1.1199769e-03 9.3174382e-04 -9.3360613e-05 
1.1373456e-03 9.2270627e-04 -2.4782161e-05 
1.1192375e-03 9.0006809e-04 -3.6953866e-06 
1.2100718e-03 9.9056540e-04 -4.0384097e-05 
1.1100041e-03 9.0081163e-04 -2.7979926e-05 
1.1712923e-03 9.7101193e-04 -8.2590988e-05 
1.1501434e-03 9.4331696e-04 -5.3428776e-05 
1.1339431e-03 9.4760919e-04 -1.0646709e-04 
1.1804131e-03 9.5277536e-04 -3.9423785e-06 
1.1273830e-03 9.0199313e-04 1.0563384e-05 
1.1551064e-03 9.2270924e-04 1.9984822e-05 
1.2252702e-03 1.0182689e-03 -8.3403873e-05 
1.1115747e-03 9.0207282e-04 -2.7935323e-05 
1.1587688e-03 9.4692188e-04 -4.2137279e-05 
1.1348240e-03 9.0524246e-04 1.9866529e-05 
1.1244568e-03 9.2580414e-04 -6.5937471e-05 
1.1094046e-03 9.0642204e-04 -4.5887824e-05 
1.1114497e-03 9.1369502e-04 -6.2321684e-05 
1.1080683e-03 8.9166971e-04 -6.5971763e-06 
1.1314241e-03 9.4180455e-04 -9.6698466e-05 
1.0973706e-03 8.8429154e-04 -1.1338294e-05 
1.1055126e-03 9.2286977e-04 -1.0431300e-04 
1.1976748e-03 9.8993268e-04 -7.0245020e-05 
1.1090590e-03 8.9738495e-04 -2.0644720e-05 
1.0905082e-03 8.9584285e-04 -6.1104052e-05 
1.2002203e-03 9.8897226e-04 -6.0580973e-05 
1.0933898e-03 9.0457092e-04 -7.9929952e-05 
1.0873275e-03 8.8800397e-04 -4.6208428e-05 
1.1273465e-03 8.9794246e-04 2.3303413e-05 
1.0969696e-03 9.1297296e-04 -9.6246687e-05 
1.1246605e-03 9.1133354e-04 -2.2612017e-05 
1.1459880e-03 9.1893575e-04 9.1703760e-06 
1.0975843e-03 8.7898650e-04 4.3988430e-06 
1.1052714e-03 8.8189612e-04 1.5057673e-05 
1.1090708e-03 8.9045905e-04 -3.6866615e-07 
1.0846227e-03 8.8117353e-04 -3.3443925e-05 
1.1659090e-03 9.6198177e-04 -6.8801295e-05 
1.0974701e-03 9.1565790e-04 -1.0465179e-04 
1.1703455e-03 9.5708139e-04 -4.1715582e-05 
1.1178980e-03 8.9112390e-04 2.0689922e-05 
1.1878118e-03 9.8503404e-04 -8.0803882e-05 
1.1293917e-03 9.1857486e-04 -3.1903186e-05 
1.0647761e-03 8.7022304e-04 -5.0083541e-05 
1.0672355e-03 8.7900599e-04 -6.9858659e-05 
1.0837828e-03 8.7524776e-04 -1.8417097e-05 
1.0707892e-03 8.8801415e-04 -8.8084555e-05 
1.0628655e-03 8.6088484e-04 -2.7581205e-05 
1.0949553e-03 8.8828220e-04 -2.9068462e-05 
1.1424194e-03 9.2506490e-04 -1.7438084e-05 
1.0757418e-03 8.5893192e-04 9.5322966e-06 
1.0690669e-03 8.7472162e-04 -5.3297474e-05 
1.0654302e-03 8.6528895e-04 -3.4376597e-05 
1.0756501e-03 8.8341074e-04 -6.2917970e-05 
1.0692036e-03 8.9131994e-04 -1.0285208e-04 
1.0831605e-03 8.6204632e-04 1.9259611e-05 
1.1604207e-03 9.5704873e-04 -6.7602785e-05 
1.1628622e-03 9.5622445e-04 -5.8447506e-05 
1.0934967e-03 9.0772600e-04 -9.1946989e-05 
1.0903341e-03 8.6667232e-04 2.3909659e-05 
1.0910516e-03 8.8384183e-04 -2.5698697e-05 
1.0689310e-03 8.6368906e-04 -2.1131375e-05 
1.1035572e-03 8.8216324e-04 1.2242442e-05 
1.0483909e-03 8.6559606e-04 -7.7576857e-05 
1.0517818e-03 8.7366707e-04 -9.3526862e-05 
1.0415420e-03 8.5375260e-04 -5.9322712e-05 
1.0386112e-03 8.4672216e-04 -4.5602526e-05 
1.1354513e-03 9.2590228e-04 -3.7309968e-05 
1.1270538e-03 9.2777942e-04 -6.5710745e-05 
1.0496973e-03 8.6062471e-04 -6.0098722e-05 
1.0613287e-03 8.8424515e-04 -1.0277521e-04 
1.0461141e-03 8.3662127e-04 2.2850381e-06 
1.0808221e-03 8.5978542e-04 2.1427011e-05 
1.0386830e-03 8.4146962e-04 -3.0331075e-05 
1.1504918e-03 9.5210102e-04 -7.8113822e-05 
1.0537925e-03 8.3913328e-04 1.4098199e-05 
1.0626543e-03 8.5450715e-04 -9.3422095e-06 
1.0929055e-03 9.0164208e-04 -7.5981043e-05 
1.0609718e-03 8.4242056e-04 2.2613094e-05 
1.1007206e-03 8.8576449e-04 -5.2050873e-06 
1.0763390e-03 8.7556569e-04 -3.8131941e-05 
1.0282694e-03 8.5145631e-04 -8.6558786e-05 
1.0586689e-03 8.7830803e-04 -9.2687660e-05 
1.0547532e-03 8.6244300e-04 -5.3766442e-05 
1.0331640e-03 8.6016726e-04 -1.0110863e-04 
1.0212816e-03 8.4016396e-04 -6.9890608e-05 
1.1232900e-03 9.2443381e-04 -6.4880791e-05 
1.1256435e-03 9.2372741e-04 -5.6242290e-05 
1.0158451e-03 8.2937034e-04 -5.1040599e-05 
1.0535968e-03 8.3585264e-04 2.4438288e-05 
1.0133885e-03 8.1924873e-04 -2.7041478e-05 
1.0715198e-03 8.5580943e-04 1.0923271e-05 
1.0240070e-03 8.3629327e-04 -5.1908824e-05 
1.0370383e-03 8.4326067e-04 -4.0376221e-05 
1.0245563e-03 8.1658311e-04 8.4321209e-06 
1.0178111e-03 8.2580390e-04 -3.5827128e-05 
1.0319425e-03 8.1945374e-04 1.8511813e-05 
1.0982436e-03 8.9184486e-04 -2.9566590e-05 
1.0919641e-03 8.9717284e-04 -6.3476691e-05 
1.0408900e-03 8.3657779e-04 -9.9929321e-06 
1.0253212e-03 8.5301831e-04 -1.0080860e-04 
1.0073740e-03 8.3615608e-04 -9.3849019e-05 
1.0440361e-03 8.2901446e-04 2.2007982e-05 
1.1134861e-03 9.1952831e-04 -7.5246477e-05 
1.0006161e-03 8.2569104e-04 -7.8825971e-05 
9.9463353e-04 8.1508077e-04 -6.1607505e-05 
9.8965410e-04 8.0595026e-04 -4.6433852e-05 
9.9521142e-04 7.9515617e-04 -7.0819607e-07 
1.0026504e-03 8.2299556e-04 -6.6382279e-05 
9.9096447e-04 8.0181059e-04 -3.1136751e-05 
1.0029878e-03 7.9707953e-04 1.3147461e-05 
9.9731016e-04 8.0940739e-04 -3.8258037e-05 
9.9737372e-04 8.2925509e-04 -9.9362180e-05 
1.0865116e-03 8.9223508e-04 -6.2073930e-05 
1.0887928e-03 8.9165103e-04 -5.3938158e-05 
1.0211829e-03 8.4480399e-04 -8.7487504e-05 
1.0047114e-03 8.2537136e-04 -6.9088353e-05 
1.0100022e-03 8.0003549e-04 2.2256216e-05 
1.0170372e-03 8.0515415e-04 2.5112182e-05 
1.0168699e-03 8.3073281e-04 -5.4642824e-05 
1.0357749e-03 8.3855476e-04 -2.8951343e-05 
1.0004962e-03 8.0593157e-04 -1.9855204e-05 
9.8195300e-04 8.1311539e-04 -8.8741435e-05 
9.9345855e-04 7.9846737e-04 -1.4985648e-05 
1.0349151e-03 8.2646671e-04 7.2598764e-06 
9.7405264e-04 8.0089644e-04 -7.1084345e-05 
9.6837303e-04 7.9029199e-04 -5.3046340e-05 
1.0616824e-03 8.6234958e-04 -3.3848431e-05 
1.0537324e-03 8.6376199e-04 -6.0273822e-05 
9.7415841e-04 7.8859139e-04 -3.3620498e-05 
9.8946714e-04 8.2195242e-04 -9.8683602e-05 
9.6135447e-04 7.7569397e-04 -2.6458598e-05 
9.7395288e-04 7.7507127e-04 6.8155064e-06 
1.0075317e-03 7.9831481e-04 2.2748702e-05 
1.0767202e-03 8.8732259e-04 -7.2366536e-05 
1.0197037e-03 8.3858939e-04 -7.2405564e-05 
9.7403332e-04 7.9137518e-04 -4.2704134e-05 
9.8649529e-04 7.9168199e-04 -1.1653843e-05 
1.0095045e-03 8.2138472e-04 -4.4332810e-05 
9.8131422e-04 7.7778631e-04 1.7580183e-05 
9.7415131e-04 7.9751643e-04 -6.1694009e-05 
1.0320039e-03 8.3090557e-04 -1.3899714e-05 
9.6853363e-04 7.8202365e-04 -2.8001892e-05 
9.7832293e-04 7.9744216e-04 -5.0944182e-05 
9.8676654e-04 8.1600505e-04 -8.7982291e-05 
9.5366238e-04 7.8641676e-04 -7.9306570e-05 
9.6185162e-04 7.9869229e-04 -9.7451935e-05 
1.0498379e-03 8.6026284e-04 -5.9225258e-05 
9.4761123e-04 7.7625859e-04 -6.3116968e-05 
1.0520436e-03 8.5979007e-04 -5.1553176e-05 
9.8083797e-04 7.7504484e-04 2.5624879e-05 
9.7843981e-04 7.8725704e-04 -1.8677601e-05 
9.5446670e-04 7.7424711e-04 -3.9988616e-05 
9.4008941e-04 7.6490210e-04 -4.7071924e-05 
9.9831040e-04 7.9409417e-04 1.2849890e-05 
9.6032670e-04 7.6891854e-04 -8.5017327e-06 
9.4491028e-04 7.5474469e-04 -4.5125526e-06 
9.4291300e-04 7.6225342e-04 -3.2308770e-05 
9.5270423e-04 7.5581693e-04 1.1942643e-05 
1.0301353e-03 8.3601155e-04 -3.4808181e-05 
9.5963397e-04 7.5867854e-04 2.1618014e-05 
1.0142394e-03 8.2960352e-04 -5.8115562e-05 
9.5399481e-04 7.9137221e-04 -9.6479387e-05 
9.3347009e-04 7.7185500e-04 -8.6714506e-05 
9.7133470e-04 7.6820311e-04 2.3304836e-05 
1.0401153e-03 8.5536134e-04 -6.9372327e-05 
9.6836279e-04 7.8124064e-04 -2.6044112e-05 
9.2720351e-04 7.6199492e-04 -7.1773502e-05 
9.2446682e-04 7.4419397e-04 -2.3572302e-05 
9.2149997e-04 7.5194996e-04 -5.4835182e-05 
9.9030556e-04 7.9204090e-04 -1.3127894e-06 
9.4569701e-04 7.5906125e-04 -1.5360498e-05 
9.7302283e-04 7.8473071e-04 -2.4333211e-05 
9.2396146e-04 7.3453091e-04 4.7354729e-06 
9.3169539e-04 7.5964729e-04 -5.3644864e-05 
9.2660112e-04 7.6856167e-04 -9.5562566e-05 
1.0134873e-03 8.2871440e-04 -5.6238619e-05 
9.1701566e-04 7.3979568e-04 -2.9131552e-05 
9.3133072e-04 7.3677569e-04 1.6573671e-05 
9.4979163e-04 7.8314223e-04 -8.2560124e-05 
1.0156087e-03 8.2833925e-04 -4.9048598e-05 
9.6435199e-04 7.6529721e-04 1.5430944e-05 
9.4485225e-04 7.4536767e-04 2.6079226e-05 
9.1958954e-04 7.4727403e-04 -4.5903944e-05 
9.0666470e-04 7.3028042e-04 -2.5813899e-05 
9.0912322e-04 7.4968272e-04 -8.0751990e-05 
9.2359853e-04 7.4083410e-04 -1.5630319e-05 
9.0106542e-04 7.3791930e-04 -6.4041844e-05 
9.6373999e-04 7.8884442e-04 -6.3781568e-05 
9.8290772e-04 8.0251921e-04 -5.5010572e-05 
8.9554401e-04 7.2792463e-04 -4.6801368e-05 
9.8872848e-04 7.9995685e-04 -3.0046174e-05 
9.1883802e-04 7.6134125e-04 -9.4330899e-05 
8.9552195e-04 7.1983936e-04 -2.2032518e-05 
9.3529024e-04 7.3841942e-04 2.3940713e-05 
1.0037435e-03 8.2378363e-04 -6.6352397e-05 
9.0294273e-04 7.1539683e-04 1.0627594e-05 
8.9945603e-04 7.3276175e-04 -5.2893854e-05 
9.0998178e-04 7.1814662e-04 2.0598112e-05 
8.9145085e-04 7.1044080e-04 -3.3465221e-06 
9.4456581e-04 7.6146465e-04 -2.5489555e-05 
9.1763894e-04 7.4246712e-04 -3.6775382e-05 
8.7907334e-04 7.1190984e-04 -3.9015631e-05 
8.8729826e-04 7.3317008e-04 -8.6165812e-05 
8.9422363e-04 7.1686128e-04 -1.6335818e-05 
8.9157955e-04 7.3881052e-04 -9.3679104e-05 
8.8620634e-04 7.1811379e-04 -4.0886895e-05 
8.8098913e-04 7.2379858e-04 -7.2150186e-05 
9.7721710e-04 7.9741050e-04 -5.3291460e-05 
9.7926881e-04 7.9713837e-04 -4.6521411e-05 
9.0945762e-04 7.1611808e-04 2.6680682e-05 
9.1533893e-04 7.5253024e-04 -7.6769538e-05 
9.5354335e-04 7.6565269e-04 -1.3924100e-05 
8.7248557e-04 7.1078952e-04 -5.2617219e-05 
9.2606177e-04 7.3395163e-04 1.4605510e-05 
8.8608114e-04 7.2228775e-04 -5.5286568e-05 
8.7472075e-04 6.9499132e-04 1.9796262e-06 
8.8200241e-04 6.9689454e-04 1.5266533e-05 
9.4548659e-04 7.7039609e-04 -5.2597356e-05 
9.5253321e-04 7.6920073e-04 -2.8092110e-05 
8.8859390e-04 6.9961464e-04 2.4088076e-05 
8.8384515e-04 7.3137565e-04 -9.2036404e-05 
8.6185674e-04 6.9446245e-04 -2.8910667e-05 
8.8545238e-04 7.0703565e-04 -7.7489885e-06 
8.6351682e-04 6.9430016e-04 -2.4355388e-05 
8.9971826e-04 7.0914562e-04 2.4573319e-05 
9.6748926e-04 7.9247187e-04 -6.3276268e-05 
8.5516128e-04 7.0024026e-04 -6.4763997e-05 
8.5924438e-04 7.0809713e-04 -7.9967562e-05 
8.4921537e-04 6.8295986e-04 -2.5154699e-05 
8.4962085e-04 6.9067656e-04 -4.8381789e-05 
8.9827552e-04 7.2569161e-04 -3.4256238e-05 
8.6217315e-04 6.9086876e-04 -1.7020566e-05 
8.7052851e-04 7.0706970e-04 -4.7870584e-05 
8.5689774e-04 7.0934388e-04 -9.1465212e-05 
9.0770092e-04 7.2246947e-04 3.8428389e-06 
9.4119180e-04 7.6649804e-04 -5.0276285e-05 
8.5405383e-04 6.7605427e-04 8.9189198e-06 
8.7944354e-04 7.2301854e-04 -7.7468474e-05 
9.4316207e-04 7.6630351e-04 -4.3933927e-05 
8.7410421e-04 6.8716111e-04 2.6969483e-05 
8.6102076e-04 6.7845872e-04 1.9647938e-05 
8.4666430e-04 6.8542943e-04 -4.0104092e-05 
8.9049077e-04 7.0464704e-04 1.5253915e-05 
8.9569867e-04 7.3113421e-04 -6.0390354e-05 
8.4018894e-04 6.7606411e-04 -2.6851209e-05 
8.3547377e-04 6.8630022e-04 -7.2163952e-05 
8.3767832e-04 6.9156592e-04 -8.4270316e-05 
9.1130112e-04 7.4116024e-04 -4.9274342e-05 
8.2971196e-04 6.7711127e-04 -5.7356581e-05 
8.5940358e-04 6.8449287e-04 -3.3192789e-06 
9.1669208e-04 7.3902140e-04 -2.6120282e-05 
8.4928185e-04 7.0201099e-04 -8.9606197e-05 
8.2345557e-04 6.6775590e-04 -4.3505952e-05 
8.4381824e-04 6.7286403e-04 -7.1826198e-06 
8.3525258e-04 6.8062713e-04 -5.5093777e-05 
8.6466328e-04 6.8049482e-04 2.5098834e-05 
9.3150890e-04 7.6153950e-04 -6.0110902e-05 
8.2613330e-04 6.5669831e-04 -1.7082045e-06 
8.3332771e-04 6.5769273e-04 1.3943815e-05 
8.5466116e-04 6.8819890e-04 -2.8382061e-05 
8.4000308e-04 6.6037115e-04 2.3265360e-05 
8.2260312e-04 6.8049942e-04 -8.9490764e-05 
8.1604061e-04 6.7220739e-04 -7.8814621e-05 
8.1934204e-04 6.5954664e-04 -2.8603255e-05 
9.0546458e-04 7.3599245e-04 -4.7285124e-05 
8.1007712e-04 6.6337374e-04 -6.5197513e-05 
9.0735825e-04 7.3587283e-04 -4.1318512e-05 
8.4687170e-04 6.9431466e-04 -7.2078605e-05 
8.3928526e-04 6.5885822e-04 2.7356662e-05 
8.0447091e-04 6.5419642e-04 -4.9813789e-05 
8.2632329e-04 6.6839007e-04 -3.9733186e-05 
8.8127045e-04 7.0540968e-04 -1.1216649e-05 
8.5526210e-04 6.7593291e-04 1.6128051e-05 
8.2771800e-04 6.5854663e-04 -3.1740210e-06 
8.7621692e-04 7.1141572e-04 -4.7058616e-05 
8.0597575e-04 6.3762511e-04 6.8894287e-06 
8.0715294e-04 6.5748405e-04 -5.4606837e-05 
8.1277220e-04 6.3976902e-04 1.8382685e-05 
8.2681829e-04 6.5694150e-04 3.7915902e-07 
8.8114833e-04 7.0913765e-04 -2.4066858e-05 
8.1500929e-04 6.7309622e-04 -8.7347027e-05 
7.8908261e-04 6.3381298e-04 -2.4417282e-05 
8.1886078e-04 6.4259331e-04 2.5990052e-05 
7.9756958e-04 6.5818173e-04 -8.2764360e-05 
8.0947956e-04 6.6198251e-04 -6.4459484e-05 
8.2962652e-04 6.5214036e-04 2.5448739e-05 
8.9582888e-04 7.3101470e-04 -5.6909917e-05 
7.9068076e-04 6.4952928e-04 -7.2052142e-05 
7.9496787e-04 6.3648546e-04 -1.8092664e-05 
7.8480900e-04 6.4071780e-04 -5.8178721e-05 
8.4719778e-04 6.7304238e-04 3.6372819e-06 
7.7947660e-04 6.3178974e-04 -4.2832853e-05 
8.1370538e-04 6.5977505e-04 -4.5879886e-05 
7.8169320e-04 6.2597560e-04 -1.8477373e-05 
7.9212768e-04 6.4540689e-04 -5.5490880e-05 
7.8466948e-04 6.3581427e-04 -4.3100870e-05 
7.8867166e-04 6.5193517e-04 -8.7294335e-05 
8.7005593e-04 7.0591946e-04 -4.4261142e-05 
8.0010557e-04 6.4101990e-04 -1.9261310e-05 
8.7187887e-04 7.0586294e-04 -3.8646889e-05 
8.1058894e-04 6.6474394e-04 -7.2488619e-05 
8.0484693e-04 6.3099142e-04 2.7538605e-05 
7.8572804e-04 6.1965286e-04 1.2463990e-05 
8.3034812e-04 6.7570095e-04 -5.5088265e-05 
7.8832719e-04 6.2992342e-04 -1.4046839e-05 
8.2057802e-04 6.4735941e-04 1.7319402e-05 
7.9222670e-04 6.2213466e-04 2.2200684e-05 
7.7292102e-04 6.1360066e-04 -1.3949768e-06 
7.7157858e-04 6.3562870e-04 -7.8046964e-05 
7.6136616e-04 6.1505893e-04 -3.6114390e-05 
7.7105238e-04 6.1825133e-04 -2.1503711e-05 
8.4361847e-04 6.8363769e-04 -4.3122582e-05 
7.6563086e-04 6.2723935e-04 -6.5273387e-05 
8.4594585e-04 6.7976082e-04 -2.2065711e-05 
7.7026937e-04 6.2385615e-04 -4.2352131e-05 
7.8106055e-04 6.4452243e-04 -8.4845124e-05 
7.5466913e-04 6.1320566e-04 -4.7902846e-05 
7.9538778e-04 6.2404084e-04 2.6109272e-05 
7.7404268e-04 6.3206058e-04 -6.0832244e-05 
8.6049025e-04 7.0094259e-04 -5.3677002e-05 
7.9194136e-04 6.3574605e-04 -2.3985735e-05 
7.5864850e-04 6.0036237e-04 4.1281669e-06 
8.0266123e-04 6.4410589e-04 -2.2375227e-05 
7.6555961e-04 6.0214417e-04 1.6955990e-05 
8.1820355e-04 6.5250864e-04 -5.9794352e-06 
7.5506972e-04 6.2396296e-04 -8.5143860e-05 
8.3505060e-04 6.7631999e-04 -4.1291220e-05 
7.4670144e-04 6.1357883e-04 -7.1649752e-05 
8.3681720e-04 6.7631237e-04 -3.5999776e-05 
7.7669899e-04 6.3622219e-04 -6.9823676e-05 
7.4535143e-04 5.9963571e-04 -2.8565573e-05 
7.7090145e-04 6.0348422e-04 2.7927113e-05 
7.3892565e-04 6.0336484e-04 -5.7755864e-05 
7.8624400e-04 6.1940937e-04 1.8152894e-05 
7.6158554e-04 6.1258674e-04 -2.9095767e-05 
7.2937651e-04 5.9177628e-04 -4.4504410e-05 
8.1611413e-04 6.5541122e-04 -2.2274047e-05 
8.0662657e-04 6.5257715e-04 -4.0716277e-05 
7.2587893e-04 5.8257917e-04 -2.3615175e-05 
7.4498379e-04 6.0676405e-04 -5.4571366e-05 
7.3885266e-04 5.8245612e-04 1.0655698e-05 
7.3798100e-04 5.9914897e-04 -4.7211961e-05 
7.4759783e-04 6.1656826e-04 -8.2563471e-05 
7.2913739e-04 5.9212482e-04 -4.6934172e-05 
7.8324293e-04 6.2008470e-04 8.0391064e-06 
7.3552260e-04 5.8899820e-04 -1.9695784e-05 
7.6171558e-04 5.9685134e-04 2.6490259e-05 
8.2570681e-04 6.7143072e-04 -5.0388771e-05 
7.4308255e-04 5.8247114e-04 2.2559381e-05 
7.2800281e-04 5.9990608e-04 -7.7083714e-05 
7.5810944e-04 6.0794660e-04 -2.2617038e-05 
7.2206755e-04 5.9186830e-04 -6.5218854e-05 
7.1649015e-04 5.8360922e-04 -5.1930976e-05 
7.1864924e-04 5.7840132e-04 -2.9132183e-05 
7.1075774e-04 5.7592627e-04 -4.1484403e-05 
7.6366850e-04 6.2065467e-04 -5.2406733e-05 
7.2200538e-04 5.9649692e-04 -8.2891835e-05 
7.2586827e-04 5.7769316e-04 -7.8403355e-06 
8.0072484e-04 6.4743793e-04 -3.8282291e-05 
7.3194271e-04 5.8482488e-04 -1.5339405e-05 
8.0242811e-04 6.4747181e-04 -3.3286749e-05 
7.4284337e-04 6.0803996e-04 -6.7359113e-05 
7.3753216e-04 5.7672907e-04 2.8180586e-05 
7.1904442e-04 5.6519674e-04 1.5494536e-05 
7.5241999e-04 5.9206429e-04 1.8778637e-05 
7.2549109e-04 5.9190328e-04 -5.8242709e-05 
7.0853496e-04 5.6072959e-04 2.3547425e-06 
7.2517013e-04 5.6768110e-04 2.4508743e-05 
7.0292421e-04 5.6413922e-04 -2.3677578e-05 
7.1312446e-04 5.8146531e-04 -5.5624096e-05 
7.0346252e-04 5.7850161e-04 -7.1063536e-05 
7.7258894e-04 6.2416901e-04 -3.7936472e-05 
6.9775176e-04 5.7051535e-04 -5.8858779e-05 
6.9223036e-04 5.5937155e-04 -3.5906338e-05 
7.7723997e-04 6.2257709e-04 -1.7825090e-05 
6.9241872e-04 5.6219881e-04 -4.5029203e-05 
7.1468455e-04 5.8912340e-04 -7.9987200e-05 
7.0120988e-04 5.5953191e-04 -1.3122282e-05 
6.9888117e-04 5.6605309e-04 -4.1533778e-05 
7.2821660e-04 5.6996837e-04 2.7167771e-05 
7.9143100e-04 6.4256915e-04 -4.7238031e-05 
6.9387519e-04 5.5899809e-04 -3.0884759e-05 
7.2485913e-04 5.8086397e-04 -2.1282189e-05 
7.3484628e-04 5.8842299e-04 -1.9245143e-05 
6.9355144e-04 5.4650486e-04 9.7690781e-06 
6.8223104e-04 5.4842420e-04 -2.6294438e-05 
6.9939136e-04 5.4839096e-04 1.9695568e-05 
7.5037708e-04 5.9673854e-04 -2.8369309e-06 
6.8527466e-04 5.6507683e-04 -7.5809498e-05 
6.8952260e-04 5.6965492e-04 -8.0741556e-05 
7.6676550e-04 6.1906286e-04 -3.5388053e-05 
6.9206685e-04 5.5132207e-04 -1.0018694e-05 
6.7937083e-04 5.5741653e-04 -6.4829008e-05 
7.6841720e-04 6.1912689e-04 -3.0619325e-05 
7.1020902e-04 5.8091251e-04 -6.4801156e-05 
7.0457353e-04 5.5037526e-04 2.8492257e-05 
6.7384500e-04 5.4948375e-04 -5.2371226e-05 
7.0271740e-04 5.6009990e-04 -1.0596640e-05 
7.1918359e-04 5.6526973e-04 1.9491270e-05 
6.6860754e-04 5.4139271e-04 -3.8877686e-05 
6.8040128e-04 5.5273151e-04 -4.6759473e-05 
6.6669029e-04 5.3504365e-04 -2.2867824e-05 
6.7484443e-04 5.4521416e-04 -3.5773934e-05 
6.7039946e-04 5.3509726e-04 -1.3242494e-05 
7.4828218e-04 5.9925090e-04 -1.7802482e-05 
7.1774377e-04 5.6682253e-04 1.0155890e-05 
6.7371206e-04 5.2963541e-04 1.3821327e-05 
7.3758076e-04 5.9494702e-04 -3.4212477e-05 
6.8216136e-04 5.6234718e-04 -7.7758566e-05 
6.8104314e-04 5.3289317e-04 2.3337079e-05 
6.7241880e-04 5.5128773e-04 -6.4675776e-05 
6.7675021e-04 5.4356223e-04 -2.5588739e-05 
6.9539889e-04 5.4375129e-04 2.7345039e-05 
7.5756299e-04 6.1423465e-04 -4.4133725e-05 
6.9422927e-04 5.5477256e-04 -1.5670785e-05 
6.6124916e-04 5.4432219e-04 -7.0156333e-05 
6.5562059e-04 5.3670187e-04 -5.8701506e-05 
7.0930232e-04 5.7413359e-04 -4.3349046e-05 
6.6706631e-04 5.3040189e-04 -6.6568573e-06 
6.5032195e-04 5.2888418e-04 -4.5997425e-05 
6.4421416e-04 5.2117906e-04 -3.6229954e-05 
6.7962613e-04 5.5609364e-04 -6.3968793e-05 
6.5744901e-04 5.4322323e-04 -7.8516474e-05 
6.5118197e-04 5.2480894e-04 -3.0252679e-05 
7.3330180e-04 5.9128687e-04 -3.2600197e-05 
7.3488732e-04 5.9136993e-04 -2.7997230e-05 
6.7216938e-04 5.2459229e-04 2.8743765e-05 
6.4506120e-04 5.1747821e-04 -2.1686823e-05 
6.5270410e-04 5.3052098e-04 -4.6290523e-05 
6.7060493e-04 5.3417170e-04 -9.5952228e-06 
6.4719602e-04 5.1115802e-04 5.4070942e-06 
6.8661134e-04 5.3909043e-04 2.0119403e-05 
6.5441139e-04 5.1313313e-04 1.8235582e-05 
6.6046242e-04 5.3371233e-04 -3.6824003e-05 
6.4346951e-04 5.3106161e-04 -7.4142816e-05 
7.1076548e-04 5.7275791e-04 -3.1956552e-05 
6.3764240e-04 5.2385434e-04 -6.4282933e-05 
6.3222705e-04 5.1637244e-04 -5.2734184e-05 
7.1041315e-04 5.6775683e-04 -1.3622456e-05 
6.2705833e-04 5.0860090e-04 -3.9820858e-05 
6.5043784e-04 5.3608365e-04 -7.5347307e-05 
6.4851053e-04 5.1478849e-04 -3.2908924e-06 
6.6308968e-04 5.1814370e-04 2.7759170e-05 
7.2403578e-04 5.8639265e-04 -4.1173582e-05 
6.2907825e-04 5.1035965e-04 -4.1431787e-05 
6.2287744e-04 5.0058204e-04 -2.4242630e-05 
6.2766520e-04 4.9399753e-04 1.0865238e-05 
6.8454351e-04 5.4340332e-04 9.6616484e-09 
6.3533476e-04 4.9711484e-04 2.1997899e-05 
6.1250525e-04 4.9187092e-04 -2.2014310e-05 
6.5032416e-04 5.3080491e-04 -5.7383608e-05 
6.2593154e-04 5.1751191e-04 -7.6432043e-05 
7.0018187e-04 5.6400005e-04 -2.9969324e-05 
6.2004064e-04 5.1103602e-04 -6.9043832e-05 
7.0170220e-04 5.6408037e-04 -2.5484062e-05 
6.4021157e-04 4.9949682e-04 2.8593853e-05 
6.1449088e-04 5.0392951e-04 -5.8471469e-05 
6.3865550e-04 5.0856761e-04 -8.5828533e-06 
6.0923601e-04 4.9649901e-04 -4.6505640e-05 
6.5437850e-04 5.1345298e-04 2.1272292e-05 
6.0998730e-04 4.9238221e-04 -3.0850188e-05 
6.3092785e-04 5.0944526e-04 -3.4381257e-05 
6.1775104e-04 4.9161265e-04 -7.0801698e-06 
6.8233698e-04 5.4526556e-04 -1.3508880e-05 
6.7376951e-04 5.4251560e-04 -3.0103365e-05 
6.1666564e-04 5.0539477e-04 -5.9726961e-05 
6.0445612e-04 4.7821520e-04 2.6225580e-06 
6.5151823e-04 5.1359361e-04 1.2342658e-05 
6.1880285e-04 5.1036401e-04 -7.3069466e-05 
6.1074714e-04 4.7912222e-04 1.6493450e-05 
6.1648648e-04 4.9538410e-04 -2.4040573e-05 
6.3130166e-04 4.9301318e-04 2.8068240e-05 
6.9098844e-04 5.5906764e-04 -3.8182396e-05 
6.1623525e-04 4.8137608e-04 2.5099465e-05 
6.0277531e-04 4.9815635e-04 -7.2398776e-05 
6.2829105e-04 5.0280016e-04 -1.6887665e-05 
5.9701822e-04 4.9144297e-04 -6.3599633e-05 
5.9165154e-04 4.8431533e-04 -5.2710813e-05 
5.8823486e-04 4.7800000e-04 -3.9831557e-05 
5.9721473e-04 4.8716526e-04 -4.9146485e-05 
5.9517735e-04 4.9233669e-04 -7.4029929e-05 
6.6774699e-04 5.3747353e-04 -2.7385002e-05 
6.6917745e-04 5.3753256e-04 -2.2972450e-05 
6.0914765e-04 4.7495720e-04 2.8732093e-05 
6.1425776e-04 5.0234864e-04 -5.7980938e-05 
5.9823785e-04 4.8803783e-04 -5.0364342e-05 
6.3067378e-04 5.1042327e-04 -3.9760824e-05 
5.8851077e-04 4.7829989e-04 -4.1225616e-05 
6.2270783e-04 4.8831949e-04 2.1950262e-05 
5.9555721e-04 4.7616684e-04 -1.4305776e-05 
5.8285694e-04 4.7014910e-04 -2.7893189e-05 
5.9367268e-04 4.6463087e-04 2.0905749e-05 
6.0202379e-04 4.7950260e-04 -7.4408722e-06 
5.8347132e-04 4.5969678e-04 9.5274017e-06 
5.7996029e-04 4.7893191e-04 -6.7784043e-05 
6.4199127e-04 5.1680277e-04 -2.7932905e-05 
5.7441444e-04 4.7215406e-04 -5.8041707e-05 
6.4590189e-04 5.1542994e-04 -9.5593223e-06 
5.6875381e-04 4.6435776e-04 -4.5551078e-05 
5.8835355e-04 4.8537509e-04 -7.0546528e-05 
5.6309300e-04 4.5287542e-04 -2.1141997e-05 
6.0022657e-04 4.6853028e-04 2.8115977e-05 
6.5852789e-04 5.3239800e-04 -3.5262165e-05 
5.7025411e-04 4.5588924e-04 -1.2807244e-05 
5.7285960e-04 4.6627200e-04 -4.2989330e-05 
5.6607893e-04 4.5926881e-04 -3.6367088e-05 
6.2079891e-04 4.9217127e-04 3.2950852e-06 
5.6168390e-04 4.4449363e-04 3.4496131e-06 
5.6830025e-04 4.4638224e-04 1.4673332e-05 
5.7362701e-04 4.4839410e-04 2.3697932e-05 
6.3568581e-04 5.1133311e-04 -2.4976636e-05 
5.6516728e-04 4.6787108e-04 -7.1928145e-05 
6.3707744e-04 5.1136158e-04 -2.0517253e-05 
5.5753684e-04 4.5996529e-04 -6.2592975e-05 
5.7846855e-04 4.5103481e-04 2.8868581e-05 
5.8576401e-04 4.7826461e-04 -5.3006799e-05 
5.5216678e-04 4.5321442e-04 -5.2590480e-05 
5.8025884e-04 4.6366092e-04 -1.2669486e-05 
5.9204036e-04 4.6404358e-04 2.2698050e-05 
5.4718432e-04 4.4621009e-04 -4.1119350e-05 
5.4678257e-04 4.3605833e-04 -7.3553970e-06 
5.5643119e-04 4.4513072e-04 -1.3208379e-05 
5.4843072e-04 4.4088945e-04 -1.9631092e-05 
6.1017164e-04 4.9107877e-04 -2.6382337e-05 
6.1843428e-04 4.9359491e-04 -9.2301261e-06 
5.3760014e-04 4.3618432e-04 -3.2090808e-05 
5.8969331e-04 4.6442333e-04 1.4812125e-05 
5.4453971e-04 4.3001378e-04 7.1231070e-06 
5.5816682e-04 4.6116329e-04 -6.8613619e-05 
5.4402172e-04 4.4064509e-04 -3.1499105e-05 
5.6018506e-04 4.4615264e-04 -5.9003819e-06 
5.6996860e-04 4.4493389e-04 2.8443497e-05 
6.2667526e-04 5.0624693e-04 -3.2289008e-05 
5.4918899e-04 4.3045456e-04 1.9522076e-05 
5.4083607e-04 4.4773764e-04 -6.6429675e-05 
5.3335179e-04 4.2795378e-04 -1.5534059e-05 
5.3542852e-04 4.4131733e-04 -5.7410540e-05 
5.4838276e-04 4.4494809e-04 -3.5560748e-05 
5.3813995e-04 4.2978424e-04 -8.9846171e-06 
5.3038751e-04 4.3469042e-04 -4.7131558e-05 
5.2554783e-04 4.2777549e-04 -3.5722187e-05 
5.3586048e-04 4.3669890e-04 -4.0553467e-05 
6.0426450e-04 4.8584299e-04 -2.2381333e-05 
5.3546042e-04 4.4424427e-04 -7.0034672e-05 
6.0562603e-04 4.8583912e-04 -1.7882181e-05 
5.4853869e-04 4.2770428e-04 2.8684537e-05 
5.5379164e-04 4.5345500e-04 -5.3914122e-05 
5.1812193e-04 4.1756069e-04 -2.0430853e-05 
5.6918943e-04 4.6061332e-04 -3.5631681e-05 
5.6152086e-04 4.4001642e-04 2.3524577e-05 
5.2348088e-04 4.2398411e-04 -2.8890210e-05 
5.2693661e-04 4.1499539e-04 1.2558716e-05 
5.3238240e-04 4.1659060e-04 2.2336104e-05 
5.7947164e-04 4.6629112e-04 -2.3455881e-05 
5.1902229e-04 4.2942949e-04 -6.1524224e-05 
5.2937301e-04 4.2322374e-04 -1.0200505e-05 
5.1391579e-04 4.2311076e-04 -5.2221487e-05 
5.8312714e-04 4.6486297e-04 -5.2446117e-06 
5.0905521e-04 4.1650209e-04 -4.1542797e-05 
5.2013871e-04 4.1560014e-04 -8.3353743e-06 
5.2893488e-04 4.3760650e-04 -6.6503948e-05 
5.2109256e-04 4.2681489e-04 -4.7315814e-05 
5.4002140e-04 4.2149986e-04 2.8885392e-05 
5.9531210e-04 4.8074566e-04 -2.9436544e-05 
5.0712342e-04 4.0939733e-04 -2.1961845e-05 
5.0276576e-04 4.0925099e-04 -3.2897722e-05 
5.2638969e-04 4.2426572e-04 -2.3028098e-05 
5.0400372e-04 3.9954175e-04 3.8714838e-06 
5.0578063e-04 4.1099906e-04 -3.1747775e-05 
5.5926351e-04 4.4320611e-04 6.4687056e-06 
5.1054073e-04 4.0070195e-04 1.8444000e-05 
5.7332218e-04 4.6088090e-04 -2.0024770e-05 
5.0678739e-04 4.2119203e-04 -6.7774912e-05 
5.0300418e-04 4.1765792e-04 -6.4715190e-05 
5.7465467e-04 4.6083416e-04 -1.5404661e-05 
5.1204232e-04 4.0531569e-04 6.5433665e-06 
5.1921076e-04 4.0515573e-04 2.8420038e-05 
5.2610540e-04 4.3038302e-04 -4.9406259e-05 
4.9780495e-04 4.1173617e-04 -5.6583849e-05 
5.2099000e-04 4.1661711e-04 -9.9830286e-06 
5.3202186e-04 4.1697692e-04 2.4192759e-05 
4.9276580e-04 4.0537215e-04 -4.7029691e-05 
4.8810604e-04 3.9875146e-04 -3.6155194e-05 
4.9794849e-04 4.0702845e-04 -4.0055827e-05 
5.4897601e-04 4.4188826e-04 -2.2232212e-05 
5.5682886e-04 4.4414776e-04 -4.8564029e-06 
5.0257402e-04 4.0919267e-04 -3.6018391e-05 
4.8858020e-04 3.9506110e-04 -2.2383911e-05 
5.2980997e-04 4.1746153e-04 1.7514483e-05 
5.0020689e-04 4.1445627e-04 -6.4237829e-05 
4.7702325e-04 3.8556417e-04 -1.9774656e-05 
4.8717653e-04 3.8476885e-04 1.0204836e-05 
5.1079807e-04 3.9877949e-04 2.9139657e-05 
5.6452688e-04 4.5581220e-04 -2.6620877e-05 
5.0251681e-04 4.0528632e-04 -2.1010766e-05 
4.8195821e-04 4.0020220e-04 -6.0237267e-05 
4.9234775e-04 3.8575381e-04 2.1992646e-05 
4.9007492e-04 3.9306434e-04 -1.1433823e-05 
4.7687790e-04 3.9415277e-04 -5.1662242e-05 
4.7221058e-04 3.8800217e-04 -4.1889838e-05 
4.7725259e-04 3.8991004e-04 -3.6043450e-05 
5.4309162e-04 4.3666473e-04 -1.7728658e-05 
4.7879477e-04 3.9876110e-04 -6.5779728e-05 
4.6496812e-04 3.8002778e-04 -3.2849708e-05 
5.4437038e-04 4.3656398e-04 -1.2927894e-05 
4.7823015e-04 3.9203290e-04 -4.1796880e-05 
4.9057242e-04 3.8320554e-04 2.8195709e-05 
4.9578858e-04 4.0703180e-04 -5.0218612e-05 
4.8936298e-04 3.9062998e-04 -3.6538809e-06 
4.6695178e-04 3.7778710e-04 -2.0047430e-05 
5.0272769e-04 3.9416028e-04 2.4877938e-05 
4.8163510e-04 3.9339872e-04 -3.7688740e-05 
5.0995924e-04 4.1330286e-04 -3.1866388e-05 
4.6516166e-04 3.7044185e-04 4.5946601e-07 
4.7064686e-04 3.7066228e-04 1.4859023e-05 
4.6658932e-04 3.8881114e-04 -6.2910149e-05 
5.1942503e-04 4.1829707e-04 -1.9537354e-05 
4.7540557e-04 3.7236180e-04 2.3671322e-05 
4.6143710e-04 3.8312140e-04 -5.5573786e-05 
5.2286353e-04 4.1682468e-04 -1.0605216e-06 
4.5655464e-04 3.7715994e-04 -4.6846562e-05 
4.7228279e-04 3.9223657e-04 -6.2081774e-05 
4.5203968e-04 3.7097916e-04 -3.6651058e-05 
4.8249526e-04 3.7709341e-04 2.8846573e-05 
4.6374946e-04 3.7109290e-04 -5.4063757e-06 
5.3417927e-04 4.3144426e-04 -2.4006387e-05 
4.8028037e-04 3.8499577e-04 -9.1924931e-06 
4.8743965e-04 3.8962180e-04 -5.1933939e-06 
4.5875856e-04 3.7637851e-04 -3.9493771e-05 
5.0019799e-04 3.9664929e-04 9.4453690e-06 
4.4927548e-04 3.6495455e-04 -2.3344906e-05 
4.4897594e-04 3.5590114e-04 7.7226759e-06 
4.3950047e-04 3.5641910e-04 -1.9189803e-05 
5.1313336e-04 4.1281944e-04 -1.5678332e-05 
4.4415100e-04 3.5963889e-04 -1.8421697e-05 
4.5152454e-04 3.7704050e-04 -6.4024578e-05 
4.5420986e-04 3.5707781e-04 1.8663110e-05 
5.1438226e-04 4.1264837e-04 -1.0636109e-05 
4.4616481e-04 3.7209352e-04 -5.9046128e-05 
4.6322527e-04 3.6208867e-04 2.8254522e-05 
4.7017177e-04 3.8546749e-04 -4.5273991e-05 
4.6205363e-04 3.6923430e-04 -2.4288215e-06 
4.4127816e-04 3.6640308e-04 -5.1066501e-05 
4.6390580e-04 3.7607169e-04 -2.4392610e-05 
4.7460629e-04 3.7242001e-04 2.5065101e-05 
4.3664130e-04 3.6050112e-04 -4.1969939e-05 
4.5319257e-04 3.5930809e-04 8.5129032e-06 
4.3229427e-04 3.5448596e-04 -3.1929234e-05 
4.4140031e-04 3.6210471e-04 -3.5753816e-05 
4.9084116e-04 3.9558814e-04 -1.8338738e-05 
4.4925706e-04 3.6975113e-04 -4.3503383e-05 
4.9758930e-04 3.9709129e-04 -7.5270123e-07 
4.7260564e-04 3.7247484e-04 1.9136214e-05 
4.4542080e-04 3.7059176e-04 -5.9752150e-05 
4.4167659e-04 3.5760179e-04 -1.8538536e-05 
4.2778690e-04 3.4276446e-04 -2.9729938e-06 
4.5527099e-04 3.5617742e-04 2.8749811e-05 
5.0456857e-04 4.0762813e-04 -2.1246307e-05 
4.3567136e-04 3.4993814e-04 -7.0125284e-06 
4.3533888e-04 3.6091142e-04 -4.9504230e-05 
4.3302975e-04 3.4232705e-04 1.2702108e-05 
4.5311009e-04 3.6362736e-04 -7.6670449e-06 
4.2665220e-04 3.5046705e-04 -3.3989883e-05 
4.2637443e-04 3.5564069e-04 -5.4568107e-05 
4.3796620e-04 3.4376053e-04 2.2413325e-05 
4.8437587e-04 3.8994881e-04 -1.3522298e-05 
4.2504809e-04 3.5601945e-04 -6.1860999e-05 
4.1259362e-04 3.3936309e-04 -3.2198292e-05 
4.8555923e-04 3.8971662e-04 -8.2630204e-06 
4.3639165e-04 3.4161747e-04 2.8007355e-05 
4.4085062e-04 3.6315931e-04 -4.6241061e-05 
4.4751659e-04 3.5152980e-04 2.5899180e-05 
4.5472253e-04 3.6950817e-04 -2.7944465e-05 
4.2100417e-04 3.4515964e-04 -3.1285308e-05 
4.1234208e-04 3.4320107e-04 -4.7680773e-05 
4.1369873e-04 3.2938612e-04 5.8678293e-06 
4.0529392e-04 3.2993450e-04 -1.8502255e-05 
4.2480967e-04 3.3918666e-04 2.3943719e-06 
4.1847836e-04 3.3000347e-04 1.7357250e-05 
4.6413444e-04 3.7443731e-04 -1.5332851e-05 
4.0710997e-04 3.3006430e-04 -1.4205012e-05 
4.2191913e-04 3.3129440e-04 2.3582457e-05 
4.1171772e-04 3.4536273e-04 -5.9407663e-05 
4.6559444e-04 3.7173645e-04 2.6557857e-06 
4.0255825e-04 3.3357018e-04 -3.9199251e-05 
4.1905584e-04 3.4965013e-04 -5.8174181e-05 
4.2849555e-04 3.3586126e-04 2.9098381e-05 
4.1286676e-04 3.3018948e-04 1.3054530e-06 
4.7572723e-04 3.8465168e-04 -1.8774845e-05 
4.0233284e-04 3.3684180e-04 -5.3004645e-05 
4.1364206e-04 3.3736066e-04 -2.4155615e-05 
3.9318483e-04 3.2398841e-04 -3.0166764e-05 
4.0512590e-04 3.3476719e-04 -3.8216458e-05 
4.4477731e-04 3.5342676e-04 1.2337056e-05 
3.9639947e-04 3.2429886e-04 -2.3160268e-05 
3.9378475e-04 3.1616804e-04 -1.2104663e-06 
4.0503527e-04 3.1918738e-04 1.9786694e-05 
3.9856674e-04 3.1651164e-04 1.0817185e-05 
3.9257950e-04 3.2756125e-04 -4.5538294e-05 
4.5631352e-04 3.6778537e-04 -1.1696482e-05 
4.0310356e-04 3.2788666e-04 -1.8103889e-05 
3.9963101e-04 3.3581929e-04 -5.9798276e-05 
4.5741562e-04 3.6746435e-04 -6.1244950e-06 
4.1021928e-04 3.2169838e-04 2.7336260e-05 
4.0488105e-04 3.2147916e-04 1.1734403e-05 
4.1460493e-04 3.4230560e-04 -4.4828565e-05 
3.9276329e-04 3.3018916e-04 -5.7129091e-05 
4.0748142e-04 3.3285469e-04 -2.5776944e-05 
3.8878963e-04 3.1559213e-04 -1.2794894e-05 
4.1776453e-04 3.2852514e-04 2.7200449e-05 
4.0324795e-04 3.2425742e-04 -3.2930795e-06 
3.8310039e-04 3.1818528e-04 -3.7072939e-05 
4.3554942e-04 3.5200032e-04 -1.4580086e-05 
3.8629936e-04 3.1804628e-04 -2.8977433e-05 
3.9049383e-04 3.1418892e-04 -2.5769132e-06 
3.8303310e-04 3.2134159e-04 -5.0734670e-05 
3.8918987e-04 3.2301407e-04 -4.1154766e-05 
3.9272549e-04 3.2671954e-04 -4.6538018e-05 
3.7412471e-04 3.0596677e-04 -1.7910041e-05 
3.9393071e-04 3.2958208e-04 -5.5863053e-05 
4.1063476e-04 3.2875428e-04 3.0243052e-06 
4.0283636e-04 3.1628058e-04 2.8720899e-05 
4.4771680e-04 3.6236839e-04 -1.6352225e-05 
3.9122664e-04 3.0804463e-04 2.2933211e-05 
3.7847861e-04 3.0303898e-04 3.7197451e-06 
3.8484953e-04 3.0487185e-04 1.5464697e-05 
3.7727001e-04 3.0919586e-04 -2.1611520e-05 
4.0008276e-04 3.2167812e-04 -1.8722106e-06 
4.1401148e-04 3.2746524e-04 2.0837710e-05 
3.7354915e-04 3.1238061e-04 -4.3045347e-05 
4.3208239e-04 3.4588916e-04 3.0664221e-06 
3.7661585e-04 3.1176250e-04 -3.3760032e-05 
3.8325533e-04 3.0862572e-04 -2.0065570e-06 
3.7355130e-04 3.1481552e-04 -5.4820805e-05 
4.2900417e-04 3.4634775e-04 -9.9920308e-06 
3.6938413e-04 3.0028517e-04 -1.1041021e-05 
3.6438886e-04 3.0327917e-04 -3.4785258e-05 
3.7496691e-04 3.1627499e-04 -5.7465008e-05 
4.3004469e-04 3.4594504e-04 -4.0381815e-06 
3.8495913e-04 3.0268228e-04 2.6794674e-05 
4.0649617e-04 3.3111803e-04 -2.2780649e-05 
3.7250092e-04 3.0079190e-04 -4.0339205e-06 
3.9527009e-04 3.1157004e-04 2.6706051e-05 
3.6232782e-04 2.9247781e-04 -2.7081596e-06 
3.6416095e-04 3.0633179e-04 -4.8428363e-05 
3.6662523e-04 2.9252592e-04 8.7689577e-06 
3.7279390e-04 2.9502687e-04 1.8622099e-05 
3.7427750e-04 3.0860311e-04 -2.9895944e-05 
4.0918618e-04 3.3130511e-04 -1.2100814e-05 
3.5868026e-04 2.9460073e-04 -1.9920320e-05 
3.8165398e-04 3.1633110e-04 -4.1291085e-05 
3.5500029e-04 2.9762270e-04 -4.1014628e-05 
3.6867618e-04 2.9728244e-04 -1.1823955e-06 
3.6904932e-04 3.1025748e-04 -5.4030090e-05 
3.7761685e-04 2.9715057e-04 2.8452494e-05 
4.2045556e-04 3.4081779e-04 -1.4048715e-05 
3.7427165e-04 3.0561368e-04 -1.8553908e-05 
3.5801149e-04 2.9722211e-04 -3.2169894e-05 
3.7821880e-04 3.0619637e-04 -7.4211493e-06 
3.5520951e-04 3.0025025e-04 -5.2757685e-05 
3.4592694e-04 2.8427245e-04 -1.7325163e-05 
3.4625747e-04 2.8878040e-04 -3.2730972e-05 
3.5375971e-04 2.8145537e-04 1.3811937e-05 
3.4913578e-04 2.8885272e-04 -2.5742143e-05 
3.5956706e-04 2.8418979e-04 2.1884709e-05 
3.4700823e-04 2.7963286e-04 1.4904208e-06 
4.0245257e-04 3.2561808e-04 -8.3869418e-06 
3.4595066e-04 2.9184920e-04 -4.6022335e-05 
3.8166097e-04 3.0272495e-04 2.0983432e-05 
4.0342571e-04 3.2516080e-04 -2.0408968e-06 
3.5147977e-04 2.9775468e-04 -5.5668275e-05 
3.6104623e-04 2.8457219e-04 2.6153981e-05 
3.8651878e-04 3.0784067e-04 1.6508393e-05 
3.9279624e-04 3.1448295e-04 9.5489249e-06 
3.4959486e-04 2.8270629e-04 -1.7864437e-06 
3.4064293e-04 2.8043202e-04 -1.8539022e-05 
3.3725047e-04 2.8342762e-04 -3.8907401e-05 
3.6936256e-04 3.0371410e-04 -2.8454422e-05 
3.5562736e-04 2.9803158e-04 -4.7427988e-05 
3.7453265e-04 3.0604948e-04 -2.0345375e-05 
3.6550299e-04 2.8873875e-04 2.6467807e-05 
3.4448123e-04 2.8629319e-04 -3.0659496e-05 
3.3712704e-04 2.8597430e-04 -5.0465434e-05 
3.7750870e-04 3.0713782e-04 -1.3801739e-05 
3.5680723e-04 2.9618028e-04 -3.6941579e-05 
3.4609056e-04 2.7702769e-04 1.0192335e-05 
3.2868827e-04 2.7485762e-04 -3.0681749e-05 
3.4279222e-04 2.7180873e-04 1.9170417e-05 
3.9396831e-04 3.2000509e-04 -1.1864473e-05 
3.5035986e-04 2.8038217e-04 1.0895293e-05 
3.3399166e-04 2.6798091e-04 7.9320598e-06 
3.3234162e-04 2.7463536e-04 -2.0921945e-05 
3.8014771e-04 3.0842473e-04 -9.0788335e-06 
3.4661713e-04 2.8565977e-04 -2.3259521e-05 
3.5029798e-04 2.8742463e-04 -1.8609142e-05 
3.2835969e-04 2.7791731e-04 -4.4051063e-05 
3.3107496e-04 2.7642463e-04 -3.1651012e-05 
3.2027185e-04 2.6458484e-04 -1.6827482e-05 
3.4976451e-04 2.8274785e-04 3.8959078e-07 
3.2326201e-04 2.6675226e-04 -1.7122637e-05 
3.2887212e-04 2.7993647e-04 -5.3767246e-05 
3.1987706e-04 2.6971530e-04 -3.6818292e-05 
3.3821297e-04 2.6721691e-04 2.5254927e-05 
3.3188736e-04 2.7109165e-04 -8.7542721e-06 
3.4203037e-04 2.7035861e-04 2.8022614e-05 
3.4634228e-04 2.7454790e-04 2.6111893e-05 
3.5066210e-04 2.7891295e-04 2.3657392e-05 
3.5532317e-04 2.8341525e-04 2.0271194e-05 
3.7090387e-04 2.9925708e-04 2.6717255e-06 
3.1990372e-04 2.7224477e-04 -4.8225102e-05 
3.2813387e-04 2.7543909e-04 -3.8796563e-05 
3.2392447e-04 2.6486721e-04 -8.5663441e-06 
3.1715081e-04 2.5716357e-04 5.4674985e-07 
3.2331471e-04 2.5843375e-04 1.3228358e-05 
3.3115817e-04 2.7966179e-04 -4.9000573e-05 
3.3663635e-04 2.8163070e-04 -4.0270374e-05 
3.4248596e-04 2.8372617e-04 -3.0974417e-05 
3.5803259e-04 2.8663693e-04 1.5866592e-05 
3.1183584e-04 2.6151066e-04 -2.8736782e-05 
3.2285164e-04 2.7035706e-04 -3.3782992e-05 
3.4774130e-04 2.8614621e-04 -2.3842969e-05 
3.1591314e-04 2.6488886e-04 -3.1200205e-05 
3.6035664e-04 2.8948748e-04 1.0819243e-05 
3.5146807e-04 2.8743071e-04 -1.5891228e-05 
3.1602269e-04 2.6984618e-04 -5.1836560e-05 
3.3469484e-04 2.7398687e-04 -1.2559142e-05 
3.5483090e-04 2.8892513e-04 -1.0185426e-05 
3.6830772e-04 2.9995758e-04 -9.9320796e-06 
3.5794303e-04 2.9093242e-04 -6.4068968e-06 
3.2135111e-04 2.6711871e-04 -2.6480157e-05 
3.2475565e-04 2.6255031e-04 4.3865621e-06 
3.3583661e-04 2.7207818e-04 1.4766050e-06 
2.9705686e-04 2.4660316e-04 -1.6299922e-05 
2.9843321e-04 2.5191053e-04 -3.1415628e-05 
3.0402653e-04 2.4555076e-04 6.5610998e-06 
3.0092432e-04 2.5597983e-04 -4.0315310e-05 
3.1030778e-04 2.4778669e-04 1.7426622e-05 
3.0369888e-04 2.5965978e-04 -4.7801121e-05 
3.0722248e-04 2.6292066e-04 -5.1858096e-05 
3.1593314e-04 2.5046416e-04 2.4881292e-05 
3.1169906e-04 2.6535863e-04 -4.9832237e-05 
3.1996411e-04 2.5325420e-04 2.7382861e-05 
3.1651236e-04 2.6703867e-04 -4.4012264e-05 
3.2370797e-04 2.5677687e-04 2.7174050e-05 
3.2104083e-04 2.6802483e-04 -3.4040717e-05 
3.2684163e-04 2.6015929e-04 2.5344070e-05 
3.2565609e-04 2.6977895e-04 -2.6019652e-05 
3.3005505e-04 2.6345713e-04 2.2496735e-05 
2.9781042e-04 2.4792520e-04 -1.9564372e-05 
3.3001072e-04 2.7138658e-04 -1.8678227e-05 
3.3334151e-04 2.6702660e-04 1.9297793e-05 
3.0597398e-04 2.5554161e-04 -2.6550548e-05 
3.3399177e-04 2.7324000e-04 -1.1914894e-05 
3.3626464e-04 2.7041091e-04 1.4609159e-05 
3.3751570e-04 2.7518778e-04 -7.0869428e-06 
3.3898561e-04 2.7354664e-04 9.2415894e-06 
2.9686472e-04 2.5021023e-04 -3.1381973e-05 
3.1419549e-04 2.5502330e-04 2.9525936e-06 
3.4074995e-04 2.7753276e-04 -4.7602962e-06 
3.4150397e-04 2.7684087e-04 2.1334258e-06 
3.4414939e-04 2.8083340e-04 -7.7717550e-06 
3.0607695e-04 2.5439038e-04 -2.2192089e-05 
2.9217461e-04 2.5091236e-04 -4.8748232e-05 
3.0002405e-04 2.4368126e-04 3.3219458e-06 
3.0946799e-04 2.5471940e-04 -1.2463905e-05 
2.8291135e-04 2.3913628e-04 -2.7514989e-05 
2.8484027e-04 2.4258244e-04 -3.5337449e-05 
2.9205161e-04 2.3497519e-04 1.2240267e-05 
2.8734526e-04 2.4626133e-04 -4.3153716e-05 
2.8638178e-04 2.3356543e-04 6.9657222e-07 
2.9705360e-04 2.3688444e-04 2.0311816e-05 
3.1855842e-04 2.5834361e-04 4.6704463e-06 
2.8716488e-04 2.4090329e-04 -2.3720788e-05 
2.9741102e-04 2.5328973e-04 -4.6218232e-05 
2.8367116e-04 2.3662520e-04 -1.7205535e-05 
3.0141990e-04 2.5386992e-04 -3.7799586e-05 
3.0500643e-04 2.5437569e-04 -2.8827413e-05 
2.8673297e-04 2.4681332e-04 -5.0382168e-05 
2.9474407e-04 2.3472308e-04 2.3975294e-05 
3.0517712e-04 2.4303953e-04 2.6241598e-05 
3.0845127e-04 2.5563198e-04 -2.1398877e-05 
2.7442243e-04 2.2927567e-04 -1.5795666e-05 
3.1335498e-04 2.5764736e-04 -1.4267784e-05 
3.0773995e-04 2.4580528e-04 2.4764731e-05 
2.7735307e-04 2.3052657e-04 -1.2266180e-05 
3.1743001e-04 2.6001543e-04 -8.4208723e-06 
3.2133199e-04 2.6249199e-04 -4.5728598e-06 
3.0960742e-04 2.4825495e-04 2.1837284e-05 
2.9535242e-04 2.3477232e-04 2.7214735e-05 
3.1294467e-04 2.5183969e-04 1.8132690e-05 
3.1637825e-04 2.5550922e-04 1.3388717e-05 
2.7657431e-04 2.3846123e-04 -4.5639503e-05 
2.7270231e-04 2.3427073e-04 -3.9371404e-05 
2.7052744e-04 2.3097677e-04 -3.2492317e-05 
2.7570795e-04 2.2380277e-04 6.9614293e-06 
2.8094440e-04 2.2554364e-04 1.6039752e-05 
2.7883725e-04 2.2925118e-04 -3.9400084e-06 
2.7814109e-04 2.3664293e-04 -3.5164332e-05 
2.6673463e-04 2.2619218e-04 -2.5314885e-05 
2.8245719e-04 2.3931709e-04 -3.4520297e-05 
3.2061135e-04 2.6241801e-04 -5.7386319e-06 
2.7234218e-04 2.3046430e-04 -2.7199008e-05 
2.6971221e-04 2.2729411e-04 -2.2256414e-05 
2.6734939e-04 2.2395577e-04 -1.6391041e-05 
3.1343044e-04 2.5472546e-04 5.7622524e-06 
2.9160298e-04 2.3965152e-04 -5.8116411e-06 
2.8586583e-04 2.3749736e-04 -1.6683314e-05 
2.9578022e-04 2.4112135e-04 3.2854498e-06 
2.7984942e-04 2.3846408e-04 -4.1445874e-05 
2.7325356e-04 2.2702427e-04 -1.1931853e-05 
2.9927565e-04 2.4629285e-04 -1.0246410e-05 
2.8271080e-04 2.3813266e-04 -3.2390573e-05 
2.7861728e-04 2.2728206e-04 4.3963091e-06 
2.6736991e-04 2.3162013e-04 -4.8585778e-05 
2.7513364e-04 2.1964354e-04 2.3731256e-05 
2.6095202e-04 2.2570370e-04 -4.1473348e-05 
2.5873599e-04 2.2261716e-04 -3.5280049e-05 
2.6335986e-04 2.2849612e-04 -4.6404781e-05 
2.8552080e-04 2.3849214e-04 -2.4081182e-05 
2.5675521e-04 2.1926437e-04 -2.8049173e-05 
2.5990960e-04 2.1350343e-04 2.7045056e-07 
2.6523022e-04 2.1447617e-04 1.1544357e-05 
2.6994283e-04 2.1647579e-04 1.9050916e-05 
2.8153908e-04 2.2447214e-04 2.7102767e-05 
2.8954615e-04 2.4007136e-04 -1.6237896e-05 
2.9889861e-04 2.4535181e-04 -5.1185420e-06 
2.8288938e-04 2.2645532e-04 2.6029016e-05 
2.5221048e-04 2.1222906e-04 -1.5414118e-05 
2.6131386e-04 2.1514490e-04 -9.2432236e-07 
2.8399049e-04 2.2817218e-04 2.4070325e-05 
2.6440216e-04 2.1645536e-04 3.2321163e-06 
2.9039863e-04 2.3498721e-04 1.6962662e-05 
2.9415794e-04 2.3888570e-04 1.1763973e-05 
2.8640582e-04 2.3082709e-04 2.0609968e-05 
2.7015863e-04 2.1548090e-04 2.6610107e-05 
2.7203633e-04 2.2228694e-04 5.1868055e-06 
2.5488049e-04 2.1711248e-04 -2.6824971e-05 
2.6300133e-04 2.2666540e-04 -4.4902201e-05 
2.5089429e-04 2.1126143e-04 -1.5866575e-05 
2.9952588e-04 2.4603005e-04 -4.0313303e-06 
2.5758424e-04 2.2036544e-04 -3.2881573e-05 
2.6242030e-04 2.1411723e-04 7.1879522e-06 
2.4738780e-04 2.1450919e-04 -3.7712074e-05 
2.4536706e-04 2.1139033e-04 -3.1193307e-05 
2.4985577e-04 2.0420249e-04 6.2180588e-06 
2.5478294e-04 2.0576124e-04 1.4916664e-05 
2.4909899e-04 2.1700795e-04 -4.3543529e-05 
2.4289967e-04 2.0778195e-04 -2.4676261e-05 
2.4532891e-04 2.0352687e-04 -3.7908369e-06 
2.5828704e-04 2.1658608e-04 -1.6738884e-05 
2.5335143e-04 2.1155676e-04 -1.0675742e-05 
2.6750081e-04 2.2260354e-04 -1.3067745e-05 
2.8743953e-04 2.3475403e-04 6.4748838e-06 
2.8576495e-04 2.3496711e-04 -2.0851442e-06 
2.7832421e-04 2.3004413e-04 -8.0047348e-06 
2.4889744e-04 2.1703575e-04 -4.6869347e-05 
2.5595471e-04 2.0499225e-04 2.2706134e-05 
2.5839475e-04 2.2071025e-04 -3.6813228e-05 
2.4732083e-04 2.0569187e-04 -6.0090547e-06 
2.6349505e-04 2.1092959e-04 2.6624915e-05 
2.4009490e-04 2.0380023e-04 -1.8685625e-05 
2.4351760e-04 2.0907128e-04 -2.9841329e-05 
2.6171815e-04 2.1309369e-04 1.2057137e-05 
2.6153080e-04 2.1967207e-04 -2.2683735e-05 
2.3659298e-04 2.0667668e-04 -3.9649989e-05 
2.3900360e-04 2.0918979e-04 -4.4178309e-05 
2.3448571e-04 2.0380289e-04 -3.3918936e-05 
2.3258921e-04 2.0059783e-04 -2.6985026e-05 
2.7368852e-04 2.2285509e-04 1.4039370e-05 
2.3527809e-04 1.9472701e-04 -1.0997608e-07 
2.4022486e-04 1.9566900e-04 1.0580371e-05 
2.4463411e-04 1.9719162e-04 1.8000783e-05 
2.3044313e-04 1.9541572e-04 -1.4761410e-05 
2.4132113e-04 2.0690019e-04 -2.8946088e-05 
2.4405426e-04 2.0050889e-04 4.4305893e-06 
2.4458035e-04 2.1217568e-04 -4.3597214e-05 
2.5039993e-04 2.0053849e-04 2.5618538e-05 
2.7902768e-04 2.2993624e-04 -2.4722926e-06 
2.5900590e-04 2.0867858e-04 2.4960940e-05 
2.3368254e-04 2.0028501e-04 -2.4308465e-05 
2.3237731e-04 1.9488695e-04 -8.1933140e-06 
2.4810393e-04 2.0467173e-04 1.8094836e-06 
2.5840339e-04 2.0930910e-04 2.1597860e-05 
2.6635034e-04 2.1993388e-04 -1.2470684e-06 
2.4700127e-04 1.9826862e-04 2.6589425e-05 
2.6711507e-04 2.1913553e-04 7.1293630e-06 
2.3125089e-04 2.0319979e-04 -4.5366942e-05 
2.3790296e-04 1.9136342e-04 2.1854476e-05 
2.3519505e-04 2.0024439e-04 -2.1369853e-05 
2.4005005e-04 1.9747508e-04 5.7481816e-06 
2.3045149e-04 1.9673425e-04 -2.1270755e-05 
2.4130028e-04 2.0660704e-04 -3.3604909e-05 
2.2611632e-04 1.9881129e-04 -4.1113697e-05 
2.2396764e-04 1.9616161e-04 -3.6208748e-05 
2.2198915e-04 1.9331256e-04 -3.0140205e-05 
2.2028356e-04 1.9013516e-04 -2.3195838e-05 
2.2951826e-04 1.9228480e-04 -6.7117207e-06 
2.2605529e-04 1.8603633e-04 5.5989913e-06 
2.2249976e-04 1.8594517e-04 -3.8219682e-06 
2.3070033e-04 1.8734977e-04 1.4235712e-05 
2.5461242e-04 2.1195278e-04 -8.7237750e-06 
2.1996492e-04 1.8740214e-04 -1.5233541e-05 
2.2133751e-04 1.9009235e-04 -2.1296742e-05 
2.2514004e-04 1.9616759e-04 -3.5356170e-05 
2.5497851e-04 2.0843314e-04 1.4990173e-05 
2.3621511e-04 1.9569563e-04 1.4708493e-06 
2.2724626e-04 1.9850739e-04 -4.2070747e-05 
2.3277280e-04 1.8725639e-04 2.5144291e-05 
2.5983277e-04 2.1497141e-04 -1.1615155e-06 
2.3826603e-04 2.0182147e-04 -2.1083957e-05 
2.2562292e-04 1.8559190e-04 7.9103329e-06 
2.2145273e-04 1.8830458e-04 -1.5740572e-05 
2.2244410e-04 1.8042824e-04 1.7035487e-05 
2.1372904e-04 1.8874566e-04 -3.8042046e-05 
2.1178513e-04 1.8601240e-04 -3.2582804e-05 
2.1592426e-04 1.9116828e-04 -4.2247888e-05 
2.1005601e-04 1.8304195e-04 -2.6156124e-05 
2.0903011e-04 1.7882432e-04 -1.4245241e-05 
2.1230796e-04 1.7720330e-04 -4.6910867e-07 
2.1702416e-04 1.7788612e-04 9.9612134e-06 
2.1452041e-04 1.7909655e-04 -8.1918586e-07 
2.4800154e-04 2.0565650e-04 -5.0816612e-07 
2.1856138e-04 1.8949933e-04 -2.9947731e-05 
2.2217185e-04 1.8678504e-04 -7.7331924e-06 
2.4868833e-04 2.0476895e-04 8.2981833e-06 
2.1275108e-04 1.8506494e-04 -2.8070657e-05 
2.2068192e-04 1.7846926e-04 2.1132622e-05 
2.1457531e-04 1.9004881e-04 -4.3573349e-05 
2.2197471e-04 1.8984676e-04 -2.1893193e-05 
2.2438318e-04 1.9339030e-04 -3.2591804e-05 
2.2786083e-04 1.8366984e-04 2.6693995e-05 
2.1293673e-04 1.8569926e-04 -3.0778156e-05 
2.1340468e-04 1.7794697e-04 3.9377733e-07 
2.0690507e-04 1.7891021e-04 -2.1076408e-05 
2.0533495e-04 1.7618458e-04 -1.5259340e-05 
2.3561121e-04 1.9681381e-04 -6.4224168e-06 
2.1029617e-04 1.7896049e-04 -1.2443397e-05 
2.0954401e-04 1.7143310e-04 1.3402483e-05 
2.3272293e-04 1.8977358e-04 2.1678372e-05 
2.3714433e-04 1.9439288e-04 1.6075108e-05 
2.0203664e-04 1.7895430e-04 -3.4750687e-05 
2.0403015e-04 1.8153658e-04 -3.9511186e-05 
2.0028710e-04 1.7622445e-04 -2.8969320e-05 
1.9869361e-04 1.7328620e-04 -2.2344933e-05 
2.0103763e-04 1.6950199e-04 -3.6876665e-06 
2.0549839e-04 1.8297815e-04 -4.2156124e-05 
2.0390702e-04 1.6916913e-04 5.1105008e-06 
2.1079481e-04 1.8562198e-04 -4.0591647e-05 
2.1587625e-04 1.7434829e-04 2.4838990e-05 
2.4145209e-04 2.0066882e-04 3.8210754e-08 
2.1794582e-04 1.8355041e-04 -7.5593503e-06 
2.1461131e-04 1.7812672e-04 5.4024067e-06 
2.0204294e-04 1.7023711e-04 -3.2637977e-06 
2.0264940e-04 1.7773264e-04 -3.0083145e-05 
1.9872584e-04 1.6901204e-04 -8.0690616e-06 
2.1779454e-04 1.7932685e-04 1.2465086e-05 
2.0509386e-04 1.7786796e-04 -2.5239804e-05 
1.9572576e-04 1.6960449e-04 -1.8177649e-05 
2.3018396e-04 1.9187592e-04 7.7216470e-08 
2.3081846e-04 1.9091374e-04 9.3227400e-06 
2.0439996e-04 1.6614313e-04 2.0481410e-05 
1.9872237e-04 1.7748859e-04 -4.2263149e-05 
2.1095901e-04 1.7086569e-04 2.6515021e-05 
2.0398425e-04 1.6972724e-04 6.0005691e-06 
1.9272554e-04 1.6192185e-04 3.7041715e-07 
2.0673870e-04 1.8027014e-04 -3.2685868e-05 
1.9665049e-04 1.6239783e-04 9.7449883e-06 
1.9266809e-04 1.7209968e-04 -3.6548663e-05 
1.9898989e-04 1.6517191e-04 7.4506174e-06 
1.9082481e-04 1.6960071e-04 -3.1437768e-05 
1.9471619e-04 1.7433982e-04 -4.0530354e-05 
1.8914223e-04 1.6673437e-04 -2.5199271e-05 
1.8818081e-04 1.6264046e-04 -1.3704504e-05 
1.9388756e-04 1.6443794e-04 -4.9116302e-06 
2.1116491e-04 1.8022167e-04 -1.8860219e-05 
2.1123682e-04 1.7179456e-04 2.6260130e-05 
2.1802117e-04 1.8355704e-04 -5.9702443e-06 
1.9007886e-04 1.6646941e-04 -2.3108512e-05 
2.1994050e-04 1.8126245e-04 1.6910162e-05 
1.8970662e-04 1.6717098e-04 -2.7600310e-05 
2.2389943e-04 1.8698149e-04 1.2504291e-06 
1.9973954e-04 1.6209717e-04 2.4040462e-05 
1.9522912e-04 1.7335921e-04 -3.9367675e-05 
1.8483767e-04 1.6039087e-04 -1.5129623e-05 
1.8437201e-04 1.5420500e-04 5.0438666e-06 
1.8810130e-04 1.5511950e-04 1.2931929e-05 
1.8160418e-04 1.6284692e-04 -3.3478445e-05 
1.7996437e-04 1.6029632e-04 -2.7960155e-05 
1.8099658e-04 1.5391709e-04 -3.3509898e-06 
1.7861089e-04 1.5758675e-04 -2.1590098e-05 
1.8310794e-04 1.6496652e-04 -3.8239941e-05 
2.1318840e-04 1.7873000e-04 6.0750466e-07 
2.1386187e-04 1.7772101e-04 1.0242649e-05 
1.8780613e-04 1.5809252e-04 2.0662364e-06 
1.8900353e-04 1.5434659e-04 1.9862096e-05 
1.8356577e-04 1.6549703e-04 -4.1153991e-05 
1.7888971e-04 1.5365770e-04 -7.8552021e-06 
1.8729751e-04 1.6343113e-04 -2.1592343e-05 
1.9247482e-04 1.6862771e-04 -3.0812807e-05 
1.9554423e-04 1.5887307e-04 2.6307020e-05 
1.9696767e-04 1.6357009e-04 1.2094784e-05 
1.8077252e-04 1.5267087e-04 1.3986617e-06 
1.8947413e-04 1.5916729e-04 3.5131918e-06 
1.7575393e-04 1.5404235e-04 -1.7917553e-05 
1.7703607e-04 1.5631743e-04 -2.2835577e-05 
2.0141852e-04 1.7051745e-04 -6.9137122e-06 
2.0356165e-04 1.6818685e-04 1.7626298e-05 
1.7696823e-04 1.4734412e-04 9.2313203e-06 
1.8047237e-04 1.4844447e-04 1.5886924e-05 
1.7271072e-04 1.4649547e-04 1.1230546e-07 
1.7291696e-04 1.5649806e-04 -3.5102039e-05 
1.7114037e-04 1.5405046e-04 -3.0181196e-05 
1.6967962e-04 1.5140329e-04 -2.4355499e-05 
1.7457944e-04 1.5837958e-04 -3.8991428e-05 
1.9848642e-04 1.6316054e-04 2.2854794e-05 
2.0729612e-04 1.7387382e-04 2.3466055e-06 
1.8467141e-04 1.5045318e-04 2.3670462e-05 
1.8027988e-04 1.6151850e-04 -3.8306793e-05 
1.6783463e-04 1.4672894e-04 -1.3196895e-05 
1.7471153e-04 1.5173109e-04 -1.3118926e-05 
1.7188513e-04 1.5305876e-04 -2.6272117e-05 
1.7339320e-04 1.4608575e-04 4.6872492e-06 
1.8102326e-04 1.5557307e-04 -1.0212226e-05 
1.6701441e-04 1.4795236e-04 -2.0292273e-05 
1.7327569e-04 1.5284913e-04 -2.3084725e-05 
1.6568211e-04 1.4552541e-04 -1.5033796e-05 
1.9725549e-04 1.6614044e-04 1.1725440e-06 
1.9791081e-04 1.6511235e-04 1.1041724e-05 
1.7456534e-04 1.4332775e-04 1.9000068e-05 
1.6946958e-04 1.5420864e-04 -3.9919105e-05 
1.7387193e-04 1.4818451e-04 -1.5941458e-06 
1.7407027e-04 1.4628354e-04 7.0471183e-06 
1.7657463e-04 1.5665124e-04 -3.1208998e-05 
1.6557433e-04 1.3945274e-04 5.0868175e-06 
1.6271220e-04 1.4785922e-04 -3.2135180e-05 
1.6442433e-04 1.5000501e-04 -3.6338177e-05 
1.6124394e-04 1.4550732e-04 -2.6902151e-05 
1.5994803e-04 1.4288086e-04 -2.0844394e-05 
1.7867816e-04 1.4574826e-04 2.5820982e-05 
1.6581846e-04 1.4276723e-04 -5.1423831e-06 
1.6891387e-04 1.4009299e-04 1.3300624e-05 
1.6157961e-04 1.3878796e-04 -3.1860131e-06 
1.8136698e-04 1.5696020e-04 -1.8048755e-05 
1.8686111e-04 1.5894973e-04 -5.3351282e-06 
1.8826444e-04 1.5635125e-04 1.8386787e-05 
1.6376372e-04 1.4791040e-04 -3.2073025e-05 
1.9152742e-04 1.6149439e-04 3.1959962e-06 
1.7037218e-04 1.3947632e-04 2.2944450e-05 
1.6628572e-04 1.5029074e-04 -3.7020087e-05 
1.7411001e-04 1.4475176e-04 1.6028876e-05 
1.5737946e-04 1.3965082e-04 -1.7589125e-05 
1.6005960e-04 1.4350096e-04 -2.5075677e-05 
1.5581647e-04 1.3635115e-04 -9.9916479e-06 
1.7654549e-04 1.4479432e-04 2.6520849e-05 
1.6253628e-04 1.4319892e-04 -1.7352661e-05 
1.6909727e-04 1.4210741e-04 9.6305466e-06 
1.6141505e-04 1.3749837e-04 1.6678310e-06 
1.5854019e-04 1.3302974e-04 8.8635716e-06 
1.5460895e-04 1.4177208e-04 -3.3531636e-05 
1.5309102e-04 1.3961559e-04 -2.9063149e-05 
1.5174746e-04 1.3713731e-04 -2.3459575e-05 
1.5449223e-04 1.3230290e-04 3.9638209e-07 
1.5646654e-04 1.4387364e-04 -3.7360041e-05 
1.6315334e-04 1.4222178e-04 -1.1673847e-05 
1.5624281e-04 1.3461606e-04 -2.7205997e-06 
1.6010243e-04 1.4376208e-04 -2.8042195e-05 
1.8200943e-04 1.5432533e-04 1.5453321e-06 
1.8262152e-04 1.5330143e-04 1.1736675e-05 
1.6063363e-04 1.3262691e-04 1.8319135e-05 
1.5607083e-04 1.4335729e-04 -3.8449900e-05 
1.4814609e-04 1.3124265e-04 -1.2682456e-05 
1.6658036e-04 1.3650011e-04 2.5617643e-05 
1.6350593e-04 1.4571493e-04 -2.9222489e-05 
1.6044735e-04 1.3544579e-04 7.2558546e-06 
1.5567898e-04 1.3547507e-04 -7.4607392e-06 
1.5436721e-04 1.3972072e-04 -2.8513499e-05 
1.6628516e-04 1.4373712e-04 -8.9804007e-06 
1.4925364e-04 1.3395074e-04 -1.9873498e-05 
1.4813890e-04 1.3173003e-04 -1.4864846e-05 
1.7015243e-04 1.4638450e-04 -6.5308709e-06 
1.7361905e-04 1.4510588e-04 1.8924909e-05 
1.5863070e-04 1.3887419e-04 -1.3583954e-05 
1.5154161e-04 1.2683390e-04 1.2042419e-05 
1.4875911e-04 1.2954160e-04 -5.5892760e-06 
1.4528868e-04 1.3395688e-04 -3.0840882e-05 
1.4694400e-04 1.3597721e-04 -3.4806137e-05 
1.4392423e-04 1.3169047e-04 -2.5908270e-05 
1.4879517e-04 1.3767382e-04 -3.7273880e-05 
1.4795353e-04 1.2570815e-04 5.0515523e-06 
1.4277706e-04 1.2922543e-04 -2.0040638e-05 
1.7645092e-04 1.4977090e-04 3.9921006e-06 
1.5862017e-04 1.3391842e-04 9.5438254e-06 
1.5677765e-04 1.2904016e-04 2.2304188e-05 
1.5052024e-04 1.3713313e-04 -3.1224256e-05 
1.5299722e-04 1.3949283e-04 -3.5774327e-05 
1.5179881e-04 1.3484387e-04 -1.7729790e-05 
1.6866284e-04 1.3995476e-04 2.4096153e-05 
1.4333156e-04 1.2442922e-04 -2.9245982e-06 
1.4463482e-04 1.3124356e-04 -2.3724453e-05 
1.4260269e-04 1.2482217e-04 -6.1042460e-06 
1.4950085e-04 1.2783096e-04 3.5256537e-06 
1.6745496e-04 1.4303764e-04 1.8241689e-06 
1.6804252e-04 1.4195837e-04 1.2370218e-05 
1.4012348e-04 1.2595061e-04 -1.6704184e-05 
1.4764948e-04 1.2257764e-04 1.7513548e-05 
1.4357809e-04 1.3321079e-04 -3.6956480e-05 
1.4278568e-04 1.3002944e-04 -2.5793952e-05 
1.4175259e-04 1.2502357e-04 -9.2872606e-06 
1.4881419e-04 1.3450488e-04 -2.9824256e-05 
1.5147528e-04 1.2462476e-04 2.4863235e-05 
1.4138639e-04 1.1969142e-04 8.6369628e-06 
1.3789596e-04 1.2835641e-04 -3.2302323e-05 
1.3633614e-04 1.2626970e-04 -2.7936088e-05 
1.3971327e-04 1.3028769e-04 -3.5748173e-05 
1.3778202e-04 1.1901846e-04 6.6146691e-07 
1.3414871e-04 1.2303566e-04 -2.2204184e-05 
1.4161327e-04 1.1992770e-04 9.4231991e-06 
1.3583039e-04 1.2375930e-04 -2.1434913e-05 
1.5950046e-04 1.3396973e-04 1.9405132e-05 
1.5726322e-04 1.3590718e-04 -4.5330603e-06 
1.3614145e-04 1.1913828e-04 -3.9117031e-06 
1.6211708e-04 1.3846831e-04 4.7839521e-06 
1.3991688e-04 1.2706642e-04 -2.4419955e-05 
1.4406648e-04 1.1903723e-04 2.1725913e-05 
1.4062550e-04 1.2969937e-04 -3.4635250e-05 
1.3233632e-04 1.1922646e-04 -1.4474339e-05 
1.4466401e-04 1.2611346e-04 -4.7610088e-06 
1.4590558e-04 1.2913920e-04 -1.5334172e-05 
1.4267761e-04 1.2731800e-04 -1.7732284e-05 
1.4727694e-04 1.2358782e-04 1.6959304e-05 
1.3769242e-04 1.2048545e-04 -4.0266109e-06 
1.4955743e-04 1.2377926e-04 2.6542370e-05 
1.4807962e-04 1.3090087e-04 -1.7999744e-05 
1.2920440e-04 1.1608068e-04 -1.2016829e-05 
1.5087143e-04 1.3044148e-04 -1.6630414e-06 
1.4286142e-04 1.2119738e-04 1.0358125e-05 
1.3424497e-04 1.2284629e-04 -2.3892293e-05 
1.4576442e-04 1.2526620e-04 4.1589246e-06 
1.3856443e-04 1.2127344e-04 -4.2353449e-06 
1.3493681e-04 1.1383204e-04 1.1581671e-05 
1.2917626e-04 1.2087839e-04 -2.9598315e-05 
1.3071903e-04 1.2281821e-04 -3.3280721e-05 
1.2786782e-04 1.1867035e-04 -2.4871411e-05 
1.3168754e-04 1.1301900e-04 4.8435681e-06 
1.3736216e-04 1.1686613e-04 9.0030480e-06 
1.5372424e-04 1.3215852e-04 2.1624007e-06 
1.2586584e-04 1.1581327e-04 -2.0024190e-05 
1.5428130e-04 1.3112584e-04 1.2790449e-05 
1.3894025e-04 1.2636065e-04 -2.8574181e-05 
1.3545716e-04 1.1315782e-04 1.6632886e-05 
1.3158204e-04 1.2347063e-04 -3.5774214e-05 
1.4065146e-04 1.1630281e-04 2.4500670e-05 
1.2744385e-04 1.1652488e-04 -1.9216177e-05 
1.2614489e-04 1.1082056e-04 -2.8358236e-06 
1.3183281e-04 1.1307741e-04 5.9212257e-06 
1.2335672e-04 1.1188454e-04 -1.3677821e-05 
1.2419946e-04 1.0987555e-04 -4.7269500e-06 
1.4463055e-04 1.2392551e-04 8.4981675e-06 
1.4273397e-04 1.2461080e-04 -6.0970228e-06 
1.4873569e-04 1.2779819e-04 5.4506472e-06 
1.2869586e-04 1.0831311e-04 1.4132710e-05 
1.2632174e-04 1.1562274e-04 -2.0503057e-05 
1.2233360e-04 1.1568260e-04 -3.0860971e-05 
1.2103214e-04 1.1374797e-04 -2.6793465e-05 
1.2400329e-04 1.1740878e-04 -3.3952485e-05 
1.1940420e-04 1.0978677e-04 -1.6980006e-05 
1.1998044e-04 1.1171182e-04 -2.1862821e-05 
1.4532481e-04 1.2309694e-04 1.8699562e-05 
1.2563988e-04 1.0735527e-04 8.1334538e-06 
1.3204641e-04 1.0987054e-04 2.0796517e-05 
1.2890532e-04 1.2004301e-04 -3.3328644e-05 
1.2242429e-04 1.0676399e-04 7.2094065e-07 
1.2705743e-04 1.1161045e-04 -2.2948332e-06 
1.2308512e-04 1.1450870e-04 -2.5471754e-05 
1.3148351e-04 1.1713936e-04 -1.2653973e-05 
1.3204303e-04 1.1298715e-04 9.7207994e-06 
1.1955318e-04 1.0975815e-04 -1.6990558e-05 
1.3291457e-04 1.1279472e-04 1.4720673e-05 
1.3810027e-04 1.1600467e-04 2.4301247e-05 
1.2372616e-04 1.1336958e-04 -2.0749852e-05 
1.4107637e-04 1.2204531e-04 2.4995770e-06 
1.2339397e-04 1.0639487e-04 6.1019537e-06 
1.4148965e-04 1.2100824e-04 1.3209626e-05 
1.2401991e-04 1.0422163e-04 1.5926642e-05 
1.2048319e-04 1.1430277e-04 -3.4664808e-05 
1.2665844e-04 1.1594086e-04 -2.6347532e-05 
1.2738306e-04 1.0585679e-04 2.3712790e-05 
1.1447864e-04 1.0878732e-04 -2.8357326e-05 
1.1587012e-04 1.1056752e-04 -3.1764761e-05 
1.1328078e-04 1.0681581e-04 -2.3844410e-05 
1.1979712e-04 1.0187711e-04 1.0998481e-05 
1.1235997e-04 1.0467086e-04 -1.8720861e-05 
1.2247516e-04 1.0497217e-04 9.4935040e-06 
1.3197528e-04 1.1486117e-04 1.1902915e-06 
1.1700869e-04 1.0484207e-04 -7.0823858e-06 
1.1677619e-04 1.0105944e-04 4.7153994e-06 
1.1119112e-04 1.0161041e-04 -1.1662329e-05 
1.1259579e-04 9.9630612e-05 -1.5409781e-06 
1.3424698e-04 1.1409874e-04 1.9803718e-05 
1.3207714e-04 1.1591567e-04 -3.7813950e-06 
1.1213579e-04 1.0310367e-04 -1.4537601e-05 
1.1283259e-04 1.0476395e-04 -1.8710805e-05 
1.1546442e-04 1.0135259e-04 6.0436565e-07 
1.3624164e-04 1.1787353e-04 6.0596585e-06 
1.1476342e-04 1.0818226e-04 -2.7763821e-05 
1.1668621e-04 1.0322768e-04 -2.0952214e-06 
1.2091745e-04 1.0111606e-04 1.9905285e-05 
1.1781935e-04 1.1087569e-04 -3.2269141e-05 
1.2382249e-04 1.0492718e-04 1.7368067e-05 
1.1997296e-04 1.0877758e-04 -1.5383175e-05 
1.1218918e-04 9.9572171e-05 -2.3546052e-06 
1.2569319e-04 1.0498441e-04 2.5432775e-05 
1.2453653e-04 1.1209432e-04 -1.7130320e-05 
1.1263386e-04 1.0536331e-04 -2.2548842e-05 
1.1799626e-04 1.0642945e-04 -1.1074885e-05 
1.1999548e-04 1.0293831e-04 1.0788883e-05 
1.1597502e-04 9.9567813e-05 9.1238398e-06 
1.1479887e-04 1.0509325e-04 -1.5791073e-05 
1.1207352e-04 9.6496588e-05 7.7051463e-06 
1.2015944e-04 1.0818954e-04 -1.3262030e-05 
1.0992403e-04 1.0572916e-04 -3.2490003e-05 
1.0823228e-04 1.0400020e-04 -2.9511499e-05 
1.0697610e-04 1.0215147e-04 -2.5591435e-05 
1.0603433e-04 1.0019767e-04 -2.0919064e-05 
1.1825346e-04 1.0430307e-04 -4.6729565e-07 
1.2907898e-04 1.1259333e-04 2.8244149e-06 
1.0826950e-04 9.5338321e-05 9.1356486e-07 
1.1262501e-04 1.0527258e-04 -2.4465680e-05 
1.2956357e-04 1.1153812e-04 1.3623164e-05 
1.1650664e-04 1.0806619e-04 -2.6740345e-05 
1.2467250e-04 1.0706320e-04 1.4342108e-05 
1.0424954e-04 9.7526347e-05 -1.6609725e-05 
1.1331688e-04 9.5860298e-05 1.4978415e-05 
1.1008562e-04 1.0560498e-04 -3.3268338e-05 
1.0531508e-04 9.4817908e-05 -5.1988054e-06 
1.1399001e-04 9.9141420e-05 5.8945452e-06 
1.1805736e-04 9.8562115e-05 2.3395563e-05 
1.2532648e-04 1.0888021e-04 6.8703171e-06 
1.0656201e-04 1.0002185e-04 -2.0205600e-05 
1.0453579e-04 9.6700482e-05 -1.3381803e-05 
1.0835104e-04 1.0231855e-04 -2.5089874e-05 
1.0475548e-04 9.4740790e-05 -6.3923553e-06 
1.0555065e-04 9.6616575e-05 -1.0786271e-05 
1.0720000e-04 9.4667390e-05 8.0209486e-07 
1.1747852e-04 1.0233348e-04 6.9376301e-06 
1.0731731e-04 9.1869748e-05 1.0864793e-05 
1.0562534e-04 9.7374796e-05 -1.3992423e-05 
1.2461396e-04 1.0854142e-04 6.6287771e-06 
1.1956126e-04 1.0589994e-04 -5.0409822e-06 
1.2196052e-04 1.0442515e-04 1.8877663e-05 
1.1039633e-04 9.2711351e-05 1.9342351e-05 
1.0684387e-04 9.3206829e-05 5.4001648e-06 
1.0385245e-04 9.0563772e-05 4.9792525e-06 
1.0766194e-04 1.0241696e-04 -3.0849362e-05 
1.0099100e-04 9.7587545e-05 -2.7034492e-05 
9.9321514e-05 9.4067109e-05 -1.8618935e-05 
1.0227113e-04 9.9193159e-05 -3.0349043e-05 
9.9929181e-05 9.5720308e-05 -2.2891605e-05 
1.0383391e-04 1.0058420e-04 -3.2254080e-05 
1.1851796e-04 1.0317165e-04 7.5363387e-06 
1.0042202e-04 8.9992231e-05 -2.3874393e-06 
1.0562909e-04 9.7551871e-05 -1.5529939e-05 
1.1052615e-04 9.5500494e-05 1.0635926e-05 
1.1028297e-04 9.9741788e-05 -1.0156978e-05 
1.0520159e-04 9.4302646e-05 -3.4086665e-06 
9.9781260e-05 9.0054775e-05 -4.3031282e-06 
1.1571272e-04 9.8264194e-05 2.3749792e-05 
1.1804819e-04 1.0359364e-04 3.0259016e-06 
9.7460797e-05 9.1110298e-05 -1.4118070e-05 
1.0113584e-04 9.6372401e-05 -2.4660247e-05 
1.1849222e-04 1.0256541e-04 1.3783768e-05 
9.9268291e-05 9.4483752e-05 -2.2211030e-05 
9.8038203e-05 9.3092553e-05 -1.9857935e-05 
1.0328315e-04 8.7838307e-05 1.4134296e-05 
1.0033863e-04 9.7399832e-05 -3.2115866e-05 
1.0574416e-04 9.8775970e-05 -2.4671672e-05 
9.4161289e-05 8.7541055e-05 -1.0918887e-05 
1.0317637e-04 8.9734516e-05 7.8362755e-06 
1.0368747e-04 9.6188211e-05 -1.7995611e-05 
1.0630897e-04 8.9121153e-05 2.2371467e-05 
9.9239995e-05 8.5948930e-05 8.2324723e-06 
1.0061153e-04 9.5341638e-05 -2.3668536e-05 
9.7030512e-05 9.4901879e-05 -3.0993746e-05 
9.5333664e-05 9.3156195e-05 -2.8082222e-05 
9.4143608e-05 9.1456801e-05 -2.4499839e-05 
9.3297480e-05 8.9584493e-05 -1.9970645e-05 
9.8876531e-05 8.8582281e-05 -1.7556870e-06 
9.8045588e-05 9.0574060e-05 -1.1106977e-05 
9.6036398e-05 8.5032072e-05 1.9948820e-06 
1.1230278e-04 9.6446704e-05 1.9837427e-05 
1.1024882e-04 9.8126613e-05 -3.0542515e-06 
1.1376182e-04 9.9705714e-05 6.9893463e-06 
9.7017168e-05 9.0709174e-05 -1.5723788e-05 
1.0073227e-04 8.4979314e-05 1.8431512e-05 
9.8134391e-05 9.4318035e-05 -2.9613089e-05 
1.0700359e-04 9.5200739e-05 -9.6260658e-07 
1.0321489e-04 8.8237539e-05 1.7521748e-05 
1.0488705e-04 8.8334520e-05 2.4824009e-05 
1.0232823e-04 9.2605369e-05 -7.7938585e-06 
9.4628791e-05 9.1382630e-05 -2.6190062e-05 
9.0651258e-05 8.3707208e-05 -8.0514874e-06 
9.9866178e-05 8.6494605e-05 1.0985362e-05 
9.1560360e-05 8.7243177e-05 -1.7898226e-05 
9.0920264e-05 8.5692533e-05 -1.4019084e-05 
9.2228533e-05 8.3620194e-05 -3.4616210e-06 
1.0351725e-04 9.4373667e-05 -1.3206683e-05 
9.1652742e-05 8.7748223e-05 -2.0029282e-05 
1.0657561e-04 9.3536117e-05 8.4794301e-06 
9.0450645e-05 8.3835395e-05 -9.1390530e-06 
9.8543787e-05 8.7628126e-05 1.9622541e-06 
9.1740221e-05 8.0517406e-05 5.4690286e-06 
8.8715504e-05 8.7223867e-05 -2.5820833e-05 
1.0757895e-04 9.5121031e-05 3.1288337e-06 
8.7756940e-05 8.5535794e-05 -2.1890030e-05 
8.7045846e-05 8.3659652e-05 -1.7241793e-05 
1.0800103e-04 9.4162249e-05 1.3936417e-05 
8.9800713e-05 8.8665423e-05 -2.9190935e-05 
8.8641900e-05 7.9864854e-05 -1.2046487e-06 
9.6814452e-05 9.1552538e-05 -2.4394916e-05 
9.3935756e-05 8.0396050e-05 1.3513588e-05 
9.1262475e-05 8.9651126e-05 -3.0802374e-05 
9.1957496e-05 8.1321406e-05 4.3221453e-06 
9.8229670e-05 8.2611463e-05 2.2059898e-05 
9.3254159e-05 8.3569517e-05 6.2786074e-07 
8.4996376e-05 8.0777958e-05 -1.3466920e-05 
8.9394380e-05 8.3337502e-05 -1.1017553e-05 
8.5533226e-05 7.9031990e-05 -6.4879719e-06 
8.5516505e-05 8.0679005e-05 -1.1825150e-05 
8.5608626e-05 7.9175239e-05 -6.8454360e-06 
8.5781925e-05 8.1768769e-05 -1.5169051e-05 
1.0122494e-04 9.0811154e-05 -3.9563197e-06 
8.6126616e-05 8.3051200e-05 -1.9143572e-05 
8.7411783e-05 8.4811152e-05 -2.2824928e-05 
9.7001313e-05 8.5043233e-05 1.0273588e-05 
1.0359073e-04 9.1408256e-05 7.3129113e-06 
1.0153744e-04 8.7937035e-05 1.8859433e-05 
9.3011935e-05 8.5383828e-05 -8.6304290e-06 
8.7486020e-05 7.6218435e-05 8.4067506e-06 
9.1500522e-05 7.7499637e-05 1.7863405e-05 
8.9311652e-05 8.6753949e-05 -2.8480152e-05 
8.9185851e-05 8.4040257e-05 -1.5902950e-05 
8.1366648e-05 7.8472433e-05 -1.5689324e-05 
8.3633218e-05 8.3110106e-05 -2.6797123e-05 
8.2554718e-05 8.1565471e-05 -2.3386965e-05 
8.1678139e-05 7.9790210e-05 -1.9189421e-05 
9.8781144e-05 8.5704509e-05 1.6513350e-05 
8.4570856e-05 7.5301912e-05 2.7353444e-06 
8.4266714e-05 8.3848579e-05 -2.9279168e-05 
8.1641454e-05 7.5098804e-05 -4.4485937e-06 
9.1778587e-05 7.9925710e-05 1.1264626e-05 
8.4044485e-05 7.7997895e-05 -7.5431076e-06 
8.0964230e-05 7.7050019e-05 -1.2546436e-05 
8.3787250e-05 7.5528231e-05 1.6212734e-07 
9.6262971e-05 8.2435727e-05 2.3191846e-05 
8.4510539e-05 7.9643381e-05 -1.2433728e-05 
9.7937002e-05 8.7152963e-05 3.1822703e-06 
9.6579235e-05 8.5291336e-05 7.9856554e-06 
9.8371595e-05 8.6191758e-05 1.3986573e-05 
7.8154473e-05 7.4133059e-05 -1.0316648e-05 
8.5161133e-05 7.3255964e-05 1.2730995e-05 
8.2853774e-05 8.2298284e-05 -2.9719238e-05 
8.0946935e-05 7.8939069e-05 -2.0180250e-05 
8.7448381e-05 8.3385203e-05 -2.2995422e-05 
8.5209838e-05 7.4907002e-05 7.8775356e-06 
8.1322978e-05 7.9579266e-05 -2.2441223e-05 
7.8920835e-05 7.3384545e-05 -6.1269407e-06 
8.7989210e-05 7.4290423e-05 2.0986099e-05 
7.7562050e-05 7.7653858e-05 -2.4665582e-05 
7.8738238e-05 7.9009747e-05 -2.7380538e-05 
7.6609016e-05 7.5980883e-05 -2.0931418e-05 
8.0619815e-05 7.1166345e-05 5.8065616e-06 
7.5991666e-05 7.4240430e-05 -1.6492417e-05 
7.7797828e-05 7.0585331e-05 -2.0119082e-07 
7.8910918e-05 7.9166210e-05 -2.8824288e-05 
9.3086397e-05 8.0917547e-05 1.9426963e-05 
8.0956015e-05 7.8445635e-05 -2.0825919e-05 
9.1470632e-05 8.2461331e-05 -2.6739044e-06 
9.4189047e-05 8.3591702e-05 7.5068783e-06 
7.6372315e-05 7.4418305e-05 -1.7100247e-05 
7.9775091e-05 7.1090377e-05 4.4529174e-06 
8.2962229e-05 7.0558599e-05 1.7000266e-05 
8.0985752e-05 7.9524078e-05 -2.7440612e-05 
7.7244185e-05 7.0650174e-05 -1.7776495e-06 
8.6835265e-05 7.3510222e-05 2.3863222e-05 
8.7926972e-05 7.9169673e-05 2.7423627e-07 
8.0333237e-05 7.3546275e-05 -1.9929703e-06 
7.3985837e-05 7.1124712e-05 -1.2198869e-05 
8.7674351e-05 7.7333410e-05 1.0663619e-05 
8.5654930e-05 7.9446007e-05 -1.2698120e-05 
8.1784900e-05 7.1384493e-05 1.1761136e-05 
8.2632221e-05 7.3365663e-05 7.3162969e-06 
7.6666329e-05 7.0858347e-05 -3.9827328e-06 
8.8912711e-05 7.9636455e-05 3.1721827e-06 
7.6700911e-05 6.7115332e-05 8.5642459e-06 
7.4869429e-05 7.0553077e-05 -8.0925665e-06 
8.9313071e-05 7.8666570e-05 1.3980313e-05 
7.0926246e-05 6.9382913e-05 -1.4572141e-05 
8.1707993e-05 7.5885713e-05 -9.4752313e-06 
7.2861658e-05 7.3738942e-05 -2.5508973e-05 
7.1912655e-05 7.2296622e-05 -2.2342008e-05 
7.4082891e-05 7.4940996e-05 -2.7719780e-05 
7.1212933e-05 7.0694194e-05 -1.8339846e-05 
7.4149590e-05 6.6423687e-05 3.2711714e-06 
7.9963225e-05 7.7021505e-05 -2.2708917e-05 
7.7089411e-05 6.6597000e-05 1.1959202e-05 
7.4873133e-05 7.5322416e-05 -2.8452101e-05 
7.7298369e-05 6.8641690e-05 6.7441674e-06 
8.0916951e-05 6.8473804e-05 2.0635125e-05 
7.1481722e-05 6.6126071e-05 -3.0594902e-06 
7.7700781e-05 7.4298427e-05 -1.6007127e-05 
8.6203319e-05 7.6626951e-05 8.3196664e-06 
7.4360745e-05 6.6767774e-05 3.3734666e-06 
7.2413008e-05 7.1698712e-05 -2.0518202e-05 
6.9343434e-05 6.5914268e-05 -8.0374939e-06 
7.1114991e-05 6.6027671e-05 -3.6580102e-06 
8.3436651e-05 7.5930751e-05 -3.7088289e-06 
6.9785892e-05 6.8708105e-05 -1.6713711e-05 
8.5358253e-05 7.6251054e-05 7.6344213e-06 
8.3820152e-05 7.3354779e-05 1.8453818e-05 
7.5046839e-05 6.4027918e-05 1.6229522e-05 
7.2441908e-05 6.9804089e-05 -1.4462718e-05 
7.3119219e-05 7.2741743e-05 -2.6387714e-05 
6.7470217e-05 6.8720350e-05 -2.3440809e-05 
6.8492671e-05 6.9975715e-05 -2.5967216e-05 
6.6654095e-05 6.7231951e-05 -1.9928402e-05 
6.9694150e-05 7.1043338e-05 -2.7590588e-05 
6.6067245e-05 6.5600259e-05 -1.5846652e-05 
7.0481532e-05 6.2489431e-05 6.1880564e-06 
6.8016969e-05 6.1975850e-05 6.8129953e-07 
7.7648052e-05 6.7721361e-05 1.6107566e-05 
7.5628566e-05 6.5748158e-05 1.4915430e-05 
6.6438362e-05 6.4625397e-05 -1.2139886e-05 
7.9387326e-05 6.8503199e-05 2.2502934e-05 
6.4324639e-05 6.2214225e-05 -9.7185457e-06 
6.7099369e-05 6.6942252e-05 -1.9092544e-05 
8.0434249e-05 7.2622963e-05 3.1873117e-06 
7.8116085e-05 7.0509384e-05 3.6122053e-06 
8.0881873e-05 7.1658622e-05 1.3857947e-05 
6.7787543e-05 6.7778652e-05 -2.1549478e-05 
6.5549226e-05 6.1669707e-05 -4.9955647e-06 
6.9461792e-05 6.0269547e-05 1.1326362e-05 
6.7588990e-05 6.8861278e-05 -2.7372014e-05 
7.1611867e-05 6.9706839e-05 -2.1316560e-05 
6.6838751e-05 6.1428080e-05 -3.1513767e-07 
6.9637885e-05 6.1652172e-05 7.6890374e-06 
6.8789377e-05 6.4018459e-05 -3.9467177e-06 
7.2186878e-05 6.1144150e-05 1.9430669e-05 
6.7666428e-05 6.7048459e-05 -2.0465959e-05 
6.4670508e-05 6.6632856e-05 -2.6477075e-05 
6.3223320e-05 6.5168970e-05 -2.4159890e-05 
6.2307037e-05 6.3813750e-05 -2.1274269e-05 
6.1678904e-05 6.2350075e-05 -1.7551907e-05 
7.6352298e-05 6.8532281e-05 7.8811927e-06 
6.5326632e-05 6.3087537e-05 -1.1067596e-05 
6.8143694e-05 6.5159984e-05 -1.1114937e-05 
6.4657870e-05 5.8134505e-05 3.8262942e-06 
7.6376811e-05 6.6957386e-05 1.8934665e-05 
7.7170553e-05 6.9372989e-05 7.7376781e-06 
7.4974225e-05 6.8653993e-05 -2.4465119e-06 
6.1537990e-05 5.9174999e-05 -7.9063102e-06 
6.2239662e-05 5.7848916e-05 -1.9878430e-06 
6.3346364e-05 6.0257287e-05 -6.6548864e-06 
6.0159746e-05 5.9912676e-05 -1.3807426e-05 
7.1351787e-05 6.3866573e-05 8.5567008e-06 
6.7689281e-05 5.7808640e-05 1.5378990e-05 
6.1466344e-05 6.1070597e-05 -1.4627220e-05 
6.4894062e-05 6.3408006e-05 -1.4649773e-05 
6.2062078e-05 6.2260187e-05 -1.7520788e-05 
6.5980843e-05 6.6325279e-05 -2.5316738e-05 
6.2833016e-05 6.3091225e-05 -1.9040683e-05 
6.9878995e-05 6.0263756e-05 1.6938149e-05 
6.0617189e-05 5.9600246e-05 -1.1934213e-05 
7.1269627e-05 6.0528211e-05 2.2492006e-05 
6.7255263e-05 5.9031630e-05 1.0865079e-05 
6.8221547e-05 6.4590808e-05 -9.9205245e-06 
6.3045933e-05 6.3885149e-05 -2.2701206e-05 
6.9868896e-05 6.6063760e-05 -1.1738337e-05 
6.3758518e-05 5.7519403e-05 3.9966299e-06 
6.0301067e-05 5.6809640e-05 -3.9645961e-06 
7.2602292e-05 6.6019988e-05 3.2659416e-06 
6.6155146e-05 5.9950173e-05 4.3889554e-06 
7.3032483e-05 6.5060543e-05 1.3686640e-05 
5.8379188e-05 5.5058372e-05 -3.7558104e-06 
5.7951951e-05 5.6278048e-05 -8.6198088e-06 
5.8277026e-05 6.0478331e-05 -2.2242448e-05 
5.9231454e-05 6.1648469e-05 -2.4594978e-05 
5.7498848e-05 5.9089725e-05 -1.9009325e-05 
6.1312516e-05 5.4475127e-05 6.5169825e-06 
5.6884295e-05 5.7562749e-05 -1.5469746e-05 
6.4914668e-05 6.3955827e-05 -2.1003671e-05 
6.2596089e-05 5.4488191e-05 1.0637525e-05 
6.9996735e-05 6.2017672e-05 1.3619072e-05 
6.0791961e-05 6.2690408e-05 -2.6147432e-05 
6.6017077e-05 5.5899935e-05 1.9180265e-05 
5.9071979e-05 5.4035707e-05 1.3677510e-06 
5.7293480e-05 5.7715017e-05 -1.5829610e-05 
5.7978948e-05 5.8818998e-05 -1.8249035e-05 
6.7974244e-05 6.2893785e-05 -3.4949364e-06 
5.9764559e-05 5.5242155e-05 9.3099089e-08 
6.0545302e-05 6.0111830e-05 -1.7692708e-05 
5.8468180e-05 5.9505204e-05 -2.0639765e-05 
6.8364381e-05 6.1670013e-05 8.0078817e-06 
5.5961405e-05 5.5227520e-05 -1.0994792e-05 
6.9584668e-05 6.2910491e-05 7.7784798e-06 
6.0173727e-05 5.7119560e-05 -6.0415814e-06 
6.8393529e-05 6.0398394e-05 1.7810709e-05 
5.6417815e-05 5.2751951e-05 -1.7455293e-06 
5.7376754e-05 5.6203578e-05 -1.1115276e-05 
6.0821767e-05 5.2119372e-05 1.4695524e-05 
5.9261001e-05 6.0165781e-05 -2.4257462e-05 
6.1691164e-05 5.4208900e-05 1.1551053e-05 
5.8999813e-05 5.2849085e-05 6.0543066e-06 
5.2992007e-05 5.2163734e-05 -9.1468301e-06 
5.4483357e-05 5.7160229e-05 -2.2827729e-05 
5.3634281e-05 5.5917266e-05 -2.0123874e-05 
5.3023101e-05 5.4412714e-05 -1.6337010e-05 
6.4340071e-05 5.9341281e-05 9.6276004e-08 
5.5999430e-05 5.0437466e-05 4.2225665e-06 
5.5156877e-05 5.7856927e-05 -2.4843737e-05 
5.4206015e-05 5.5063127e-05 -1.6391436e-05 
5.3732929e-05 5.0181035e-05 -1.0118623e-06 
6.1947059e-05 5.4631470e-05 1.2874556e-05 
5.4851989e-05 5.5919314e-05 -1.8343642e-05 
6.4696826e-05 5.6068515e-05 2.1470067e-05 
6.5416694e-05 5.9808874e-05 3.2206810e-06 
6.5823260e-05 5.8946760e-05 1.3491021e-05 
5.4374046e-05 5.2778458e-05 -7.9043693e-06 
5.7603815e-05 5.2607753e-05 3.3835051e-06 
5.9666036e-05 5.5417484e-05 -1.8670070e-07 
5.5987017e-05 4.8859201e-05 1.0107487e-05 
5.1058505e-05 5.0642084e-05 -9.8160199e-06 
5.4388263e-05 5.6774195e-05 -2.5119580e-05 
5.7859819e-05 5.7492267e-05 -1.9813608e-05 
5.4406202e-05 4.9621383e-05 2.9522464e-06 
5.1419702e-05 5.1550098e-05 -1.2027944e-05 
5.3784264e-05 5.5100874e-05 -1.9660249e-05 
5.8332087e-05 4.9507165e-05 1.7787284e-05 
5.1453553e-05 4.9652452e-05 -5.7018183e-06 
5.6732842e-05 5.4734228e-05 -1.0061561e-05 
5.0012870e-05 5.2899257e-05 -2.1009793e-05 
5.0894814e-05 5.3985070e-05 -2.3231602e-05 
4.9334372e-05 5.1658699e-05 -1.8037254e-05 
4.8889517e-05 5.0257881e-05 -1.4379842e-05 
5.2971267e-05 4.7078716e-05 6.7203982e-06 
6.1309343e-05 5.5693839e-05 7.5708977e-06 
6.2079671e-05 5.4862216e-05 1.8111527e-05 
5.2329742e-05 4.9160233e-05 -1.6218282e-06 
6.2514664e-05 5.6843088e-05 7.7008981e-06 
6.0611634e-05 5.6328132e-05 -2.3850123e-06 
5.0916373e-05 4.6645811e-05 2.0306713e-06 
5.1254607e-05 5.4192875e-05 -2.4364881e-05 
5.3198648e-05 5.4160009e-05 -1.9634230e-05 
5.1853316e-05 5.1555759e-05 -1.1984741e-05 
4.8886413e-05 4.6638776e-05 -3.3778813e-06 
5.4491040e-05 4.6631369e-05 1.3976188e-05 
4.7488989e-05 4.8010803e-05 -1.1214352e-05 
5.2979463e-05 5.4455395e-05 -2.3165738e-05 
4.9171595e-05 5.0393184e-05 -1.5168980e-05 
4.9728424e-05 5.1318875e-05 -1.7333050e-05 
5.6377274e-05 4.8726502e-05 1.6151058e-05 
5.2649251e-05 4.7354501e-05 5.8786959e-06 
5.7530957e-05 4.8842056e-05 2.1008897e-05 
5.0202183e-05 5.2010913e-05 -1.9145842e-05 
5.4837590e-05 4.9811391e-05 5.5589012e-06 
4.7971120e-05 4.7957936e-05 -1.0043352e-05 
5.0444498e-05 4.6590274e-05 1.1928560e-06 
5.8536247e-05 5.2275329e-05 1.2825688e-05 
5.4042037e-05 4.7656526e-05 1.0366799e-05 
5.6339599e-05 5.4147953e-05 -1.1076180e-05 
4.8741611e-05 4.6379297e-05 -2.9419043e-06 
4.8525118e-05 4.8028516e-05 -9.0310104e-06 
5.1064522e-05 4.8106118e-05 -1.6444540e-06 
5.8623722e-05 5.3939904e-05 3.0424444e-06 
5.9061989e-05 5.3212465e-05 1.3255290e-05 
4.6562760e-05 4.9826347e-05 -2.1559063e-05 
4.5817538e-05 4.8713726e-05 -1.9054360e-05 
4.7499998e-05 5.0774233e-05 -2.3238505e-05 
4.5258148e-05 4.7420399e-05 -1.5849098e-05 
4.5000437e-05 4.6077115e-05 -1.2058351e-05 
5.2068805e-05 5.2455453e-05 -1.9590561e-05 
4.9865383e-05 4.3653858e-05 9.4259030e-06 
4.8495051e-05 5.1303283e-05 -2.3967737e-05 
4.8088572e-05 4.3394968e-05 4.5896045e-06 
5.2964959e-05 4.4811710e-05 1.7543745e-05 
4.6148587e-05 4.3174161e-05 -1.8934907e-07 
4.4852372e-05 4.4869608e-05 -8.9698597e-06 
4.6670873e-05 4.6346115e-05 -9.2544569e-06 
5.6037712e-05 5.1012223e-05 8.4131316e-06 
4.5626683e-05 4.7359776e-05 -1.5944595e-05 
5.4600852e-05 5.1283365e-05 -3.4220484e-06 
4.3487125e-05 4.3562344e-05 -8.4304238e-06 
4.6877085e-05 4.8616603e-05 -1.8189181e-05 
4.5736266e-05 4.7187266e-05 -1.5752830e-05 
4.5872923e-05 4.3051641e-05 -4.1081896e-07 
5.5899367e-05 5.1094979e-05 7.5309126e-06 
4.4033492e-05 4.5040473e-05 -1.2106044e-05 
5.3454958e-05 4.8833408e-05 6.3534762e-06 
5.4993387e-05 4.8871563e-05 1.6921775e-05 
5.0261580e-05 4.9020866e-05 -1.0787415e-05 
4.8408725e-05 4.1495252e-05 1.3248787e-05 
4.6301506e-05 4.3339569e-05 1.9975617e-07 
4.7145328e-05 4.9126807e-05 -2.2118755e-05 
4.8108657e-05 4.7829020e-05 -1.2802978e-05 
4.1909647e-05 4.3790242e-05 -1.3591301e-05 
4.6093392e-05 4.5613651e-05 -9.1634347e-06 
4.4285542e-05 4.3487998e-05 -6.4230394e-06 
4.2514352e-05 4.5862605e-05 -1.9786647e-05 
4.1878531e-05 4.4685097e-05 -1.6997927e-05 
4.3331536e-05 4.6876721e-05 -2.1839605e-05 
4.4271339e-05 4.7671787e-05 -2.3023809e-05 
4.5288311e-05 4.0928531e-05 4.9493401e-06 
4.8909173e-05 4.3059223e-05 1.1443993e-05 
4.2828193e-05 4.1509738e-05 -4.1679200e-06 
4.3556331e-05 3.9982911e-05 2.4865753e-06 
5.1905910e-05 4.5016099e-05 2.0376681e-05 
5.2372576e-05 4.8459679e-05 2.9544422e-06 
5.2769414e-05 4.7638554e-05 1.2951450e-05 
4.1741860e-05 4.3124681e-05 -1.3130124e-05 
4.4212287e-05 3.8770217e-05 8.7057651e-06 
4.3047232e-05 4.6176025e-05 -2.2748101e-05 
4.0618150e-05 4.1506813e-05 -1.0475205e-05 
4.6005302e-05 4.6666246e-05 -1.8188446e-05 
4.3333581e-05 4.4711607e-05 -1.5935997e-05 
4.6808156e-05 4.4225286e-05 -1.3219368e-06 
4.1619132e-05 4.3945736e-05 -1.7115344e-05 
4.6543817e-05 3.9277333e-05 1.6186488e-05 
4.4931126e-05 3.9820796e-05 8.7979079e-06 
4.7606023e-05 4.2173833e-05 1.2529276e-05 
3.8647355e-05 4.0323332e-05 -1.1838466e-05 
4.9850827e-05 4.5637429e-05 7.6255078e-06 
3.9807193e-05 3.7975817e-05 -1.7290039e-06 
3.8766058e-05 4.2053860e-05 -1.7913153e-05 
3.9448103e-05 4.3142099e-05 -2.0246820e-05 
4.9525010e-05 4.3896238e-05 1.6967264e-05 
3.8277776e-05 4.0913219e-05 -1.4925489e-05 
4.0356263e-05 4.3985892e-05 -2.1825423e-05 
4.9800372e-05 4.5728561e-05 7.4048621e-06 
4.8280413e-05 4.5434437e-05 -2.3067753e-06 
4.1439027e-05 4.0062565e-05 -3.7091670e-06 
4.1994826e-05 3.8359776e-05 4.2857632e-06 
4.0285482e-05 3.8316677e-05 -1.2517776e-06 
4.3010750e-05 3.6781428e-05 1.2451164e-05 
4.1897285e-05 4.4152574e-05 -2.1080992e-05 
4.2830619e-05 3.9439197e-05 3.4543407e-06 
4.5855399e-05 3.8683895e-05 1.9502950e-05 
3.8228092e-05 3.9958511e-05 -1.2856678e-05 
3.9801354e-05 3.6082736e-05 3.9854967e-06 
4.2504544e-05 4.2831154e-05 -1.2737894e-05 
4.0149542e-05 4.0752228e-05 -1.0609373e-05 
4.4648063e-05 4.3597760e-05 -1.0274969e-05 
4.5549983e-05 4.2750569e-05 7.3684907e-07 
4.3127948e-05 4.2572876e-05 -1.0887532e-05 
3.7596456e-05 3.6368667e-05 -2.8064785e-06 
3.7893838e-05 4.0328734e-05 -1.5880716e-05 
3.8534668e-05 4.1013536e-05 -1.7107330e-05 
4.6521371e-05 4.3280277e-05 2.8563747e-06 
4.6914687e-05 4.2449014e-05 1.2531904e-05 
3.5622077e-05 3.6283611e-05 -7.9054807e-06 
4.2768308e-05 3.7447684e-05 1.2149789e-05 
4.1161085e-05 4.2215361e-05 -1.7732225e-05 
3.5828314e-05 3.9488856e-05 -1.8559042e-05 
3.5215286e-05 3.8386126e-05 -1.6002989e-05 
3.6567144e-05 4.0392355e-05 -2.0447218e-05 
3.4881272e-05 3.7183687e-05 -1.2823337e-05 
3.7455971e-05 4.1064483e-05 -2.1515254e-05 
3.9114551e-05 3.4270426e-05 8.1165444e-06 
3.8252925e-05 3.5152087e-05 2.8866648e-06 
3.8047634e-05 4.1329600e-05 -2.1685264e-05 
4.1785490e-05 3.5082605e-05 1.6056429e-05 
3.6301131e-05 3.6063175e-05 -5.7144598e-06 
3.5255827e-05 3.4362292e-05 -3.2718558e-06 
3.8188758e-05 3.9622468e-05 -1.4438521e-05 
3.5927482e-05 3.3668141e-05 5.4191980e-07 
4.4146556e-05 4.0727093e-05 6.8958179e-06 
3.5090165e-05 3.6518162e-05 -1.0748129e-05 
4.3146338e-05 4.0990777e-05 -3.1334605e-06 
3.9618284e-05 3.4891109e-05 9.1479078e-06 
3.5140270e-05 3.7334488e-05 -1.3648106e-05 
3.6601519e-05 3.2959950e-05 4.6149148e-06 
3.5994046e-05 3.4121713e-05 -4.5142031e-07 
4.4101042e-05 4.0724881e-05 7.2479088e-06 
4.1196196e-05 3.8111612e-05 4.5015872e-06 
3.6017864e-05 3.5862544e-05 -6.4815245e-06 
3.5856388e-05 3.6659381e-05 -9.7433513e-06 
3.6739391e-05 3.4857389e-05 -5.4444462e-07 
4.3574018e-05 3.8812937e-05 1.6031330e-05 
3.4031789e-05 3.3509448e-05 -4.1332414e-06 
3.9577331e-05 3.7843118e-05 -2.4706937e-06 
3.8250470e-05 3.6086778e-05 4.5201946e-07 
3.3182183e-05 3.4162604e-05 -8.4653957e-06 
3.3050066e-05 3.3067758e-05 -5.3792346e-06 
3.7912014e-05 3.2212785e-05 1.1808589e-05 
3.6934376e-05 3.9272014e-05 -1.9946036e-05 
3.8689999e-05 3.8360064e-05 -9.0432859e-06 
3.2448341e-05 3.5930825e-05 -1.6751668e-05 
3.3066699e-05 3.6877591e-05 -1.8970879e-05 
3.2004231e-05 3.4862074e-05 -1.3988232e-05 
3.1792271e-05 3.3695145e-05 -1.0703036e-05 
3.8602433e-05 3.5415596e-05 5.0717954e-06 
3.6027941e-05 3.5229543e-05 -4.4853282e-06 
3.4413446e-05 3.7200447e-05 -1.7604045e-05 
3.3621411e-05 3.7437225e-05 -2.0398073e-05 
4.0789131e-05 3.7102654e-05 9.9314811e-06 
4.1128991e-05 3.8430397e-05 2.8300294e-06 
3.2430926e-05 3.1404568e-05 -2.3874920e-06 
4.0991436e-05 3.5492634e-05 1.8738630e-05 
4.1462870e-05 3.7674639e-05 1.2156348e-05 
3.2580891e-05 3.2799915e-05 -6.2852096e-06 
3.4435761e-05 3.1474752e-05 3.3578403e-06 
3.3007109e-05 3.0495185e-05 1.8756321e-06 
3.2291642e-05 3.4756824e-05 -1.4211808e-05 
3.4323777e-05 2.9960755e-05 7.5295957e-06 
3.1132600e-05 3.1309817e-05 -5.5570326e-06 
3.3428274e-05 3.6711910e-05 -2.0459838e-05 
3.2075117e-05 3.0980704e-05 -2.0038576e-06 
3.5955516e-05 3.7152837e-05 -1.6550208e-05 
3.0972511e-05 3.2755030e-05 -1.0839700e-05 
3.6274661e-05 3.0186789e-05 1.4644625e-05 
3.5071254e-05 3.0831299e-05 8.2257484e-06 
3.2127715e-05 3.2863121e-05 -8.3022715e-06 
3.2170457e-05 3.4869998e-05 -1.6248250e-05 
3.8986022e-05 3.5997131e-05 6.1982983e-06 
3.3227418e-05 3.4437886e-05 -1.2370741e-05 
3.8852148e-05 3.4575096e-05 1.5946547e-05 
3.5451765e-05 3.1033625e-05 1.0416694e-05 
3.8902614e-05 3.5962687e-05 7.0715519e-06 
3.1690812e-05 3.0790819e-05 -2.4532424e-06 
3.7667472e-05 3.5859688e-05 -2.2723571e-06 
2.9804885e-05 3.3518696e-05 -1.7303339e-05 
2.9326840e-05 3.2580552e-05 -1.4908360e-05 
3.0456180e-05 3.4332170e-05 -1.9055553e-05 
2.9054443e-05 3.0010859e-05 -7.2159323e-06 
2.9000528e-05 3.1477884e-05 -1.1960999e-05 
3.1295254e-05 3.4991754e-05 -1.9942199e-05 
3.6141864e-05 3.4167893e-05 4.4763598e-07 
2.9798319e-05 3.2057738e-05 -1.2678739e-05 
3.1070012e-05 3.2130341e-05 -9.7101683e-06 
3.3365137e-05 2.8111299e-05 1.1103997e-05 
2.9640098e-05 2.8293323e-05 -8.5974682e-07 
3.2422478e-05 3.4967041e-05 -1.8981849e-05 
3.5846318e-05 2.9782095e-05 1.7769627e-05 
3.2025560e-05 2.8741873e-05 5.1485526e-06 
3.2886219e-05 3.3742890e-05 -1.1902445e-05 
3.0180974e-05 2.7463853e-05 3.0938970e-06 
2.9092400e-05 2.9209465e-05 -5.1023485e-06 
3.4737139e-05 3.4351418e-05 -9.6279200e-06 
3.3327648e-05 3.3405962e-05 -1.0207224e-05 
3.6128655e-05 3.3896420e-05 2.6456310e-06 
3.5668352e-05 3.2580367e-05 9.4261186e-06 
3.3024084e-05 3.2023610e-05 -3.1985041e-06 
3.1572290e-05 2.9360042e-05 2.2025727e-06 
3.6457157e-05 3.3231885e-05 1.1722814e-05 
2.9042787e-05 3.1806583e-05 -1.5059588e-05 
3.1781045e-05 3.3168708e-05 -1.6005706e-05 
2.9894445e-05 2.5996706e-05 7.0036908e-06 
2.6772792e-05 3.0368203e-05 -1.5626549e-05 
2.7365160e-05 3.1224954e-05 -1.7572995e-05 
2.6375066e-05 2.9359004e-05 -1.3035460e-05 
2.8095770e-05 3.1897318e-05 -1.8842537e-05 
2.6227020e-05 2.8321670e-05 -1.0022022e-05 
3.2419357e-05 2.6710195e-05 1.4436313e-05 
2.9169103e-05 3.2619326e-05 -1.9356228e-05 
2.9841767e-05 3.1542433e-05 -1.3656801e-05 
2.9905532e-05 2.9223705e-05 -3.1134289e-06 
2.8168861e-05 2.9144898e-05 -8.3515924e-06 
3.2887125e-05 2.8997898e-05 1.1106468e-05 
2.8360429e-05 2.6476469e-05 1.0901932e-06 
2.6554533e-05 2.6345631e-05 -3.4551269e-06 
3.4066139e-05 3.1690965e-05 5.5349897e-06 
3.2462522e-05 3.0095431e-05 4.2689849e-06 
3.3328790e-05 3.1975265e-05 -3.1313446e-06 
2.8709257e-05 3.0347584e-05 -1.2053995e-05 
2.6993244e-05 2.5362982e-05 5.2369757e-07 
2.6157617e-05 2.7744463e-05 -9.0397480e-06 
2.6313033e-05 2.8543187e-05 -1.1380062e-05 
3.4021497e-05 3.1608299e-05 6.8541435e-06 
2.6649710e-05 2.9294930e-05 -1.3291584e-05 
3.0095933e-05 2.6204831e-05 8.4887606e-06 
2.7555565e-05 2.4620305e-05 4.1513499e-06 
3.3752392e-05 3.0111090e-05 1.4723319e-05 
2.6131665e-05 2.5663299e-05 -2.5403285e-06 
2.8981731e-05 2.4222434e-05 1.0423474e-05 
2.8252858e-05 3.0717936e-05 -1.7814669e-05 
2.6422644e-05 2.5867474e-05 -2.5565848e-06 
3.1132156e-05 2.9334577e-05 1.4497343e-06 
2.4436866e-05 2.8187751e-05 -1.6038133e-05 
2.3983934e-05 2.7318812e-05 -1.3836592e-05 
2.5089863e-05 2.8979166e-05 -1.7635914e-05 
2.3715693e-05 2.6283764e-05 -1.1125665e-05 
2.5893631e-05 2.9595194e-05 -1.8520421e-05 
3.1548901e-05 2.8648279e-05 9.4794977e-06 
3.1489737e-05 2.9654246e-05 2.5656996e-06 
3.1704640e-05 2.7204860e-05 1.7198638e-05 
2.3536944e-05 2.4668885e-05 -6.6390517e-06 
3.1887514e-05 2.9034845e-05 1.1195176e-05 
2.9373401e-05 2.4865933e-05 1.2353487e-05 
2.7297507e-05 2.7461203e-05 -6.6739472e-06 
2.4011435e-05 2.3493492e-05 -1.9532076e-06 
2.4728326e-05 2.2757049e-05 1.9715337e-06 
2.4935487e-05 2.7753900e-05 -1.4744051e-05 
2.4318864e-05 2.7115311e-05 -1.3590822e-05 
2.5849689e-05 2.2309767e-05 6.5392514e-06 
2.5304787e-05 2.8589528e-05 -1.8251043e-05 
2.7369115e-05 2.8729401e-05 -1.4737799e-05 
2.3770099e-05 2.5815430e-05 -1.0469582e-05 
2.4104933e-05 2.3319448e-05 -1.2470146e-06 
2.6166801e-05 2.3013468e-05 6.1093110e-06 
2.7657279e-05 2.2490445e-05 1.3005918e-05 
2.2927894e-05 2.4656520e-05 -8.7443741e-06 
2.4387284e-05 2.5860782e-05 -9.9198796e-06 
2.9630632e-05 2.7543641e-05 6.5538302e-06 
2.9804831e-05 2.6402276e-05 1.4550391e-05 
2.8686181e-05 2.7471771e-05 -2.1118274e-06 
2.3260780e-05 2.6986578e-05 -1.7532562e-05 
2.4585659e-05 2.6624184e-05 -1.3253635e-05 
2.1778815e-05 2.5353807e-05 -1.4469781e-05 
2.2324884e-05 2.6115584e-05 -1.6237718e-05 
2.1415352e-05 2.4436840e-05 -1.2069765e-05 
2.1260743e-05 2.3456969e-05 -9.2521805e-06 
2.7540089e-05 2.6496969e-05 -1.9312783e-06 
2.3961535e-05 2.1691660e-05 3.3658016e-06 
2.5083873e-05 2.0669748e-05 9.7189331e-06 
2.1355765e-05 2.1561773e-05 -3.5396770e-06 
2.4511952e-05 2.6908407e-05 -1.6706865e-05 
2.7308834e-05 2.2090913e-05 1.5886058e-05 
2.7908789e-05 2.5860329e-05 5.7407760e-06 
2.1755421e-05 2.0864307e-05 -7.0480309e-07 
2.6051450e-05 2.4225335e-05 3.2995526e-06 
2.2584554e-05 2.0413898e-05 2.8039372e-06 
2.5067591e-05 2.1368191e-05 8.5172069e-06 
2.2486473e-05 2.2091255e-05 -2.2754205e-06 
2.6353593e-05 2.6284899e-05 -8.8497691e-06 
2.7301528e-05 2.4707679e-05 9.0658086e-06 
2.1120513e-05 2.1960037e-05 -5.5900618e-06 
2.7375989e-05 2.5718711e-05 2.3401740e-06 
2.7679118e-05 2.5172523e-05 1.0597618e-05 
2.3734943e-05 2.1940805e-05 2.2499478e-06 
2.1079803e-05 2.0920799e-05 -2.6134303e-06 
2.0640535e-05 2.2744556e-05 -9.5195273e-06 
2.1850619e-05 2.4546842e-05 -1.3716365e-05 
2.0888454e-05 2.3452478e-05 -1.1487989e-05 
2.1600266e-05 2.0453470e-05 1.6337194e-07 
2.4805491e-05 2.5057849e-05 -8.3374953e-06 
2.4946179e-05 2.2048471e-05 7.7012201e-06 
2.2188080e-05 1.8952485e-05 6.0011130e-06 
2.4424453e-05 1.9428418e-05 1.2682565e-05 
2.1806070e-05 2.4891202e-05 -1.7128383e-05 
1.9784629e-05 2.3443468e-05 -1.4809332e-05 
1.9320592e-05 2.2634038e-05 -1.2796067e-05 
2.0378433e-05 2.4068793e-05 -1.6186666e-05 
1.9056302e-05 2.1685044e-05 -1.0277725e-05 
2.3772038e-05 2.4954848e-05 -1.3815396e-05 
2.1078647e-05 2.4511692e-05 -1.7008135e-05 
2.0825562e-05 2.2003545e-05 -7.1152363e-06 
1.8869800e-05 2.0139856e-05 -6.0971552e-06 
2.2591401e-05 2.3662413e-05 -9.9535382e-06 
2.0136787e-05 1.8645678e-05 1.2183598e-06 
2.5008227e-05 2.4102743e-05 -2.9269459e-06 
2.1066673e-05 1.8799074e-05 3.4247109e-06 
2.2079532e-05 1.9206042e-05 5.6193612e-06 
2.5602259e-05 2.3763236e-05 6.2117442e-06 
1.9053927e-05 1.8967377e-05 -2.4571275e-06 
2.5829642e-05 2.2728776e-05 1.3772446e-05 
1.9669993e-05 2.2372400e-05 -1.2546777e-05 
1.9403251e-05 2.0072277e-05 -4.9113742e-06 
2.0395870e-05 2.1860138e-05 -8.9480245e-06 
2.0053809e-05 1.9271693e-05 -7.0386710e-07 
2.0543446e-05 2.2801240e-05 -1.3065898e-05 
2.0560581e-05 2.0385462e-05 -2.7915883e-06 
2.1528636e-05 1.7428431e-05 9.0646399e-06 
2.3245868e-05 2.2724678e-05 -4.8108386e-06 
2.1051412e-05 2.3273817e-05 -1.5765907e-05 
2.4058261e-05 2.2285938e-05 5.0524345e-06 
2.3252771e-05 2.2075725e-05 1.8862127e-07 
1.8205061e-05 2.0403182e-05 -9.7458978e-06 
2.2203394e-05 2.1373440e-05 -1.3962480e-06 
1.8225835e-05 1.8187309e-05 -2.5320367e-06 
2.3025030e-05 2.0107620e-05 9.8556293e-06 
2.3644381e-05 2.1297652e-05 8.9690184e-06 
2.4051011e-05 2.0330541e-05 1.5502754e-05 
2.3433857e-05 2.2120434e-05 2.1347957e-06 
1.7389257e-05 2.0791967e-05 -1.3292079e-05 
1.7901317e-05 2.1462458e-05 -1.4867341e-05 
1.7021810e-05 1.9980325e-05 -1.1123781e-05 
1.6883496e-05 1.9070854e-05 -8.5619058e-06 
2.3794237e-05 2.1636124e-05 1.0038626e-05 
2.1135136e-05 1.8269453e-05 6.7878032e-06 
1.8405264e-05 2.1877373e-05 -1.5964390e-05 
1.6998305e-05 1.7446282e-05 -3.6144195e-06 
1.7420074e-05 1.6927519e-05 -1.2176687e-06 
1.8353372e-05 1.6406493e-05 2.4984065e-06 
1.8228217e-05 2.0772632e-05 -1.2366018e-05 
1.9078550e-05 1.7863396e-05 9.3685236e-07 
2.1435668e-05 1.9913712e-05 3.2142930e-06 
1.6899767e-05 1.8662615e-05 -7.8615276e-06 
1.6803331e-05 1.7776147e-05 -5.2368441e-06 
1.8833072e-05 1.5832116e-05 5.5223159e-06 
1.7696084e-05 1.6704471e-05 1.3566549e-07 
1.7773329e-05 1.8890862e-05 -6.5090544e-06 
1.8555042e-05 2.1467233e-05 -1.5980106e-05 
1.9118717e-05 1.6377617e-05 5.4948041e-06 
1.7266406e-05 1.7292843e-05 -2.7333278e-06 
2.0394864e-05 1.5944963e-05 1.1468006e-05 
1.7882305e-05 2.0272606e-05 -1.2738671e-05 
2.2462120e-05 1.9817382e-05 1.2658622e-05 
1.9735617e-05 1.8630002e-05 7.4387401e-07 
1.6603259e-05 1.9017112e-05 -1.0537263e-05 
2.1424139e-05 2.0596564e-05 -2.8043050e-06 
1.7834498e-05 1.5960046e-05 2.6519149e-06 
2.1841059e-05 2.0290950e-05 5.8157484e-06 
1.8461129e-05 2.0147589e-05 -1.1566940e-05 
1.6165513e-05 1.6156422e-05 -2.4263325e-06 
1.9635161e-05 2.0576605e-05 -1.2276316e-05 
1.9626472e-05 1.9655592e-05 -6.3577754e-06 
1.5625337e-05 1.9027199e-05 -1.3503648e-05 
1.5169195e-05 1.8250805e-05 -1.1708615e-05 
1.6165828e-05 1.9614894e-05 -1.4780911e-05 
1.4949614e-05 1.7427898e-05 -9.4582674e-06 
1.6827462e-05 2.0002675e-05 -1.5473270e-05 
1.5003290e-05 1.6192858e-05 -5.5210621e-06 
1.9960275e-05 1.9627194e-05 -6.4989044e-06 
1.6786826e-05 1.8181898e-05 -8.4762869e-06 
2.0556874e-05 1.8394063e-05 8.4456206e-06 
1.8171922e-05 1.4392625e-05 8.3805407e-06 
2.0392145e-05 1.8922046e-05 4.3856849e-06 
1.5715348e-05 1.4742301e-05 3.2514006e-07 
1.6518636e-05 1.4369702e-05 3.3655476e-06 
1.9673504e-05 1.9003504e-05 -2.1613255e-06 
1.7899607e-05 1.9920530e-05 -1.4629460e-05 
2.0160087e-05 1.5594858e-05 1.4027683e-05 
1.4898406e-05 1.5036862e-05 -2.7113413e-06 
1.8095190e-05 1.4914292e-05 7.6268234e-06 
1.7422579e-05 1.7526881e-05 -4.1471153e-06 
1.5533546e-05 1.8041295e-05 -1.1449000e-05 
1.5977352e-05 1.8450157e-05 -1.2236326e-05 
1.9964016e-05 1.8761511e-05 1.8932403e-06 
2.0221434e-05 1.8308077e-05 9.4363941e-06 
1.9469744e-05 1.6555696e-05 1.0328848e-05 
1.5618451e-05 1.4335724e-05 1.2301241e-06 
1.4375714e-05 1.6057136e-05 -7.4690106e-06 
1.4773869e-05 1.6473788e-05 -8.5399806e-06 
1.6104819e-05 1.4058773e-05 3.7816474e-06 
1.5697738e-05 1.3009633e-05 5.0599801e-06 
1.4066221e-05 1.4554324e-05 -3.7703360e-06 
1.7727503e-05 1.3387836e-05 1.0975691e-05 
1.9416682e-05 1.6870381e-05 1.2545065e-05 
1.5603056e-05 1.8287206e-05 -1.4896755e-05 
1.7053997e-05 1.7699229e-05 -9.1443371e-06 
1.3511975e-05 1.6604779e-05 -1.2052817e-05 
1.3970734e-05 1.7226144e-05 -1.3513644e-05 
1.3216843e-05 1.5892134e-05 -1.0090571e-05 
1.4543716e-05 1.7715287e-05 -1.4434661e-05 
1.3075228e-05 1.5086390e-05 -7.7649311e-06 
1.7165677e-05 1.6541755e-05 -1.5853863e-06 
1.8037421e-05 1.7385395e-05 -2.6814664e-06 
1.6976384e-05 1.5387175e-05 3.4396007e-06 
1.4352222e-05 1.2680655e-05 2.1602991e-06 
1.8455537e-05 1.7073280e-05 5.4586171e-06 
1.3263426e-05 1.2845493e-05 -1.1967489e-06 
1.4635685e-05 1.6879458e-05 -1.2306818e-05 
1.5649266e-05 1.4066068e-05 2.8128145e-06 
1.3927618e-05 1.3473620e-05 -1.1879984e-06 
1.3799475e-05 1.4340418e-05 -4.3965288e-06 
1.6807566e-05 1.6463640e-05 -4.7286571e-06 
1.4252601e-05 1.5521880e-05 -7.9554347e-06 
1.5235979e-05 1.1704939e-05 7.7479472e-06 
1.7142604e-05 1.5822909e-05 3.8047313e-06 
1.2657713e-05 1.4496582e-05 -7.9941856e-06 
1.6567326e-05 1.3662444e-05 8.9043160e-06 
1.3154292e-05 1.5485806e-05 -1.0761736e-05 
1.4931091e-05 1.6767508e-05 -1.3629647e-05 
1.1722717e-05 1.2795800e-05 -4.9038849e-06 
1.7406852e-05 1.3894394e-05 1.3607983e-05 
1.6515527e-05 1.4694969e-05 6.1521259e-06 
1.6728891e-05 1.5660196e-05 1.6930701e-06 
1.6921242e-05 1.2859581e-05 1.3329411e-05 
1.7011849e-05 1.5264532e-05 8.7749750e-06 
1.1991649e-05 1.5043083e-05 -1.2145059e-05 
1.1613050e-05 1.4418274e-05 -1.0534943e-05 
1.2503679e-05 1.5580299e-05 -1.3304462e-05 
1.1400475e-05 1.3656954e-05 -8.5011488e-06 
1.3077820e-05 1.5925823e-05 -1.3938312e-05 
1.5284606e-05 1.5611453e-05 -9.4891784e-06 
1.2022535e-05 1.4107489e-05 -9.2045293e-06 
1.2835829e-05 1.1331993e-05 1.9083775e-06 
1.2030253e-05 1.1120862e-05 2.5538375e-07 
1.5452551e-05 1.1215074e-05 1.1271476e-05 
1.4417231e-05 1.5474139e-05 -1.1711116e-05 
1.4848266e-05 1.4576556e-05 -3.6703004e-06 
1.1409059e-05 1.2315209e-05 -4.7968174e-06 
1.2972808e-05 1.0412482e-05 4.6885448e-06 
1.2372938e-05 1.4604259e-05 -1.1217523e-05 
1.5320184e-05 1.4835367e-05 -4.2393126e-06 
1.2906504e-05 1.5291138e-05 -1.3660109e-05 
1.1148078e-05 1.1276795e-05 -2.2948689e-06 
1.2083065e-05 1.3355727e-05 -7.2116509e-06 
1.5143248e-05 1.2814431e-05 7.9866659e-06 
1.2710951e-05 1.4128499e-05 -9.5556388e-06 
1.5371721e-05 1.4104648e-05 5.0459162e-06 
1.1380060e-05 1.0982508e-05 -1.0941457e-06 
1.5607578e-05 1.3187481e-05 1.1621652e-05 
1.1888045e-05 1.1050158e-05 2.0852571e-07 
1.2591916e-05 1.0391333e-05 4.1932090e-06 
1.3327174e-05 1.3770818e-05 -7.3832130e-06 
1.1304868e-05 1.4097746e-05 -1.3028690e-05 
1.0143170e-05 1.2990376e-05 -1.0784724e-05 
1.0594589e-05 1.3522478e-05 -1.2079542e-05 
9.8266401e-06 1.2300235e-05 -9.0484591e-06 
9.7205857e-06 1.1554192e-05 -6.9322136e-06 
1.3991720e-05 1.3273781e-05 -1.0751193e-06 
1.4210017e-05 1.2983859e-05 3.3307433e-06 
1.2703005e-05 1.0945186e-05 3.6656068e-06 
1.0837537e-05 9.4015331e-06 1.7837657e-06 
1.0084496e-05 9.7655993e-06 -1.0426006e-06 
1.0173604e-05 1.2339105e-05 -9.4265852e-06 
1.3781314e-05 1.2826041e-05 1.4800124e-06 
9.7228785e-06 1.1210901e-05 -6.4720261e-06 
9.8821711e-06 1.1785030e-05 -8.0436203e-06 
1.0371947e-05 1.1223593e-05 -5.2195237e-06 
1.2846334e-05 9.8232995e-06 8.0094114e-06 
1.2151419e-05 8.6096388e-06 7.8444500e-06 
1.1106692e-05 1.1213898e-05 -3.4156342e-06 
8.9744462e-06 9.9781864e-06 -4.4201706e-06 
1.1697014e-05 1.1813833e-05 -4.4327267e-06 
1.0302724e-05 1.2303044e-05 -1.0194148e-05 
1.2461753e-05 1.1520381e-05 1.2704711e-06 
1.3430104e-05 1.1769240e-05 8.4544818e-06 
1.3699646e-05 1.0074772e-05 1.2361998e-05 
1.0498095e-05 8.0868822e-06 4.3032137e-06 
1.2105752e-05 1.0725138e-05 3.1159282e-06 
9.0275407e-06 1.1801639e-05 -1.0835667e-05 
1.3228814e-05 9.2195196e-06 1.1683405e-05 
9.5370251e-06 9.2238879e-06 -9.3499733e-07 
1.2539970e-05 8.5578258e-06 1.0254676e-05 
1.3681823e-05 1.0753567e-05 1.2095614e-05 
1.0472119e-05 1.2605113e-05 -1.2566835e-05 
1.2138651e-05 1.2297241e-05 -7.4575878e-06 
1.1756076e-05 1.2319182e-05 -9.7640022e-06 
8.4566127e-06 1.1044283e-05 -9.3572053e-06 
9.3073941e-06 1.2044380e-05 -1.1801612e-05 
8.2654642e-06 1.0372895e-05 -7.4800878e-06 
9.8449973e-06 1.2278212e-05 -1.2344891e-05 
1.2284443e-05 1.1930142e-05 -3.9718393e-06 
1.1192798e-05 1.2421730e-05 -1.1349805e-05 
1.2594014e-05 1.1463965e-05 4.4669669e-06 
8.9277682e-06 8.0853315e-06 5.2764818e-07 
8.2902397e-06 8.6225773e-06 -2.3439104e-06 
1.2995893e-05 1.0798204e-05 1.0515518e-05 
9.5460036e-06 8.0315049e-06 2.2480733e-06 
9.6665326e-06 8.7371891e-06 4.1030242e-07 
9.2324426e-06 1.0407157e-05 -6.6461776e-06 
1.2155073e-05 1.0408913e-05 7.1374684e-06 
1.0238967e-05 8.0514556e-06 4.5602869e-06 
1.1000580e-05 1.0847994e-05 -3.9386005e-06 
8.1530015e-06 9.0682834e-06 -4.3970240e-06 
9.5037331e-06 1.1070734e-05 -9.6028753e-06 
1.1558683e-05 1.0675398e-05 1.2840671e-06 
1.1888405e-05 9.3195213e-06 8.6592781e-06 
8.2563956e-06 9.7572865e-06 -6.4992732e-06 
1.1542576e-05 8.6480140e-06 8.6058953e-06 
1.0316739e-05 1.0958597e-05 -7.7816312e-06 
8.1693752e-06 1.0176464e-05 -8.4665344e-06 
7.8456878e-06 7.9752363e-06 -1.9917286e-06 
8.1600174e-06 7.4567834e-06 2.3815527e-07 
1.0370458e-05 7.4309378e-06 7.3022802e-06 
1.0381681e-05 9.2607106e-06 3.0002157e-06 
6.6197626e-06 7.5916118e-06 -3.8795947e-06 
6.9433822e-06 6.8605041e-06 -1.1340301e-06 
6.5437534e-06 8.6437258e-06 -7.0750420e-06 
7.5476255e-06 6.3413049e-06 1.4805933e-06 
6.9742005e-06 9.5652113e-06 -9.6473241e-06 
8.2465585e-06 6.0633347e-06 3.9499469e-06 
9.0849580e-06 5.9181539e-06 6.4736046e-06 
7.6672550e-06 1.0079410e-05 -1.1122899e-05 
9.8908085e-06 6.1398177e-06 8.5212559e-06 
8.3562791e-06 1.0276422e-05 -1.1393275e-05 
1.0514131e-05 6.6724542e-06 1.0146880e-05 
8.9346368e-06 1.0259184e-05 -1.0923509e-05 
9.3018289e-06 9.9905283e-06 -9.8154023e-06 
1.0882948e-05 7.2607345e-06 1.1083612e-05 
8.3316399e-06 8.7428143e-06 -4.3042432e-06 
9.5109635e-06 9.7274487e-06 -7.9589681e-06 
1.0956360e-05 7.9849306e-06 1.1149867e-05 
9.6917083e-06 9.4166116e-06 -5.1862348e-06 
1.0814299e-05 8.4825988e-06 1.0488612e-05 
9.7862885e-06 9.2310029e-06 -2.1386145e-06 
1.0557822e-05 8.8344459e-06 8.8395718e-06 
9.8652990e-06 9.1655020e-06 1.0162950e-06 
1.0268822e-05 9.0034946e-06 6.5782015e-06 
1.0096559e-05 9.1375259e-06 3.8043158e-06 
6.6723646e-06 7.6599581e-06 -4.3027194e-06 
9.0138847e-06 7.3410974e-06 4.0600930e-06 
7.3521992e-06 7.1128197e-06 -1.0235207e-06 
8.4527519e-06 7.9284055e-06 -6.5117911e-07 
7.6435344e-06 6.1167320e-06 2.4216602e-06 
8.3501045e-06 9.0430985e-06 -7.9225483e-06 
8.0501532e-06 6.6862185e-06 2.3810924e-06 
6.7436581e-06 8.0622794e-06 -5.9710519e-06 
8.3244304e-06 5.8984310e-06 5.0809435e-06 
8.9374071e-06 8.3468294e-06 -3.7111056e-07 
9.4225034e-06 8.0739246e-06 5.8595451e-06 
9.4342204e-06 6.9227153e-06 7.8546054e-06 
7.3549731e-06 8.4774292e-06 -8.2478555e-06 
5.8394367e-06 6.0906477e-06 -1.9444346e-06 
8.5814645e-06 5.8089117e-06 7.0575161e-06 
8.2130309e-06 7.0089473e-06 3.2443800e-06 
8.9218856e-06 7.0777364e-06 7.2135149e-06 
8.0790733e-06 7.7780978e-06 -3.5133853e-06 
5.6388444e-06 4.9453247e-06 3.5078642e-07 
7.4399122e-06 8.2164006e-06 -9.4066572e-06 
7.4615145e-06 6.8969593e-06 -3.3377469e-07 
7.0316173e-06 7.1425911e-06 -3.8725889e-06 
8.3433133e-06 7.2596567e-06 6.8712279e-06 
7.8782332e-06 7.2298517e-06 -4.5957850e-07 
8.0504042e-06 4.5386973e-06 8.3406330e-06 
7.4900372e-06 7.6665510e-06 -7.8598268e-06 
8.3952827e-06 5.0817416e-06 9.3937942e-06 
8.3211462e-06 6.8449222e-06 8.4913636e-06 
5.9915283e-06 3.9332613e-06 3.5083619e-06 
8.5392585e-06 6.3053981e-06 9.5356172e-06 
7.5481003e-06 6.9947146e-06 -3.2104447e-06 
6.8284671e-06 3.9055258e-06 6.1084493e-06 
7.4711584e-06 7.1495874e-06 -5.7721832e-06 
5.1495622e-06 7.3999445e-06 -9.0062340e-06 
8.4678541e-06 5.6067856e-06 9.7545044e-06 
6.2338327e-06 7.7288605e-06 -9.7591119e-06 
4.3081995e-06 5.2811179e-06 -3.2814698e-06 
6.5792046e-06 7.0387346e-06 -6.5087511e-06 
7.3095785e-06 6.6985690e-06 3.2288672e-06 
4.1273647e-06 6.1894680e-06 -6.4944957e-06 
7.3007191e-06 6.1485066e-06 5.2316714e-06 
4.7610574e-06 5.1931438e-06 -2.3393275e-06 
6.5401682e-06 6.4969986e-06 -4.9363189e-06 
5.5828400e-06 5.1417887e-06 -8.8729074e-08 
4.9589553e-06 4.1083081e-06 9.9867043e-07 
6.3507955e-06 5.7605016e-06 -6.2465887e-07 
6.5053523e-06 4.8192446e-06 5.9447375e-06 
5.7948146e-06 3.7226423e-06 4.6536775e-06 
5.6737967e-06 6.1425640e-06 -8.0558702e-06 
3.6559134e-06 3.1672880e-06 1.7516572e-07 
6.3312586e-06 3.9620159e-06 6.5918198e-06 
5.2649780e-06 4.6226432e-06 6.8383281e-07 
6.0643229e-06 5.2909513e-06 5.9321960e-06 
5.6738204e-06 5.4700058e-06 -6.0255084e-06 
5.5162923e-06 4.8148167e-06 2.1643402e-06 
4.0361110e-06 4.6425298e-06 -3.5009928e-06 
4.3436389e-06 5.3080412e-06 -5.8693336e-06 
5.2365922e-06 4.7657468e-06 -1.1200756e-06 
5.6638946e-06 2.6394860e-06 6.2508329e-06 
6.0963980e-06 4.8478219e-06 7.3602760e-06 
5.9983022e-06 3.0113863e-06 7.3590641e-06 
5.2404453e-06 4.7080257e-06 -1.4876824e-06 
5.1952352e-06 4.5715901e-06 -3.7196003e-06 
4.6229939e-06 3.3425476e-06 2.7732924e-06 
4.3680784e-06 4.4747826e-06 -3.7592024e-06 
3.5231324e-06 1.8235183e-06 2.7778281e-06 
3.9511292e-06 5.1373481e-06 -7.7294744e-06 
2.1569290e-06 3.1090763e-06 -2.5631948e-06 
4.6840296e-06 3.8927055e-06 3.9862111e-06 
4.4362437e-06 4.0816694e-06 2.4477151e-06 
4.1278477e-06 3.8889680e-06 -3.6012050e-06 
4.1235671e-06 3.3149688e-06 1.9494594e-06 
2.8973102e-06 2.7754131e-06 -7.3261589e-07 
3.9236938e-06 3.4974607e-06 -1.1427446e-06 
4.8295919e-06 3.3772733e-06 6.8174113e-06 
4.8511456e-06 2.5328488e-06 6.8385184e-06 
1.9390388e-06 3.9475899e-06 -5.7107163e-06 
3.5510384e-06 2.3151706e-06 2.6898776e-06 
2.9165792e-06 3.0752140e-06 -2.0153725e-06 
3.2692624e-06 3.6220817e-06 -4.9177120e-06 
1.8340357e-06 1.3680395e-06 5.0956356e-07 
2.4260744e-06 1.6342183e-06 1.0531504e-06 
3.3824610e-06 3.0717108e-06 -4.9603213e-06 
3.5778098e-06 1.1182004e-06 5.0264271e-06 
3.0372057e-06 2.6235100e-06 1.1710530e-06 
2.6501539e-06 2.5243774e-06 -1.4001841e-06 
3.3965853e-06 2.9034593e-06 5.0021331e-06 
2.8812908e-06 2.4743922e-06 -1.5686375e-06 
1.3634365e-06 1.8935038e-06 -2.0291475e-06 
2.6919106e-06 1.4787688e-06 3.3330107e-06 
1.6674610e-06 2.3216021e-06 -3.5092114e-06 
1.7800463e-06 1.2493612e-06 7.6960066e-07 
1.3999397e-06 9.9827616e-08 1.6088053e-06 
1.8087122e-06 2.5324262e-06 -4.6358623e-06 
1.1100134e-06 1.2128899e-06 -6.1059689e-07 
2.0289831e-07 9.7357861e-07 -1.4944679e-06 
1.6112527e-06 1.6914984e-06 1.4532969e-06 
1.6362353e-06 5.9004054e-07 1.9112310e-06 
1.4655924e-06 1.5455929e-06 -1.9702729e-06 
9.2751549e-07 1.1197445e-06 -1.0793648e-06 
1.6249767e-06 1.3324083e-06 1.8175219e-06 
5.5957997e-07 1.9865056e-06 -3.3108945e-06 
1.3410956e-06 1.1300729e-06 -2.4830024e-07 
2.3402890e-06 1.1599267e-06 4.1631861e-06 
2.2350071e-06 5.3697585e-07 3.7075638e-06 
2.0265873e-06 1.5857192e-06 3.8273765e-06 
1.0206537e-06 7.7455445e-07 5.2314874e-07 
1.5779796e-06 8.9606777e-07 -2.2625597e-06 
8.1711640e-08 -1.8071853e-07 1.1691923e-07 
1.4791576e-06 -2.2429957e-07 2.3625175e-06 
1.4954542e-06 1.1572640e-06 -2.7867559e-06 
8.2349277e-07 5.7360347e-07 -5.5557308e-07 
9.7993995e-07 1.2590996e-06 2.2432969e-06 
4.5283758e-07 9.5205820e-07 -1.3198377e-06 
1.3210821e-06 5.9837697e-07 2.2629138e-06 
5.2679474e-07 8.2568044e-07 -1.4807589e-06 
4.1895763e-07 3.5134326e-07 -1.5122174e-07 
5.7505378e-07 4.3740857e-07 -8.0638381e-07 
5.9419264e-08 -6.1795376e-08 -3.9059486e-08 
5.7711986e-07 -1.6477345e-07 9.4980044e-07 
-1.9274438e-07 7.7466996e-07 -1.2283765e-06 
4.4505941e-07 4.8296135e-07 7.7030734e-07 
4.5722385e-07 4.2408141e-07 -4.4089373e-07 
3.2816493e-07 1.1871410e-06 -1.9113104e-06 
3.7432281e-07 -5.1087216e-07 7.3908819e-07 
-3.3436638e-07 2.0568272e-07 -6.1647302e-07 
5.4375982e-07 4.7631244e-07 -1.0872228e-06 
8.1363675e-07 9.9625083e-07 -2.0072528e-06 
8.4471543e-07 8.5232941e-08 1.3005480e-06 
4.1286887e-07 3.3821158e-07 -3.0690740e-07 
6.0616111e-07 4.6099268e-07 1.2044312e-06 
3.7737055e-07 3.4503043e-07 -2.0306155e-08 
1.9727540e-07 3.4711510e-07 5.8755819e-07 
1.0443504e-06 -9.0895753e-09 1.4470379e-06 
9.8721432e-07 2.8677039e-07 1.5244627e-06 
6.6990970e-07 1.6240230e-07 -1.1400947e-06 
7.9988791e-07 5.4609148e-07 1.5001339e-06 
3.9051190e-07 4.4369251e-08 -6.3032206e-07 
5.2758520e-07 6.7579936e-07 1.3745129e-06 
6.0825971e-07 -2.2439455e-07 9.3784809e-07 
6.2448908e-07 3.5375211e-07 -1.0865397e-06 
2.2603132e-07 6.0039724e-08 -2.3384145e-07 
2.6780734e-07 4.9528671e-07 8.7546726e-07 
1.9572917e-07 3.9975696e-08 2.8774051e-07 
3.7845078e-07 1.3025418e-07 6.2516477e-07 
0.0000000e+00 0.0000000e+00 0.0000000e+00 
0.0000000e+00 0.0000000e+00 0.0000000e+00 
0.0000000e+00 0.0000000e+00 0.0000000e+00 
0.0000000e+00 0.0000000e+00 0.0000000e+00 
0.0000000e+00 0.0000000e+00 0.0000000e+00 
0.0000000e+00 0.0000000e+00 0.0000000e+00 
0.0000000e+00 0.0000000e+00 0.0000000e+00 
0.0000000e+00 0.0000000e+00 0.0000000e+00 
0.0000000e+00 0.0000000e+00 0.0000000e+00 
0.0000000e+00 0.0000000e+00 0.0000000e+00 
0.0000000e+00 0.0000000e+00 0.0000000e+00 
0.0000000e+00 0.0000000e+00 0.0000000e+00 
0.0000000e+00 0.0000000e+00 0.0000000e+00 
0.0000000e+00 0.0000000e+00 0.0000000e+00 
0.0000000e+00 0.0000000e+00 0.0000000e+00 
0.0000000e+00 0.0000000e+00 0.0000000e+00 
0.0000000e+00 0.0000000e+00 0.0000000e+00 
0.0000000e+00 0.0000000e+00 0.0000000e+00 
0.0000000e+00 0.0000000e+00 0.0000000e+00 
0.0000000e+00 0.0000000e+00 0.0000000e+00 
0.0000000e+00 0.0000000e+00 0.0000000e+00 
0.0000000e+00 0.0000000e+00 0.0000000e+00 
0.0000000e+00 0.0000000e+00 0.0000000e+00 
0.0000000e+00 0.0000000e+00 0.0000000e+00 
0.0000000e+00 0.0000000e+00 0.0000000e+00 
0.0000000e+00 0.0000000e+00 0.0000000e+00 
0.0000000e+00 0.0000000e+00 0.0000000e+00 
0.0000000e+00 0.0000000e+00 0.0000000e+00 
0.0000000e+00 0.0000000e+00 0.0000000e+00 
0.0000000e+00 0.0000000e+00 0.0000000e+00 
0.0000000e+00 0.0000000e+00 0.0000000e+00 
0.0000000e+00 0.0000000e+00 0.0000000e+00 
0.0000000e+00 0.0000000e+00 0.0000000e+00 
REACTION 3 4496  float
-1.2139445e-07 1.0297248e-07 2.9649817e-07 
1.3050402e-07 4.0174363e-08 -4.1888651e-07 
1.2780259e-07 -2.5942640e-07 -4.3692597e-07 
4.9158183e-07 2.7184528e-08 2.6847371e-07 
-8.6359897e-08 -6.7204295e-09 -1.3323183e-06 
-1.5566636e-07 2.3405825e-07 1.9911754e-06 
-2.5111380e-08 -5.3159281e-09 1.0907309e-07 
1.7666829e-07 2.3319049e-07 4.6086114e-07 
8.2949143e-08 9.8929029e-08 -1.8886745e-06 
-2.6232246e-07 -2.8792692e-07 1.1875733e-06 
-2.1722903e-07 2.4873475e-07 2.4196841e-06 
1.4419078e-06 -9.9228123e-07 -7.8586172e-06 
-1.9152653e-06 1.3219583e-06 9.8940927e-06 
1.2255781e-06 -1.0615159e-06 -7.4081522e-06 
-2.7110482e-07 1.3318723e-07 -1.4214400e-07 
-1.0276730e-06 3.6824090e-07 7.6806709e-06 
4.0012477e-08 -8.5861531e-09 3.0812211e-07 
-1.6152079e-07 5.4923777e-07 -1.6566293e-07 
-2.4466675e-07 2.3566084e-08 -4.1977664e-06 
5.5778037e-07 2.7877590e-07 1.6275769e-06 
-1.9318998e-07 -5.3761664e-07 -4.3232476e-06 
-2.4060704e-08 -4.2386333e-07 9.9963802e-07 
-1.2133837e-07 5.6682200e-07 -3.1172267e-06 
2.7461280e-07 -7.0199945e-07 -3.8769185e-06 
9.9211616e-07 5.0096406e-07 4.8016823e-06 
3.8885062e-07 1.3325406e-07 -1.9170243e-07 
-2.0629928e-07 -7.1922085e-07 -1.4365239e-06 
1.1296171e-07 -2.9861087e-07 6.7505127e-08 
3.4513567e-07 -3.6819259e-07 9.8397015e-07 
7.6090299e-09 7.1774929e-07 -3.3602427e-07 
-2.6457269e-07 1.3528070e-06 1.1654935e-06 
-6.2153998e-07 -8.0997478e-07 7.1478064e-07 
5.8628314e-07 2.2820541e-07 1.2918520e-06 
-1.5921076e-07 8.6753829e-08 3.0443155e-06 
-9.3012363e-07 -3.0732733e-07 -3.4084733e-06 
5.5847619e-07 6.0661034e-07 4.4299422e-06 
-2.7984933e-07 7.4089812e-08 -1.3737589e-06 
3.4226721e-07 4.0078717e-07 4.4669974e-07 
4.4005643e-07 -1.1487324e-06 -2.6193007e-07 
4.8081290e-07 -5.2654013e-07 7.4848435e-07 
-4.3664329e-08 2.5566120e-09 -2.1151855e-07 
-2.4958223e-07 -3.8496157e-07 1.6666979e-07 
-1.3932814e-07 4.6636143e-07 -2.4352557e-06 
-4.4013930e-08 6.5379755e-09 -4.7547391e-07 
2.7308482e-07 7.5536599e-07 -1.3364894e-06 
2.2584109e-07 -6.0352369e-07 4.9384266e-07 
-8.4784375e-07 -7.2054280e-07 -4.3603477e-06 
9.9460550e-08 1.4047788e-07 -4.7242943e-07 
3.5181753e-07 -5.0819642e-07 2.2945499e-06 
-3.5080112e-07 5.1322115e-07 -6.0663598e-07 
2.3963469e-07 1.0591372e-06 2.1752978e-06 
-5.0643285e-07 -1.0075145e-06 2.7965834e-06 
-1.1353557e-07 1.9062814e-07 5.6321201e-06 
5.7798047e-07 1.5331457e-06 -2.2811516e-06 
-7.7911594e-08 2.4380824e-07 -9.3148657e-08 
-7.4075655e-07 -3.1011970e-07 -2.9524313e-06 
1.1228524e-07 3.2566811e-07 5.0821286e-06 
-2.0100150e-07 -4.3122333e-07 -3.3375177e-06 
-4.7268518e-08 5.9435700e-07 -3.8736548e-06 
-1.4336796e-07 -5.2369251e-07 3.2399228e-06 
1.2526276e-06 1.4289168e-06 4.6060500e-06 
-6.6175113e-07 -5.5882418e-07 -2.2966130e-06 
-1.0932981e-06 -8.0173146e-07 -2.3922089e-06 
9.6264944e-07 3.4389333e-07 3.4263351e-07 
-6.1145948e-07 -1.4080558e-07 -1.0001828e-06 
-1.7073856e-06 -1.0771895e-06 -5.7519801e-06 
5.9688523e-07 7.6783346e-07 3.0442907e-06 
1.8652528e-06 2.4777498e-07 2.4950298e-06 
-2.9816480e-08 -1.3733868e-08 -3.7438491e-07 
5.7636015e-07 8.9333511e-08 -2.1721121e-06 
-1.2689893e-07 -5.0138686e-07 -3.9912990e-07 
-1.2929096e-06 -7.4426794e-07 -2.1674709e-06 
5.8544697e-07 9.5203876e-07 4.7723179e-06 
1.0303830e-07 5.3534598e-07 7.9600755e-07 
-7.5592146e-07 -3.1913899e-07 -1.7480529e-07 
1.6860150e-07 1.6696620e-07 2.3408325e-06 
1.2568258e-06 7.6989710e-07 3.6198905e-06 
3.6546660e-07 -6.8641515e-07 -3.3514639e-06 
-8.7836349e-07 -6.5841658e-07 -2.8409681e-06 
-6.4541048e-08 -2.0147070e-07 3.3769375e-08 
-1.3382190e-07 -1.7006964e-07 -4.8898289e-07 
4.7291554e-08 4.1008488e-07 1.5144171e-07 
-2.6236026e-07 -5.2746879e-07 -2.3050800e-06 
7.2803471e-07 3.3323829e-07 -1.2748404e-07 
6.8125036e-07 1.9937818e-07 -1.0998308e-07 
2.3047974e-07 4.1564650e-07 2.2847860e-06 
-8.8576752e-07 -8.7407318e-07 -4.9377791e-06 
1.7112428e-07 -2.4016660e-07 -1.3313110e-06 
5.0371261e-07 -4.7294549e-08 1.5142100e-06 
-6.2469844e-08 2.7781186e-07 -2.9496321e-06 
1.2266965e-07 -2.8648043e-07 2.2866503e-08 
-3.4738616e-07 2.4482330e-07 3.2562127e-06 
1.7071390e-07 -2.1612669e-08 7.1938791e-07 
-3.7855892e-07 -4.5625251e-07 -7.8499562e-07 
-3.8921914e-07 4.6656814e-07 9.5471489e-07 
-3.4357640e-07 -4.1620831e-07 -2.8466539e-07 
1.0219598e-07 -1.8139554e-08 3.3842088e-07 
4.9491433e-07 2.9526205e-07 2.7081760e-06 
-5.0323018e-07 1.4580796e-07 -7.4054037e-07 
-1.6030407e-07 4.2848811e-07 1.9755478e-07 
-2.0814733e-07 1.0811188e-07 3.8727749e-06 
-1.9210412e-07 1.7014125e-07 -6.9513824e-08 
2.8384665e-07 -1.1446459e-06 9.7106306e-07 
-2.4058903e-07 3.3097433e-07 6.8082336e-08 
5.4434235e-08 1.4009320e-08 1.3543720e-06 
-5.2912469e-07 3.5671752e-07 -3.3395886e-09 
5.5220499e-07 7.4101951e-07 -3.5075261e-06 
-6.1362198e-07 -3.4091275e-07 -5.9372047e-07 
-3.3900832e-08 -7.0140464e-07 5.6823325e-08 
4.7416606e-07 2.5981507e-07 3.2027633e-06 
2.1537298e-07 -5.4277268e-07 -5.0017566e-06 
2.8978155e-08 3.1954852e-07 -1.7105855e-08 
5.9694230e-07 7.4932677e-07 3.5945202e-06 
-4.9793181e-07 1.3845610e-07 -2.1726416e-06 
8.5002426e-08 -2.6621225e-07 -3.3432536e-07 
1.2557996e-07 2.7052932e-08 9.2819204e-07 
9.1236603e-07 2.1686789e-07 -2.0064531e-06 
-2.2507325e-07 -7.4134067e-07 -2.1042885e-07 
7.1809689e-07 2.3546959e-07 2.7839017e-06 
4.9834290e-07 -8.4950489e-07 -4.7892040e-06 
3.4063472e-08 7.2806102e-07 -4.6621932e-07 
-8.9841407e-08 -6.7041623e-07 -1.8138883e-06 
-5.3663257e-07 9.1131348e-08 4.7651918e-07 
2.9818787e-07 -3.4331853e-07 -1.0481932e-06 
-3.8793974e-07 5.2275692e-07 2.5283421e-07 
2.4372928e-09 3.8574490e-07 1.9152959e-07 
-5.5955923e-07 -1.2450502e-06 -1.8881052e-06 
-1.5345726e-07 3.3068895e-07 1.9557201e-06 
-3.7267006e-07 -1.7572064e-07 1.1241543e-06 
2.9693567e-07 9.7428108e-07 3.0820304e-06 
-1.5928744e-07 3.9367643e-07 7.3037872e-06 
2.5728980e-07 2.3424212e-07 8.5208734e-07 
4.8909985e-08 3.1906065e-08 -5.8633291e-06 
-3.5712475e-07 2.1603462e-08 -6.7884525e-07 
-7.0216934e-08 -4.3741850e-09 2.6698638e-07 
2.4250298e-07 1.5736066e-07 9.1967917e-07 
-5.8065694e-07 -4.8904303e-07 -1.3278056e-07 
-3.7003829e-07 5.2316683e-08 -6.0233947e-07 
2.8717321e-07 -2.5969868e-07 1.2240893e-06 
-1.5709661e-08 6.3116751e-08 -3.5052767e-07 
4.7980205e-07 9.2731653e-07 2.1349197e-06 
-5.3714558e-07 -1.2916813e-06 -2.0285063e-06 
4.2198826e-07 4.2734800e-07 1.2100227e-06 
-1.0202291e-07 1.8843095e-07 -2.3937196e-07 
-8.8288243e-07 -8.8509779e-07 -3.7886550e-06 
-7.3784378e-07 -9.3960261e-07 -3.5398352e-06 
1.3836219e-06 -1.4885858e-07 2.9673074e-06 
5.8390873e-07 5.6162577e-07 7.6253156e-07 
-6.2631091e-07 -2.3544811e-07 -2.2857030e-06 
-6.4551438e-07 -3.5061680e-07 -4.0710092e-06 
-2.3166677e-07 4.0669758e-07 2.5812426e-06 
1.6926780e-08 -6.0068778e-08 2.6864075e-07 
2.9632776e-07 8.2014412e-07 4.1979692e-06 
-5.0060214e-07 -1.1290520e-06 -2.8945820e-07 
-1.0394278e-06 -1.9670445e-06 -4.1701146e-06 
5.2573154e-07 1.2626269e-06 3.2910255e-06 
9.8978965e-08 -1.2420438e-07 7.2978531e-07 
-1.0560284e-07 -5.2809622e-07 -2.5154457e-06 
5.8855545e-07 1.2259412e-06 4.8620605e-06 
3.1515245e-07 -8.5089539e-08 1.1094202e-06 
-6.9973470e-07 -6.1979208e-08 -2.6777499e-07 
4.9300329e-08 6.6058590e-07 1.0296469e-06 
-6.9467035e-08 -4.9179487e-08 -1.5550659e-09 
-4.5016353e-07 -9.6876022e-07 -1.3380220e-06 
5.9657043e-07 1.2573856e-06 3.3616629e-06 
2.6440910e-07 -1.3941790e-06 -2.3572507e-06 
-5.9653864e-08 3.9287674e-08 -2.0364100e-06 
1.5579089e-07 1.7487793e-07 7.7166976e-07 
3.3130544e-07 4.2852679e-07 -3.3396082e-06 
-2.6021002e-07 -6.2151634e-07 -1.0494051e-07 
-3.9913601e-07 -7.7565204e-08 -5.4467423e-06 
1.7563450e-07 1.9105629e-07 -4.6452906e-06 
1.1761892e-07 -7.2318961e-08 6.4873774e-07 
-3.9761778e-07 -4.7641802e-08 4.8390430e-06 
3.7765898e-07 5.0990752e-07 4.1834132e-06 
-5.9921194e-07 -2.2507252e-06 -1.3959233e-05 
8.6651704e-07 1.8985365e-06 1.2650559e-05 
-2.5303612e-07 -2.3423906e-08 2.0600496e-06 
-2.2248905e-07 3.4981073e-07 9.6876033e-07 
1.5917637e-07 -6.2858726e-07 -2.3629122e-08 
5.8837804e-07 -7.3401807e-08 3.2686165e-07 
-8.5129113e-07 -1.6151652e-08 2.6673033e-06 
-2.0404175e-07 -6.6974842e-08 -2.2926392e-06 
-1.8305077e-07 3.6882263e-08 -6.7315631e-07 
-7.6491247e-08 4.6968677e-07 6.9320230e-08 
-2.0600811e-07 -1.3663580e-06 -3.1414846e-08 
1.5786171e-06 1.7631991e-06 -2.6617702e-06 
3.4126206e-08 2.8325988e-07 3.3550675e-06 
-1.9801541e-07 -5.1580596e-08 -2.6086320e-06 
-2.9562679e-07 -9.4673186e-07 -3.1157772e-06 
6.8085149e-07 4.7317218e-07 2.6126678e-08 
1.5915160e-07 2.2766113e-07 4.9037146e-07 
3.4258528e-07 -2.6521573e-07 2.1214844e-07 
7.8814520e-07 -3.4217641e-07 -4.8780413e-07 
-5.6042342e-07 -2.6719013e-07 1.0373204e-07 
-1.5899913e-07 9.5486428e-07 1.1425353e-06 
-9.7605643e-08 6.0425128e-07 1.1253179e-06 
-1.6477067e-07 -2.4009001e-08 5.5894452e-07 
8.7571397e-07 9.3907408e-07 1.2631111e-06 
-7.8615790e-07 -5.9838879e-07 -3.0003805e-06 
6.3284041e-08 2.4921718e-08 -5.7566558e-07 
-2.1914546e-07 -1.5054718e-07 1.1221016e-06 
1.6338375e-07 1.8289238e-07 3.3269152e-06 
5.2295530e-08 -2.4849425e-07 9.3244864e-08 
2.8352565e-07 6.3167147e-07 2.6974851e-06 
-1.3402225e-06 -4.0723606e-07 -3.5284103e-07 
-8.5606189e-07 1.4516182e-07 -4.9964189e-07 
1.3503210e-07 1.1638895e-07 1.5367243e-06 
5.5278684e-07 4.3788378e-07 1.5041220e-06 
-3.7373201e-07 -1.3689498e-06 -4.1469559e-07 
5.5358392e-08 3.7750127e-08 1.8347843e-07 
5.9952964e-07 4.6907175e-07 -8.0743945e-07 
-4.8114822e-07 -9.2813167e-07 -1.1849509e-06 
3.2230783e-08 -3.9090608e-08 -1.7766294e-07 
3.1885840e-08 2.1751606e-07 -1.7773505e-06 
7.9852185e-08 1.8295698e-07 1.3839323e-06 
-1.6045642e-07 -1.1762999e-07 -7.9259905e-08 
-2.4559790e-07 -5.2497620e-07 -9.2105205e-07 
-4.5975177e-08 -4.9756403e-07 -6.0480210e-07 
1.8412148e-07 -7.6318955e-08 -5.5938290e-06 
1.4404628e-07 2.0624086e-07 1.0181844e-06 
-2.2662353e-07 -5.3368655e-08 4.0187724e-06 
-1.6702880e-07 1.0246129e-07 -3.5935000e-07 
3.8748360e-07 -4.8688548e-07 4.6182436e-07 
6.9272218e-08 9.6429332e-08 -8.3381815e-07 
7.3640116e-08 -1.2690424e-07 -1.1859403e-06 
-1.3714440e-07 7.9419138e-08 5.6511544e-07 
-5.5391342e-07 -6.9358640e-07 -3.1645809e-06 
8.7214028e-07 7.6161120e-07 3.5088951e-07 
-5.2382546e-08 -4.8117190e-08 5.1929646e-07 
6.6370243e-11 6.8926568e-08 8.2191991e-07 
-8.1140382e-07 -6.7730008e-07 -1.2221259e-06 
7.7158506e-07 1.9892204e-06 1.5041533e-06 
4.8168295e-07 -5.3585120e-07 -6.3865940e-07 
7.0466228e-07 2.8034665e-07 -1.1782848e-07 
-5.4845401e-07 -5.0748230e-07 -2.2829126e-06 
4.5734933e-07 1.3748618e-06 2.3897931e-06 
6.6765217e-08 1.2321254e-07 -2.0616291e-08 
4.6434206e-08 1.2838889e-07 2.3853217e-06 
3.4346601e-07 2.0926953e-07 6.5431868e-07 
3.7350441e-07 6.1645221e-07 -1.9165091e-06 
6.7702715e-08 -1.9659194e-07 1.1030684e-06 
9.1327780e-07 1.7171994e-06 6.2448048e-06 
6.0678680e-08 1.8245350e-08 -4.8354525e-07 
-5.0418765e-07 2.0807862e-07 1.6929548e-06 
4.2063263e-08 2.8387254e-07 -2.9860264e-06 
-7.7190714e-07 -1.8375433e-06 -5.7236816e-06 
2.6485873e-07 1.0833548e-06 1.4242555e-06 
-4.5782201e-07 -1.9698853e-06 -2.8460456e-06 
-2.3168280e-08 -2.2709933e-07 8.0466850e-07 
2.6530455e-07 1.1944252e-07 2.0210639e-06 
-7.0994076e-07 -2.9219117e-07 2.5760455e-06 
3.4878477e-07 3.0468411e-07 -1.9228162e-06 
-4.8755157e-07 -9.7603004e-07 2.1694004e-06 
-1.3512143e-06 -2.0147597e-06 -3.8585163e-06 
2.4472314e-07 -1.9660430e-08 -6.1108572e-06 
4.8221938e-07 1.2671846e-06 4.1348985e-06 
9.2854471e-08 -1.1050945e-07 -1.1211370e-06 
-1.0076504e-08 2.1359870e-08 4.1070740e-07 
-1.2121650e-07 -8.6595577e-08 8.5542450e-07 
-3.0602510e-07 -9.7861664e-07 -2.0966609e-06 
-2.1170483e-07 1.6303842e-07 -1.1138182e-07 
4.7383571e-07 1.1295487e-06 5.2585265e-06 
-3.9621696e-07 -1.0697689e-07 7.4735169e-07 
3.2603193e-08 3.0310377e-07 1.1860573e-06 
-4.6463317e-08 -2.2814503e-07 7.2181024e-07 
-4.9748845e-08 3.2405390e-07 -2.6200953e-06 
-6.5896863e-08 3.0131392e-08 7.1356578e-07 
1.5677590e-06 2.6443061e-06 -3.0846677e-06 
-8.1725085e-07 -1.5389529e-06 2.6908865e-06 
-5.2825630e-08 5.0554644e-07 8.3508343e-07 
7.4229541e-07 -1.8425477e-07 -5.2803705e-07 
-1.3051043e-07 -6.7159260e-07 1.6023045e-06 
-1.4949647e-07 7.2284092e-07 6.7640389e-07 
1.8381215e-07 2.0684212e-07 -1.7668082e-08 
-2.4191593e-07 -6.7455500e-07 -1.1082465e-06 
-1.5296376e-07 2.4787715e-07 -7.6959168e-07 
1.2211518e-06 1.3613712e-06 -9.0440844e-06 
-8.2782742e-07 -9.6940050e-07 7.9324664e-06 
4.6143072e-07 7.2950775e-07 3.2397079e-06 
7.3418164e-07 1.6664126e-07 5.2721803e-06 
4.6092029e-07 -2.5002774e-07 -5.3788353e-06 
5.5323665e-07 6.5251101e-07 -2.5735167e-06 
-2.8954935e-07 -4.6406516e-08 1.2279742e-08 
2.2250342e-07 8.0601200e-07 -2.1525459e-07 
8.6106617e-08 -3.4191834e-07 -2.1479409e-06 
1.7932491e-07 -6.4001547e-08 -5.0884199e-07 
-1.6407709e-07 -4.2604224e-08 -3.5839406e-07 
5.1259076e-07 6.7936719e-07 2.6276648e-06 
-8.4616524e-08 -2.6933043e-07 2.3219360e-07 
-2.5618152e-07 5.2546073e-07 3.5122443e-06 
-4.8027221e-07 1.2941202e-07 -8.2299647e-07 
3.8709371e-07 6.4539387e-07 7.0128470e-07 
-4.3975061e-07 -1.3691713e-06 1.3306989e-06 
5.8667656e-08 6.7351988e-07 1.5406679e-06 
-1.1612151e-06 -1.3741131e-06 -1.8171884e-06 
-3.6892726e-07 -7.2044247e-07 -1.3349571e-06 
-1.8016590e-07 -1.8462151e-08 -3.9871086e-08 
7.2981351e-07 2.8170760e-07 4.0724226e-06 
-3.4558860e-07 -1.1852892e-06 -1.2718222e-06 
1.2659744e-07 -4.0119761e-07 -3.1297461e-06 
-1.6131872e-07 1.3588465e-07 1.4835041e-06 
-7.1285359e-07 -1.6038103e-07 -4.4370586e-06 
6.2226967e-08 -1.1839435e-07 1.6664976e-07 
4.1808395e-08 1.1726871e-06 -5.4304901e-06 
4.5475414e-08 1.0490828e-07 6.3007104e-07 
-8.1000258e-07 -2.2742759e-06 -6.5651388e-06 
1.1656969e-06 1.6141347e-06 4.8311626e-06 
-4.9512448e-07 -4.7434435e-07 8.2953869e-07 
-8.5912646e-08 -5.6664366e-08 -2.2517802e-06 
3.8971436e-07 9.2427214e-08 6.6070256e-06 
1.9435076e-07 -5.9025109e-07 -3.2475549e-07 
-1.0654001e-06 -1.1270704e-06 1.7349316e-06 
9.3295631e-07 2.0505072e-07 -1.5021690e-06 
5.3145146e-07 1.2672841e-06 -5.0605413e-06 
7.5167208e-08 -2.9018947e-08 1.8893412e-07 
-2.0407791e-07 1.6747771e-07 1.8181404e-06 
2.3564414e-07 -6.9399886e-07 2.8207629e-07 
-1.2330220e-07 -4.7603194e-08 -1.9791966e-07 
-3.5988066e-07 8.9585370e-07 3.7698753e-06 
-7.3342085e-07 5.2946049e-08 8.8426833e-07 
2.2989842e-07 4.1972558e-07 1.3213179e-06 
-5.8302089e-07 -4.5946470e-07 -1.1339024e-06 
8.7729074e-07 6.8072069e-07 -3.6783165e-06 
-6.9625585e-08 -6.3422908e-07 4.9638666e-06 
5.6229578e-07 1.3811750e-06 -1.4459499e-06 
-1.0397168e-06 -1.4958752e-06 6.2295699e-06 
-2.6854821e-07 -3.7061064e-08 4.5148981e-06 
-1.0663138e-07 -4.9956444e-08 -3.0127313e-07 
-8.1061518e-07 -3.1362933e-07 -2.7930123e-06 
6.9560770e-07 6.6391448e-07 -2.2654599e-06 
-5.1970471e-07 1.3149214e-07 -3.0038038e-06 
6.5193592e-07 1.5233665e-08 1.5734946e-06 
1.4518824e-07 -7.7355480e-07 -2.5873151e-06 
7.9004985e-07 5.5164543e-07 -3.4749539e-06 
1.1682435e-07 -1.2638770e-07 6.8416699e-07 
1.1596288e-07 -3.2225731e-08 -4.2233461e-07 
7.9112397e-07 8.8451196e-07 -4.5639326e-06 
-4.8868719e-07 -6.3850223e-07 9.6117355e-07 
5.9531231e-07 1.1903091e-06 -4.4025009e-07 
-6.1707038e-07 -2.4844334e-07 -1.8493182e-07 
-1.2622318e-07 -4.1884499e-07 1.0701492e-06 
-9.5462227e-08 1.9061543e-08 -1.9744402e-06 
2.0406442e-07 6.2829793e-07 -7.1584003e-07 
-2.8873797e-07 -5.4358611e-07 1.6626540e-06 
2.2472580e-07 2.8077957e-07 3.5079659e-06 
5.4837017e-08 -3.1349060e-07 -1.6839350e-07 
-4.2894067e-07 2.7802903e-07 2.8120969e-06 
1.5139354e-07 4.4713258e-07 1.6000633e-06 
2.7823032e-07 -3.5502076e-08 1.4211347e-06 
3.3383621e-08 1.1185627e-07 3.6769927e-07 
-6.1207481e-07 1.4814678e-07 -8.8153973e-07 
4.4324281e-08 -9.8943758e-08 -1.3451496e-07 
-3.5886197e-07 5.6809387e-07 4.1361095e-06 
-2.3071817e-07 -5.4885641e-07 -2.0175630e-06 
1.6388839e-07 -1.0681397e-07 -2.4583414e-06 
-1.7532025e-07 3.1375805e-07 2.8337539e-07 
-4.4714176e-07 -1.0129764e-06 -4.3420896e-06 
1.1042524e-06 4.7858896e-07 2.7267317e-06 
1.8581915e-08 -6.1703915e-08 9.0852348e-07 
3.2529050e-07 8.5685559e-07 -4.1904200e-06 
-4.8896885e-07 -8.4279202e-07 2.8863585e-06 
4.6773616e-07 1.4078934e-07 -2.3877201e-06 
-3.4327584e-08 -3.6214485e-07 -1.4591686e-07 
-8.0541702e-07 -4.1799143e-07 7.4210703e-07 
1.6067170e-07 1.7231936e-07 -2.6196571e-07 
8.1274777e-08 -7.1081791e-07 -1.1895689e-06 
-2.2294980e-08 1.6270601e-08 4.1989060e-07 
-7.1218764e-08 -1.4537931e-08 -1.6826334e-07 
8.5052534e-07 9.3308142e-07 3.7128657e-06 
-1.1285887e-06 -5.3371355e-07 -1.5422132e-06 
2.1184650e-07 1.3874880e-07 2.0097159e-06 
-6.8461065e-07 -9.8369208e-07 -2.4605588e-06 
1.5260613e-07 -2.9649408e-07 -1.2124259e-06 
3.1367840e-08 -4.5821406e-07 -9.6467625e-07 
3.3642715e-07 6.4243494e-07 -9.8717362e-07 
-1.0471130e-07 -1.5937290e-07 -1.1768740e-06 
2.8939019e-07 -7.4112265e-08 -6.4257250e-07 
2.2753750e-07 -7.0150475e-07 1.1714887e-06 
1.6730979e-07 2.3082949e-07 1.1732784e-06 
1.5040325e-07 4.2518934e-08 -2.7565105e-07 
-7.4301191e-08 -1.4023917e-07 3.5969749e-06 
-8.1291483e-07 -2.7030310e-07 -1.3448384e-06 
5.2326598e-08 1.4554728e-06 3.5816618e-06 
-1.3492536e-07 -1.6619387e-07 3.2733288e-07 
-3.9007395e-07 -1.0401890e-06 -4.1230255e-06 
2.6282572e-07 9.1680000e-08 1.1951997e-06 
2.2283091e-07 -6.3379804e-07 7.9616473e-07 
-1.9382854e-07 5.8937093e-08 -5.7038181e-07 
-4.9217721e-07 4.0525796e-07 6.5699430e-07 
-6.3959341e-08 1.9761734e-07 -4.2003562e-06 
-3.7196534e-07 -3.0354695e-07 4.4305734e-06 
-8.9965511e-09 -3.8403243e-07 1.5459992e-07 
-8.0036529e-07 3.2212876e-07 -7.8901521e-06 
1.7237558e-07 9.9299179e-08 3.7040292e-07 
7.2085515e-09 -2.8922210e-07 2.4865062e-06 
4.0919693e-07 3.4354872e-07 -6.9541284e-07 
1.3062952e-06 -1.4479852e-07 5.9326167e-06 
6.9736683e-07 -8.3781828e-07 5.3797748e-07 
-3.3734402e-08 8.1152592e-08 -6.9055879e-08 
-4.4202056e-07 -1.9279931e-07 6.7407655e-08 
-3.1905077e-07 1.1562877e-06 -6.8730407e-07 
-9.5450226e-09 -8.4945164e-08 1.0676769e-07 
-1.2888195e-07 7.4582846e-07 -2.4289916e-06 
-3.2770808e-07 -1.7929461e-08 -2.3394209e-07 
2.3521841e-07 1.2272969e-06 -2.0254149e-06 
7.0035543e-07 -1.3824014e-06 8.8053366e-06 
9.4239233e-08 1.0616360e-07 2.2479887e-07 
1.4489268e-07 -8.7436298e-08 -6.5680210e-06 
6.6034073e-07 6.2835733e-07 7.3088422e-06 
-7.6587241e-07 -4.0704927e-07 2.8003076e-06 
-5.5981769e-07 1.4240426e-06 -4.2174829e-06 
4.2569226e-08 4.4202107e-08 -1.4716339e-07 
7.4766018e-07 8.8235635e-07 4.5910156e-06 
3.8985593e-08 -1.0374913e-06 -2.0727430e-06 
-5.5707960e-07 6.9268076e-08 -2.3831471e-06 
-1.4326920e-06 -3.6296439e-07 -2.5492379e-06 
2.8610276e-07 -1.1533559e-06 -1.2798467e-06 
1.7181553e-07 2.0865831e-07 -1.1329853e-07 
-1.6324816e-07 -2.0735122e-07 -1.2094111e-07 
1.6025552e-07 3.0335352e-07 -3.5379536e-08 
1.0706333e-06 1.4331549e-07 -2.4967821e-06 
1.5530155e-08 -1.1800343e-07 4.8686076e-07 
-6.0289932e-07 -7.2823008e-07 -1.2382059e-06 
-4.0468052e-07 -2.5809615e-07 -2.0088901e-06 
-6.2240201e-07 -1.1380479e-07 -6.2635701e-07 
2.1495650e-07 1.7971435e-07 1.5133226e-06 
4.4184358e-07 -3.5437643e-07 2.6973846e-06 
7.2333449e-07 9.6181009e-07 5.1302377e-06 
-5.5706914e-07 -3.0980516e-07 -5.6664676e-06 
4.4862457e-08 2.3852610e-07 -2.0671821e-06 
8.6723546e-08 2.4289463e-07 -2.4982783e-06 
1.2273065e-07 1.7331903e-08 6.8960145e-07 
6.9445276e-09 3.5873879e-07 -1.2549543e-06 
1.6306886e-07 -3.6293335e-07 -2.2723602e-06 
2.2383931e-07 -2.9772590e-07 1.0232694e-06 
5.6911091e-07 -1.5042262e-07 1.6188908e-06 
2.0996364e-07 5.5464987e-08 1.4122984e-06 
3.0082283e-08 -2.1837266e-07 9.7850739e-07 
-3.8159410e-08 1.4841692e-08 -6.7379020e-08 
-4.0436856e-07 9.6657379e-07 -4.7301691e-07 
-1.6709427e-07 2.4794213e-07 -1.2698856e-06 
-4.5187073e-07 -3.2686845e-08 1.3571575e-06 
8.4940575e-07 3.2192725e-07 -2.5070808e-06 
-1.8885268e-07 -1.0139381e-06 6.0001771e-06 
2.0985695e-07 -2.4937350e-07 4.1127864e-06 
7.1862502e-08 4.6002933e-07 -1.2129786e-06 
-8.1444921e-07 -3.0693280e-07 1.4493299e-06 
-2.4298092e-07 -4.9627630e-07 4.7286039e-06 
2.2308483e-07 4.2474659e-07 -5.1924223e-07 
3.8050153e-08 7.7406867e-08 -3.4114505e-06 
-3.3430990e-07 -9.2415398e-08 5.3352818e-07 
6.8088745e-08 1.7631394e-06 -5.9206614e-06 
2.8228806e-07 -7.1322091e-08 -2.2892000e-07 
2.8119766e-07 2.3429346e-08 -1.8462073e-06 
5.3384508e-07 1.2796185e-07 -1.0056015e-06 
5.1206018e-07 -1.9859243e-07 1.3367792e-06 
-4.2897902e-08 -2.9818628e-07 3.4702334e-06 
4.8821641e-07 8.4910971e-07 -2.2129200e-06 
6.8498110e-08 -1.7299985e-07 -2.0985345e-08 
-6.8947983e-08 7.6055221e-07 -1.6325014e-06 
-9.6055578e-07 -3.6258695e-07 4.6933542e-06 
2.4779393e-07 -6.3039141e-07 -2.2974275e-06 
-4.3733490e-07 9.6301427e-08 6.7742951e-07 
-6.9849500e-07 -4.0092587e-07 -1.1499391e-06 
2.1598967e-07 5.6989705e-07 2.7197822e-07 
-6.9449607e-07 -1.0129082e-06 -1.5824736e-06 
-4.6227828e-07 -6.4008344e-07 5.6571675e-06 
-2.5274539e-07 1.0044658e-07 -3.0949966e-06 
3.7230043e-07 -3.3316173e-08 -5.1232558e-07 
1.9887989e-07 -1.4253174e-06 -1.9597223e-06 
-7.4518164e-07 5.3624427e-07 -3.7376553e-06 
1.8389566e-07 3.2768637e-07 3.0522997e-06 
1.2413986e-07 -1.2361750e-06 1.5272705e-06 
-1.0332890e-06 -2.3342039e-09 5.4391339e-06 
1.0566810e-06 2.5662982e-07 -5.1541110e-06 
2.8992494e-08 -3.1815556e-08 9.6594727e-07 
-8.9903388e-08 -1.1465180e-07 -3.4562660e-08 
-2.3743729e-07 1.2193990e-06 -3.6613159e-07 
-4.0827243e-07 2.1665862e-07 -3.4565129e-08 
9.9485669e-07 7.9734957e-07 3.5661183e-06 
2.0643400e-07 6.5811506e-08 2.6829691e-06 
7.8119928e-07 6.0756059e-07 2.1218843e-06 
-6.4260428e-07 -4.5805780e-07 -8.8396639e-08 
1.2056713e-06 -1.3122509e-06 -8.3767536e-06 
3.8973715e-07 -8.9279672e-07 7.2156608e-06 
1.2873305e-06 1.7622486e-06 1.4642457e-06 
1.8991619e-08 -2.6827061e-07 -7.4390177e-06 
5.8888799e-07 6.4239356e-07 5.6351764e-06 
-1.1388147e-07 3.7214374e-08 -1.1442743e-06 
-3.2925124e-07 -1.6936703e-07 -3.4703251e-06 
-6.8862158e-07 8.9729627e-07 -5.1709185e-06 
-3.1211562e-07 -7.8931015e-07 3.5289111e-06 
2.1010409e-07 -5.1056043e-07 -4.0666218e-06 
2.7135079e-07 1.9695973e-07 8.5680944e-07 
-8.8825072e-07 1.0353782e-06 -1.3056391e-06 
-3.0873019e-07 -2.9630584e-07 -1.2720078e-06 
-7.3435626e-07 1.5094369e-07 -1.7113891e-06 
9.7030693e-07 -1.1553124e-06 7.0921701e-06 
-9.8080056e-07 1.5022339e-06 -5.8305013e-06 
2.0786842e-07 -1.6218905e-07 1.6733840e-06 
-7.6633881e-07 -1.3277862e-06 7.8761627e-07 
6.2327751e-07 3.3318162e-07 5.0350286e-06 
-6.4409406e-08 7.8757097e-08 1.4925260e-07 
1.9324835e-07 -3.6343522e-07 5.6667654e-06 
-6.6350862e-07 3.7242563e-07 -6.7611541e-06 
1.1885633e-07 8.2368302e-07 6.3169005e-06 
-5.6454854e-07 -1.9102796e-08 -2.2923896e-06 
1.7748914e-06 7.7552912e-08 -3.9086585e-06 
-1.7206297e-07 -2.4355893e-07 -4.3421591e-07 
6.0872026e-08 3.5922267e-07 2.8952006e-06 
1.2262973e-06 5.7856101e-07 -3.4047646e-06 
-4.7994479e-07 1.3149442e-07 2.3274670e-06 
1.8072862e-07 6.2394207e-07 -5.3418979e-08 
-1.7541839e-07 -1.1447364e-06 -6.6205649e-07 
7.5494586e-07 4.9977069e-07 -6.5448339e-06 
-1.5477255e-07 -9.8732784e-08 -1.0224283e-06 
-2.9151644e-07 -7.2563367e-08 -3.3006334e-06 
8.9158146e-07 2.4591085e-07 -5.5500999e-07 
-1.2985016e-06 2.0784371e-07 2.7541316e-06 
-1.6518041e-07 -1.0131863e-06 -8.6162436e-07 
1.5204733e-07 1.9105056e-07 1.9083145e-06 
2.8824962e-07 2.9567130e-07 -1.7482539e-06 
1.0718657e-06 8.9068470e-07 6.1218802e-06 
1.6100996e-07 1.4115143e-07 -3.3141075e-07 
-1.1900954e-07 2.4054259e-07 6.5511915e-07 
4.5733304e-07 -4.9994782e-07 -5.6492831e-07 
1.0610434e-07 3.4118563e-07 -1.7663625e-06 
-8.6910472e-07 -6.5852373e-07 4.0802638e-06 
-7.4360253e-07 -3.2368334e-07 8.0672862e-07 
-3.7601134e-07 -9.7478835e-07 9.6241320e-07 
-1.8825969e-07 -7.5189810e-08 1.4856499e-06 
-7.6067039e-07 -1.1143135e-07 -5.0636650e-06 
4.0295279e-07 9.6635029e-07 5.9463032e-06 
3.1490308e-07 -4.3889744e-07 -6.4521413e-07 
-1.3421139e-07 -7.1808302e-07 -6.1059459e-06 
-5.1877402e-07 -6.9169801e-08 -2.2275935e-06 
1.0838417e-09 -3.9497866e-07 7.5052367e-06 
-5.1920978e-07 -5.0920238e-07 -2.5225438e-07 
8.4931560e-07 1.6180473e-07 4.8083461e-08 
6.5333317e-08 -4.0063227e-07 -1.3828286e-06 
-4.5046875e-07 2.5202775e-07 7.9111214e-07 
2.7381034e-07 1.4257457e-06 -6.4932351e-06 
-5.4416074e-07 -1.1686637e-06 5.2303772e-06 
-8.4324739e-07 -1.2643870e-08 2.4519488e-06 
-3.4458319e-07 5.5604295e-07 1.1537740e-06 
-1.2715245e-06 1.3206238e-06 -6.6372122e-06 
3.0082850e-07 4.4997373e-07 3.0793651e-06 
4.0988363e-07 -1.0954979e-06 -4.4273935e-07 
1.7632143e-06 -3.4968883e-09 4.7235917e-06 
-6.1576785e-08 -1.0306781e-07 2.2182653e-07 
-5.2395325e-07 -5.1429163e-07 -2.5158920e-06 
-2.5511679e-07 -6.3724269e-07 -1.9323350e-07 
2.5039557e-07 -2.4288838e-07 -1.2655815e-06 
3.8126933e-07 3.8032272e-07 -2.6344730e-06 
4.9307272e-07 5.5521923e-07 1.3477585e-06 
-5.0993992e-07 -5.2756798e-07 -2.7120916e-07 
-7.5620889e-08 -3.0718820e-07 9.9300522e-08 
-3.3946782e-07 -7.4331922e-07 -1.0713566e-06 
3.1534933e-07 1.0390660e-06 3.0789747e-06 
-7.1038306e-07 3.7314615e-07 1.4889695e-06 
1.0085012e-06 1.1943783e-07 6.4780747e-06 
7.5079350e-07 3.7986263e-07 -2.6266850e-06 
-3.3866723e-07 2.1621646e-07 -7.8509865e-06 
-3.5918029e-07 -5.8860786e-07 3.6816846e-06 
3.1489049e-07 1.0182848e-06 1.4506966e-06 
-1.9508560e-07 3.8070203e-07 1.1928806e-06 
-1.4681613e-07 -6.6490827e-07 -3.9241563e-06 
-2.5625664e-07 4.1548472e-07 6.8242315e-07 
-4.5164774e-07 3.5145817e-08 3.7094155e-06 
-1.1064812e-07 -2.1882020e-07 3.5711551e-07 
2.6161641e-07 -5.0777180e-07 -2.2885085e-06 
4.1477418e-07 -7.2730927e-07 -1.1438655e-06 
2.2925239e-07 1.8365826e-07 -3.7323819e-06 
5.1323832e-07 -1.2550743e-06 3.7272807e-06 
-1.0778870e-06 2.9166202e-07 -2.1527940e-06 
1.1811994e-07 -1.2477699e-07 4.5756142e-06 
3.2372438e-07 2.8691497e-07 7.5093638e-08 
1.9839237e-07 1.1190044e-07 -3.5331391e-06 
-5.2509529e-07 -5.3151592e-07 -3.6119629e-06 
9.2982823e-08 -1.8545754e-07 -7.1339662e-07 
-8.4389490e-07 2.9478610e-07 3.3923986e-06 
-3.4996921e-07 -4.6760368e-07 -1.2681951e-05 
-1.3433180e-07 2.7239233e-07 1.2130896e-05 
6.2913278e-07 -8.9438188e-08 -1.6774511e-06 
8.6932948e-07 -5.7928173e-07 -1.2986547e-07 
-6.8288571e-08 4.5296576e-07 -9.4528048e-07 
-3.9616643e-07 -1.2059196e-07 2.0011084e-06 
9.5218621e-07 1.3036407e-06 -1.2582739e-06 
7.5658920e-07 2.6243046e-07 -4.3481873e-06 
2.5698969e-07 7.1802496e-08 1.6222392e-06 
7.8507959e-08 3.9647188e-07 -1.1410102e-06 
-1.2383722e-06 -1.2211394e-06 8.6515947e-06 
-2.9240981e-08 1.4115606e-08 -1.1221759e-07 
-8.1195344e-07 2.1282396e-07 -3.2165854e-06 
-6.5255443e-07 -5.7080371e-07 -3.7414147e-06 
1.7564409e-07 -1.6139127e-07 3.6687419e-07 
-3.9775600e-07 -1.7001999e-07 1.8025349e-06 
3.5172295e-08 4.5790341e-07 -1.9078107e-06 
-1.9400446e-07 7.2673060e-08 1.7692460e-06 
3.4199445e-07 -4.8175139e-07 -3.6228241e-06 
1.7694987e-07 2.3720096e-07 1.0920216e-06 
-1.0491090e-07 -1.6918086e-07 2.4107133e-06 
3.1196515e-07 -2.9969414e-07 5.2470841e-06 
-7.4853506e-07 1.8648126e-07 4.6730656e-06 
-3.1376548e-08 1.5448826e-06 -7.1790923e-06 
-5.3147443e-07 9.6237741e-08 -2.3508562e-06 
1.4385727e-06 -1.7448599e-07 8.9315863e-06 
-4.1180505e-07 -1.3740242e-06 -5.4471398e-06 
-5.0408516e-07 -5.3056164e-07 -8.6388482e-06 
6.7397565e-07 1.0707071e-06 8.6348537e-06 
-4.3252836e-08 -3.0973598e-07 3.6460889e-07 
-4.8526414e-07 -2.5615341e-07 -7.7196337e-06 
-8.3203119e-08 -1.0533476e-09 -3.2779042e-07 
-7.2817437e-07 -1.1739954e-06 -7.4131941e-07 
8.7881500e-07 5.5134342e-07 2.4134019e-06 
9.3740846e-07 5.9548586e-07 6.2790878e-06 
-9.1136718e-07 -6.4355351e-07 -2.4485468e-07 
4.6697497e-07 1.0551367e-06 2.1866570e-06 
-5.8037722e-07 2.9601148e-07 -5.1434046e-07 
-4.7564619e-09 -1.1666683e-06 -2.1163828e-06 
1.1381504e-07 1.7676705e-07 -1.1011290e-07 
-1.1714189e-07 -2.1259163e-08 -1.5885041e-06 
-1.8891279e-07 1.3680711e-06 4.8908391e-06 
1.3295579e-07 5.3631578e-07 -6.1616938e-06 
-3.4476439e-08 3.8379480e-07 -2.8486095e-06 
-1.4056263e-07 -1.2311935e-07 -1.4670370e-06 
2.4002922e-08 6.2343088e-07 2.9188145e-06 
9.8896578e-07 -8.2775904e-07 2.3628290e-06 
4.6510723e-07 -2.7340516e-07 -5.0464319e-06 
2.3892613e-07 3.0333234e-07 1.9948153e-07 
6.3543428e-07 4.6778837e-07 3.4517529e-06 
5.8564034e-08 -9.2739739e-08 2.2228417e-07 
3.9274113e-07 3.2367112e-07 -1.3687154e-06 
-1.0214021e-06 -1.6962468e-06 -6.5242341e-07 
1.5352218e-06 2.6732533e-07 -2.0926336e-06 
3.6674564e-07 -6.7183385e-07 -4.0537525e-06 
-2.6790765e-06 -1.2364516e-06 -1.0501681e-05 
7.7011322e-07 -1.0653886e-06 8.6794007e-06 
4.8291817e-08 1.2794166e-06 4.7577751e-06 
-5.3197431e-07 -8.5060140e-07 -2.4900817e-06 
-2.4285342e-07 1.6955858e-07 -2.3386289e-07 
1.9369584e-07 -2.2045347e-07 2.5275424e-06 
-1.2384604e-07 -5.5302905e-07 -7.7786962e-07 
4.0798221e-07 8.5977092e-07 1.1347512e-06 
-1.2357225e-06 1.1863002e-08 8.6781656e-06 
-4.1216197e-07 -3.0143252e-07 2.5936502e-06 
-5.0021799e-07 2.6844771e-07 6.9214758e-07 
-1.7733015e-07 9.0254019e-08 -7.2221758e-07 
-7.2437928e-07 -4.8020445e-07 2.6502125e-06 
1.2084712e-07 7.0089374e-07 1.8455017e-06 
-3.1800852e-07 -1.1903218e-06 -8.5444999e-06 
1.4651935e-06 2.4941605e-07 7.2296330e-06 
4.3446640e-08 -4.9163926e-08 2.3935624e-07 
-2.4664675e-07 1.0224277e-06 -1.1440438e-06 
-3.0339990e-07 3.3526456e-07 8.9409059e-07 
4.7831456e-08 -6.3464563e-07 -3.8458506e-06 
2.2720243e-07 -4.2234132e-07 6.2280702e-07 
4.3023218e-07 9.5613814e-07 -1.3650390e-06 
-1.5744582e-06 -1.0804641e-06 -7.5002458e-06 
2.3990419e-06 7.7505933e-07 4.7454778e-06 
-1.0014357e-07 6.4531434e-07 5.0439671e-06 
-1.3015504e-07 3.0547139e-07 2.9376486e-07 
-1.0719846e-06 4.2397701e-08 -4.9144683e-06 
-4.3659054e-07 -9.9562840e-07 9.3745166e-07 
5.2634351e-07 7.9818214e-08 1.1529135e-06 
1.5636012e-06 1.1172069e-06 8.4608009e-06 
-1.3142677e-06 8.5847279e-07 -9.1958209e-06 
9.4409535e-07 8.3088202e-07 1.0394740e-06 
6.9435538e-07 6.5737567e-09 1.9105742e-07 
6.8437078e-09 -3.7773086e-07 -1.7027012e-06 
-2.8790990e-07 -3.5381262e-07 -5.5760376e-07 
7.4753075e-09 5.2414788e-07 2.1318608e-06 
-3.6504204e-07 1.3452641e-06 -1.0598536e-06 
9.2208984e-07 -1.1770245e-06 6.8077092e-08 
2.3259963e-07 -2.4838681e-07 -2.1838530e-06 
7.6418601e-08 -7.3248356e-07 -7.1926329e-06 
-5.6299729e-08 -8.9563576e-07 -1.4278860e-05 
-1.3770279e-08 -1.2871851e-07 -1.7838313e-07 
2.6554705e-08 -5.3889934e-08 -2.4953866e-07 
1.2443446e-06 3.6052674e-07 6.0034963e-06 
8.6742148e-08 -2.1967905e-07 -1.2411178e-06 
-1.7837003e-06 1.6037393e-07 1.3376530e-05 
4.4312077e-07 5.4632136e-07 -1.2419151e-06 
2.3903064e-07 -1.3646974e-06 -3.6043516e-06 
3.0764974e-07 2.4781551e-07 -1.5319707e-06 
-1.4818167e-07 -1.2525801e-07 -6.8897552e-06 
1.6375641e-07 1.8145529e-07 6.0566631e-06 
-2.0192324e-06 9.7131976e-07 1.0504989e-05 
-8.3449784e-08 -1.3567234e-06 -3.8815988e-06 
-7.4078201e-07 2.0962923e-07 3.8682588e-06 
2.7756843e-07 -2.8783950e-07 6.3133041e-07 
-9.6781309e-07 9.1334579e-07 2.9119494e-06 
-1.5917925e-07 5.3689496e-07 7.6553697e-06 
1.7881329e-06 2.2545171e-07 -3.0079477e-06 
1.9639858e-06 6.7182486e-07 -3.6104886e-06 
5.2170964e-07 -6.6029550e-08 -7.2135776e-07 
2.0531475e-08 3.5435466e-08 -1.0264420e-07 
2.2254621e-07 -2.1818529e-07 -5.2391655e-08 
-7.3835645e-07 -1.2246581e-06 -6.1641020e-07 
-3.4280956e-07 5.9391198e-07 5.3120666e-06 
-5.5378376e-07 -1.6398563e-07 -1.3925263e-06 
1.5720357e-06 1.1916618e-06 -1.1097010e-06 
1.0203107e-06 4.2992613e-07 -2.5074110e-06 
-2.4690715e-07 1.1563171e-06 2.8702914e-06 
-2.5218333e-07 -4.5727253e-07 -2.1375101e-06 
-6.8476919e-07 -6.5361917e-07 -1.0068934e-06 
-2.3540284e-07 1.8024203e-07 -2.2022878e-06 
3.1034827e-07 6.8436333e-07 2.5411096e-06 
-2.7343671e-07 1.1791687e-07 -4.6359659e-07 
1.4846535e-06 1.6118443e-06 6.0898815e-06 
-1.0399756e-06 -1.3811169e-06 -3.7489074e-06 
-2.7455444e-06 -2.1908279e-06 -5.4224711e-06 
-1.3302383e-08 -2.3270374e-07 -1.6124091e-06 
4.5216390e-07 -4.9756494e-08 -9.6694819e-08 
-2.1573146e-07 2.9534334e-07 2.8335347e-07 
5.7342351e-08 1.3805510e-06 2.9282794e-06 
1.5526399e-07 2.4841160e-07 -2.0675638e-07 
1.0740981e-06 -1.3026873e-06 -2.9795267e-06 
1.3163512e-06 -3.9258441e-07 -2.1359929e-06 
9.7152210e-08 -1.4862566e-07 -4.5535171e-07 
3.6645611e-07 -7.0217553e-08 1.5310196e-06 
-1.5304138e-06 6.2518080e-07 -3.8683415e-06 
-8.4220051e-07 -4.7181658e-07 -1.5886091e-06 
-6.3291793e-07 -1.2621342e-06 -1.3933307e-05 
-7.5673796e-07 1.1259761e-08 -3.7908995e-07 
6.8210517e-07 1.3857908e-06 1.3993229e-05 
1.6964871e-07 2.2806064e-07 3.1869743e-06 
2.3985075e-07 1.0215788e-06 6.6666221e-06 
-9.1433805e-08 4.1311543e-07 9.4847991e-08 
-5.5452503e-08 8.3995417e-07 3.7146770e-06 
-7.7327735e-07 -1.3753970e-06 -5.6974413e-06 
6.9313717e-07 5.9833354e-07 2.4401702e-06 
1.3325846e-06 -1.6452404e-06 1.0924234e-05 
-5.4295066e-07 -8.8358610e-07 4.3188678e-07 
-4.8679954e-07 1.0807931e-06 -4.9373180e-06 
5.0522875e-09 -7.5911565e-08 2.9206475e-07 
-2.4369163e-07 1.0855247e-07 -6.1561918e-06 
-1.6058979e-07 -2.3388185e-07 2.7893606e-07 
8.6758990e-07 8.9324928e-08 5.5333220e-07 
-6.1734767e-07 4.9020593e-07 -8.7610169e-06 
-1.8790433e-07 2.2868365e-07 -7.4719952e-07 
1.0793101e-06 7.9297749e-08 7.0433072e-07 
2.1336461e-08 5.4808373e-07 3.7654611e-06 
-5.1457585e-07 -1.1236071e-06 -3.7305135e-06 
3.3541377e-07 -9.0247033e-07 -3.7890351e-07 
9.6600047e-07 3.5578591e-07 2.9479027e-06 
-1.5487253e-06 5.8729751e-07 -6.7980363e-07 
7.8923773e-07 7.7723496e-07 -1.8519277e-06 
-1.8246432e-07 -3.4212815e-07 6.5873598e-07 
1.4158577e-07 8.4463966e-07 -3.3415704e-06 
6.2064407e-07 -5.1631048e-07 2.1180963e-08 
-6.1706726e-07 -8.3793090e-08 3.1113018e-07 
1.2905687e-07 9.1422878e-09 -3.2743998e-07 
2.7381429e-07 -4.9033713e-07 3.7690523e-08 
2.3515487e-07 2.6242514e-08 2.5747822e-06 
4.7397566e-09 -2.2212014e-07 6.6747002e-06 
4.7099914e-07 8.1452760e-07 1.7691623e-06 
-1.2065408e-06 -3.5864480e-07 -8.8683163e-07 
-2.6814732e-07 -9.8116504e-07 4.7986759e-06 
2.6118019e-07 4.7941961e-07 -5.7634736e-07 
7.2057489e-09 -3.5429792e-07 -3.0064976e-07 
-4.1440393e-07 -4.4536611e-07 2.0537120e-06 
-8.0409370e-07 -1.4106278e-06 3.3738031e-06 
1.2087740e-07 -9.6068661e-08 2.2992131e-06 
4.8676061e-08 3.7721526e-07 -1.1969352e-06 
-6.9520900e-07 1.1737415e-06 -4.4946466e-07 
1.0297213e-06 -4.5722706e-07 -2.2047591e-06 
-4.1121933e-07 -2.7420919e-07 -4.6217051e-06 
1.0351854e-07 6.0519795e-07 -2.6192761e-06 
2.6145899e-09 4.9595027e-08 -1.0944186e-07 
-1.0841993e-07 -4.7090765e-07 -7.2936000e-06 
2.0428719e-07 2.2603137e-08 -1.7590162e-06 
-6.4078705e-07 8.4909158e-07 1.4083053e-06 
2.8483333e-07 -2.4059861e-07 1.1704528e-06 
7.5304132e-07 1.0296864e-06 1.0658429e-06 
1.2084125e-07 -2.0181975e-08 -1.1811715e-06 
3.3735384e-07 -1.6336581e-06 -2.2077161e-06 
-1.2235694e-07 -7.4706793e-07 8.8547398e-07 
5.8801123e-07 8.3811813e-07 -1.8300617e-06 
-5.2443909e-07 -2.8004385e-07 -1.2620909e-06 
-1.0338206e-06 -2.1941865e-08 1.0145886e-06 
-5.5336457e-08 -9.1236240e-07 -1.9847414e-06 
6.7167821e-07 7.5719083e-07 1.0372145e-06 
-8.5234115e-07 6.1506813e-07 3.0471149e-06 
-5.9723237e-07 1.5343468e-07 3.0324816e-06 
3.0204140e-07 1.3397072e-07 -4.9560134e-07 
5.7428849e-07 1.0427069e-06 -2.5995741e-06 
-7.3007598e-08 1.0211507e-07 3.3915066e-07 
3.0797386e-07 3.3736950e-07 2.4419714e-06 
-2.2519120e-07 -6.3097195e-07 6.5382951e-06 
9.5606561e-07 -1.3738232e-07 -3.0706540e-06 
2.3798637e-07 1.1204717e-06 1.9842437e-06 
1.0209186e-07 1.9325249e-07 3.3725250e-08 
1.1523334e-06 -1.8302441e-07 3.2124867e-06 
4.7094551e-07 8.1492368e-07 -2.4151718e-06 
-6.1075008e-07 -4.2856357e-07 5.5450687e-06 
-1.0266707e-06 5.9424406e-07 -1.4657918e-06 
1.1590889e-06 -2.3059206e-06 -2.9786392e-07 
1.6292248e-07 2.1458457e-06 -4.3277355e-06 
-3.8692582e-07 -1.5308783e-06 2.1293415e-06 
5.6205351e-07 4.3712635e-07 -3.8440076e-06 
-6.1632647e-08 -1.6926292e-07 -1.3329785e-07 
-5.0859245e-07 -8.4478501e-07 2.2465570e-06 
2.7542171e-07 6.8661774e-07 -8.0125847e-06 
-1.1246658e-06 3.4194991e-07 -6.0607067e-06 
1.1024252e-07 2.3982306e-08 1.2321078e-06 
2.4206116e-07 -3.9764231e-08 1.0401641e-06 
-9.1094961e-08 -7.4234862e-07 -4.7118357e-07 
-1.0445492e-06 -8.2305326e-07 2.6896123e-06 
-6.2916791e-07 -4.0862906e-07 -5.7260690e-06 
4.1543466e-08 7.8862925e-09 3.6235112e-06 
5.9682912e-07 -1.1031226e-06 6.4849542e-06 
-4.0264442e-07 9.6969507e-07 4.5591960e-06 
6.2925955e-07 -3.8770559e-10 -4.7522808e-06 
-6.8927659e-07 2.0293940e-07 3.8991307e-06 
7.4053469e-07 1.5119292e-06 -7.4546318e-07 
2.8295688e-07 8.7729234e-07 -1.0201651e-06 
-2.7709564e-08 -1.0454534e-06 -8.3238000e-08 
8.3133479e-08 1.6573271e-07 -5.1684278e-08 
-5.2529930e-07 1.9484901e-07 -2.7799117e-06 
7.8813952e-07 -1.0446571e-06 -5.8011915e-07 
8.7550416e-07 1.3417205e-06 1.7897746e-06 
1.9295581e-07 3.5752191e-07 5.3450538e-07 
2.9186792e-08 1.3918211e-07 4.2934098e-06 
2.6616488e-07 6.2781339e-07 -4.3563796e-06 
2.8879674e-08 7.2894380e-08 -3.5370010e-06 
5.7349979e-07 9.3936694e-07 2.6408163e-06 
3.7075614e-07 -4.4320750e-08 3.6555036e-07 
-3.6015871e-07 1.3183371e-06 5.4685556e-06 
1.3934225e-06 -1.8992708e-07 -2.9741939e-06 
1.7056013e-06 1.7418311e-06 7.3263518e-06 
-9.5694111e-07 -2.0128218e-06 -3.6108243e-06 
-1.8899377e-06 7.8934499e-07 2.6295709e-06 
-5.7966119e-08 -1.2946066e-06 7.5167163e-06 
1.1333500e-06 1.2907639e-06 5.7686184e-06 
5.7919035e-08 2.3111976e-07 -1.3764020e-07 
-8.5689612e-07 -1.3384399e-06 -3.4769018e-06 
-6.2988437e-07 -9.1561088e-07 -3.1576944e-06 
-4.3355456e-07 1.9327719e-07 -4.0412905e-07 
-9.4640876e-07 1.9432514e-07 -7.3650522e-06 
-8.9366819e-07 -1.5207855e-06 -4.7146609e-06 
1.6981915e-06 1.7944025e-06 1.3197779e-05 
-1.4994046e-06 -2.7774458e-06 -1.2679995e-05 
1.7110409e-07 -9.3989479e-07 -6.3416801e-06 
-8.4633996e-07 -3.3627731e-07 2.8012344e-06 
-6.5870040e-07 1.0269857e-06 -4.4608496e-06 
-9.6766985e-07 -9.6573149e-07 -3.8906460e-06 
-5.0246814e-07 -4.4463872e-07 -6.1222602e-07 
1.3327575e-07 -8.5352482e-08 -9.0728446e-07 
-4.2272623e-07 -3.3088764e-07 2.0712112e-06 
2.0042474e-08 1.0357756e-07 1.6249134e-06 
1.3721059e-06 -8.9588593e-07 5.4338311e-06 
5.0271183e-07 -3.9125760e-07 9.2102900e-06 
-2.2704576e-07 -3.7168815e-07 1.1169595e-07 
6.3665141e-08 5.1515622e-07 -4.6958380e-06 
1.7836913e-07 1.1756545e-07 -9.7744226e-07 
-2.5421028e-07 -2.0476969e-07 -1.2354350e-06 
-9.7434088e-07 1.0245190e-06 -1.9267613e-06 
-1.3240019e-06 -1.7391524e-06 -6.1729756e-06 
1.3367724e-06 2.2201582e-06 -1.2887080e-08 
5.0122333e-07 1.3204891e-06 7.1818304e-06 
-3.9070436e-09 -3.9505431e-07 -1.9379700e-06 
8.6716534e-07 -7.1384250e-07 5.6191020e-06 
5.1418391e-07 8.5650822e-07 4.0393097e-06 
8.4087389e-07 -4.5654161e-07 -3.5845542e-06 
3.0244377e-07 6.9453023e-07 -1.5918662e-06 
-1.4979579e-06 5.5597633e-07 5.4367633e-06 
6.9514488e-07 7.0987886e-07 5.1381962e-06 
-7.8138299e-07 -2.5104436e-07 -4.7102030e-06 
1.1598505e-07 9.0190518e-08 -2.3266202e-07 
-4.4658523e-07 -7.9873087e-07 1.7968355e-06 
4.4692891e-07 6.5574892e-07 2.2839558e-06 
5.7128420e-07 -1.1613976e-06 -3.7342111e-06 
-3.1496802e-07 -1.2539422e-06 -5.8191091e-07 
5.6982083e-07 9.9807914e-07 -2.4240816e-07 
-5.8793283e-08 -4.9280385e-07 -4.8548166e-08 
-7.5566720e-07 -7.5269548e-07 -2.9356490e-06 
1.9475122e-07 8.3187541e-07 1.0340077e-06 
-1.0400755e-07 1.0032475e-06 -6.9526136e-06 
1.0945471e-06 -9.0398902e-07 -5.0178014e-06 
-7.9557310e-07 -6.6846354e-07 -3.4557161e-06 
8.7975792e-07 2.3065554e-06 5.3634703e-06 
-9.0671489e-07 -1.1514852e-06 -4.7963999e-06 
7.7497515e-07 8.6196047e-07 3.1655991e-06 
9.0494507e-07 1.3334668e-06 -2.6215439e-06 
-1.1825006e-08 -5.0865938e-09 -1.2518721e-07 
4.0281697e-07 -4.5922732e-07 1.7836879e-06 
7.3303238e-07 -1.5675541e-07 -2.4830535e-06 
-4.8927006e-07 -3.0983071e-07 1.3503055e-06 
-1.1937059e-06 -5.3820878e-07 4.9689447e-06 
6.6038143e-07 3.0509037e-07 2.4315746e-06 
-4.7817520e-07 -8.4949153e-07 -1.0326080e-06 
3.7789877e-07 6.8366734e-07 6.2027141e-07 
-1.6438035e-07 4.1807382e-08 1.6620393e-06 
1.7116858e-07 1.0559610e-08 5.0933164e-07 
-2.9745109e-07 -3.2253232e-07 4.9202561e-07 
-2.2319620e-07 4.9402269e-07 -1.3081811e-06 
-5.1904686e-07 -9.3837309e-07 -2.3674231e-07 
2.6407236e-07 4.5865727e-07 1.2274515e-06 
8.9727834e-08 8.7723720e-07 -8.7190620e-07 
-1.7439868e-07 -2.5697670e-07 -3.0401742e-07 
-4.9569380e-08 2.8350470e-08 9.1592788e-08 
-2.2915526e-07 -5.5380994e-08 1.0413378e-06 
5.6740106e-07 -5.1371114e-07 4.4437879e-06 
1.3517417e-08 -1.4364063e-07 -2.0655996e-06 
3.9340669e-08 -5.3335992e-07 -1.9990496e-06 
4.8929014e-08 2.4386782e-07 1.4085136e-06 
-1.7344382e-07 8.1135272e-07 -3.7586979e-06 
8.7259622e-08 1.2874891e-07 6.6359846e-08 
-6.9680821e-09 -2.8182291e-07 8.3448856e-07 
-3.3686609e-07 -4.2900684e-08 1.0514474e-06 
-2.9362445e-08 1.2597131e-07 -2.4046710e-06 
1.8748494e-08 -4.0987831e-07 4.9356004e-06 
2.1285639e-07 5.5250371e-07 2.3305705e-07 
-7.6054056e-07 -8.6589148e-07 -1.9806891e-06 
-2.0479057e-07 -6.3153647e-07 -4.0210389e-07 
1.4725039e-07 -8.3155228e-08 4.3437359e-07 
2.9986754e-07 3.8283537e-07 1.6997657e-07 
2.2964263e-08 -9.5560409e-08 -6.5512339e-08 
-3.1664146e-07 -6.6593259e-07 1.7719503e-06 
-5.3381683e-07 1.2094416e-06 6.8283362e-07 
1.4878773e-07 4.1064854e-07 1.0314798e-07 
-3.7154827e-08 -6.2856536e-08 -2.1639100e-06 
-2.9667214e-07 -5.0749918e-07 -3.3279225e-06 
1.8121047e-07 5.3269764e-07 2.7279930e-06 
-1.7116254e-07 -9.2642148e-07 1.1184803e-06 
3.0522756e-07 2.8171019e-07 -3.5124067e-06 
-4.6570314e-08 2.6213166e-07 -6.4592211e-07 
-2.8769986e-07 -8.3309629e-07 -3.0224337e-06 
4.0266323e-07 5.6879378e-07 3.6496531e-06 
-3.3119932e-08 -2.1812735e-07 2.4781907e-06 
2.3253452e-07 -5.9234067e-09 -1.4514295e-06 
3.6595118e-08 1.1101525e-07 6.2879813e-08 
1.3947802e-07 2.4619655e-07 -3.6200862e-07 
-8.8037453e-08 -1.0560086e-07 -4.3642245e-07 
5.2079105e-07 -7.8332562e-07 1.2568420e-07 
-3.8971294e-08 4.5573532e-07 8.8818661e-07 
2.1915798e-07 4.8362176e-07 2.1188227e-06 
-2.2626236e-07 -4.4170525e-07 -2.0442610e-06 
2.6208281e-07 8.5384164e-07 -1.0397800e-06 
-4.9545758e-07 -4.1610770e-07 1.6946922e-06 
5.5768743e-07 3.7579429e-07 3.3435555e-07 
-2.4909050e-07 -1.2680029e-07 2.0504149e-06 
-2.0226661e-08 -6.3037879e-07 -1.3387171e-06 
-4.0367232e-07 -7.3934922e-07 2.8636723e-06 
4.5157901e-07 9.1471668e-07 -2.1678161e-06 
-3.4372977e-08 2.7976162e-08 1.2535447e-06 
-5.4090361e-08 -1.0401406e-07 -4.3844462e-08 
-2.2081320e-08 5.6539966e-07 -1.9702939e-06 
3.3135152e-08 2.6004386e-07 -1.2862902e-06 
-1.3000322e-07 2.8141355e-07 3.8737252e-07 
-2.0538477e-07 -1.3667746e-07 4.7430424e-07 
-1.6956311e-07 -2.2363024e-07 -3.6717911e-06 
3.4448107e-07 1.0262451e-07 7.0400449e-07 
-4.7138400e-07 -6.9395645e-07 2.1321298e-06 
-1.7821417e-09 -2.6203719e-07 -2.9431333e-06 
2.1968168e-07 2.1935980e-07 2.6411433e-06 
2.6752591e-07 -2.2820362e-07 -1.6374096e-06 
2.9178665e-07 3.4179999e-07 4.2919430e-07 
-6.8219452e-07 -1.1325644e-07 1.0777070e-06 
-6.5790566e-08 2.0098165e-07 1.0739120e-06 
-2.9029092e-08 -8.8442377e-08 -2.7782510e-06 
4.8136755e-08 5.2791745e-07 1.1524280e-06 
3.4340897e-07 -3.3931545e-07 2.9167744e-08 
5.3937676e-08 7.5573041e-08 8.6858229e-08 
-2.5306804e-07 3.0292239e-07 5.8095986e-07 
-2.1128349e-07 1.6147833e-08 8.0036688e-07 
-5.6802145e-07 -6.6166115e-07 3.2219498e-06 
-1.1263677e-07 -5.9366766e-08 2.9129924e-06 
-3.7717875e-08 -2.5050106e-08 5.5435356e-07 
8.5870181e-07 1.9324663e-07 -3.6794713e-06 
-2.7556797e-07 -3.6548926e-07 -1.1283771e-06 
3.6444334e-07 8.0856603e-07 1.5946207e-06 
-4.6884932e-07 -8.2110228e-07 -1.5835436e-06 
-4.5929423e-07 -2.8593172e-07 9.9078164e-08 
2.4092961e-07 1.2548447e-08 -7.0217155e-08 
1.1612426e-06 -7.4092441e-07 -3.0491465e-06 
1.6049380e-08 8.8580968e-08 3.2865849e-08 
-1.7489279e-07 -5.8850684e-08 1.4323432e-06 
4.3470898e-08 2.4849962e-07 -4.3622896e-07 
-3.8217814e-07 -9.6397730e-07 1.1496147e-06 
-7.9633665e-08 -1.6542774e-07 -4.7077062e-08 
-4.8457468e-07 5.3491186e-07 -9.4478446e-07 
5.1630127e-07 8.5434453e-07 -6.8366950e-07 
8.3702798e-07 4.3340313e-07 -3.4140080e-06 
3.3326646e-07 3.8916497e-07 -2.7251506e-06 
-6.1246197e-07 2.7351487e-07 5.1607994e-06 
-5.4287280e-08 1.5183223e-07 -5.8256671e-08 
6.2806510e-07 1.9060339e-07 1.4559637e-06 
-5.1216824e-07 -8.4901126e-07 -5.8861310e-06 
4.0324821e-07 6.5156746e-07 5.4527641e-06 
9.8042186e-08 4.6464481e-07 3.3527135e-07 
2.8632607e-09 -7.0746177e-07 -2.1096798e-06 
-8.4685416e-07 4.8761945e-07 1.7554538e-06 
-3.7961405e-07 -7.9755500e-07 1.9778581e-06 
2.4426626e-07 -4.3653515e-07 -1.9407530e-06 
1.7224689e-07 -8.5688221e-08 1.7415833e-06 
-1.2946774e-07 6.6171276e-07 1.1819152e-07 
6.1235994e-08 1.0378724e-07 3.5037292e-08 
-3.5873938e-07 -8.7788618e-07 -1.1119719e-06 
-4.0381317e-07 -6.2719931e-07 1.5787670e-06 
-1.9169885e-07 -6.5888997e-08 1.3964124e-06 
-4.6705435e-07 -2.2927416e-07 4.8654994e-07 
1.8846233e-08 3.3416200e-07 -3.0788267e-06 
3.4013530e-07 -9.1501200e-08 -1.6261943e-06 
6.3211502e-08 -7.5410071e-08 -3.3706178e-07 
-8.9650563e-08 1.3862622e-07 -2.5171035e-08 
4.3891287e-08 -6.1617285e-08 -3.1648065e-07 
1.7310791e-07 2.6293324e-07 7.4253535e-07 
2.4639039e-08 -3.5909529e-09 -2.0188554e-06 
1.2769263e-07 -2.0159719e-07 -2.4007247e-07 
-3.4187406e-07 -7.6297823e-07 4.1456938e-06 
5.5068881e-08 5.7679138e-08 1.4643828e-06 
3.8105605e-07 9.4166808e-07 -3.7392613e-06 
-3.6876753e-07 -4.2519241e-07 3.3896447e-06 
2.2443503e-07 1.1169593e-07 -1.1922465e-06 
-4.2165183e-08 -3.8822098e-08 1.8036242e-07 
-2.4425324e-07 1.5405679e-07 6.1124967e-07 
-3.8278841e-07 1.1972629e-07 1.7194956e-06 
2.8358943e-07 -4.2162554e-08 4.9191834e-07 
5.2007931e-07 8.4874864e-07 -2.5034462e-06 
5.2409507e-07 1.0153531e-06 -2.7647266e-06 
-2.7244391e-07 -1.5230810e-06 2.2403540e-06 
-8.5175756e-08 7.3482624e-08 -4.7446670e-07 
2.5838028e-07 2.8693731e-07 -1.8767489e-06 
-1.8516113e-07 -8.8740069e-07 -3.7278377e-07 
-1.3640846e-07 -5.1876221e-08 1.9478821e-06 
-6.7252493e-08 -3.5406083e-07 -8.4552676e-07 
3.6160475e-07 4.9705200e-08 5.2757980e-07 
2.2104739e-07 5.4035149e-07 5.8060027e-07 
2.4621977e-07 1.0612599e-06 -6.2623734e-08 
-6.9015425e-07 -7.9957255e-07 7.5766360e-07 
-5.4325170e-07 -4.7015945e-07 -2.7060503e-06 
-4.8362159e-07 -1.4668080e-07 1.0347511e-06 
1.8958787e-07 6.3905674e-07 -2.9128480e-06 
4.8605466e-07 7.5798800e-07 6.8983587e-07 
4.6381572e-08 5.6046034e-08 -1.8099185e-07 
-3.6225870e-07 -2.0851523e-07 1.4509989e-06 
2.5106791e-08 7.8187287e-07 -1.4944872e-06 
-6.5753534e-07 -1.4304013e-06 5.2135224e-06 
8.1958427e-07 1.1847587e-06 -4.0967670e-06 
-3.2601278e-08 -4.4514326e-08 2.1579672e-06 
2.5341640e-07 -2.1631851e-07 4.9329884e-07 
-1.5134587e-07 1.8183119e-08 -6.5741705e-07 
5.6277898e-08 5.4896805e-07 -3.2094858e-06 
1.5625436e-07 -1.5365897e-08 9.0761580e-07 
-9.0473520e-08 -2.1642727e-07 -1.1693530e-06 
-1.0500883e-07 -8.1663791e-07 7.4525168e-08 
-3.8090715e-07 1.4884542e-07 3.8187667e-07 
-8.2551956e-08 -3.5446842e-08 -1.0775881e-06 
1.5265950e-07 -1.7959927e-07 2.0411060e-06 
5.2802005e-07 1.5236239e-07 1.6460330e-06 
-2.5236039e-07 -1.1738995e-07 -2.6035805e-06 
2.7638023e-07 -5.4611768e-09 -2.4638825e-07 
-6.0695618e-07 -4.0891808e-07 2.9828400e-06 
-8.1566242e-08 -8.0752656e-08 1.7334018e-07 
2.7492342e-07 -4.0335016e-07 -1.1549942e-06 
2.0176336e-07 9.3304271e-07 -8.5040796e-07 
-3.2024957e-07 -4.1226670e-08 3.2907812e-07 
6.6402680e-07 -2.8655160e-07 -4.5473648e-08 
-1.5971358e-07 2.4284944e-07 2.9745348e-07 
1.3864577e-07 3.0052246e-07 2.1090493e-06 
4.5872758e-07 7.0201885e-08 -1.5428690e-06 
-6.6008795e-07 -6.3514580e-07 -3.3487115e-06 
5.3805235e-07 6.9911465e-07 3.7443860e-06 
-8.5604853e-08 -7.5395354e-07 -7.3505026e-07 
-5.9402556e-08 -8.8770889e-08 -8.2901374e-07 
-3.3720784e-07 2.4279746e-07 -9.1639208e-07 
-2.2603872e-07 -1.1761389e-06 2.6203775e-06 
-8.5520395e-07 9.3648367e-07 3.6157073e-06 
4.3091967e-07 4.0026205e-07 8.6220251e-07 
1.1051577e-06 2.6412590e-07 -3.4553470e-06 
-9.9521299e-07 3.6752118e-07 8.1221174e-07 
1.7458596e-07 7.3648903e-07 3.8840008e-06 
6.3197234e-08 2.7867179e-08 -7.6066819e-08 
4.6174625e-07 5.4295418e-07 8.0196179e-07 
1.2980485e-07 -6.5755449e-07 -5.1802164e-07 
3.8168113e-07 3.7815404e-08 -6.4499695e-06 
1.9608173e-07 2.4733620e-07 2.9150078e-06 
-3.6968794e-07 -3.6057753e-07 -1.1775003e-06 
2.1468244e-07 -1.1735366e-07 -7.0516400e-08 
5.3553845e-07 4.8465182e-07 9.8839041e-07 
-3.4993994e-07 -6.9605574e-07 -1.7947151e-06 
2.5268864e-07 4.0205506e-07 -3.8621175e-07 
-2.9663218e-07 -3.9146826e-07 1.4777355e-07 
1.6949693e-07 8.2593380e-07 6.1811676e-07 
-6.4107816e-08 -1.5660986e-07 9.7790814e-07 
-6.5269830e-08 -2.9167452e-07 4.6900539e-07 
7.1262673e-07 -3.3616593e-07 1.8584271e-07 
1.1061874e-07 1.0780426e-06 -1.5166896e-06 
4.3718865e-07 1.2798822e-07 2.7175764e-07 
-5.9871957e-07 -3.2087644e-07 -3.9060589e-07 
-7.4456739e-07 6.6704985e-07 2.3659577e-06 
-2.5141935e-07 -3.3141615e-07 -1.3633734e-06 
3.6968788e-07 3.8179641e-07 2.0453008e-06 
-3.4414265e-07 -2.4832261e-07 8.1619697e-07 
-6.5690964e-09 -5.7341435e-08 -6.3575264e-08 
-4.1669946e-07 -3.4341036e-07 -9.0340086e-07 
5.5363387e-07 2.2892004e-07 -2.2197482e-06 
-1.5054066e-07 -5.1072098e-09 2.4017260e-07 
-1.3085187e-07 -1.8448350e-07 -8.8080645e-07 
6.3812649e-07 -6.4234996e-07 8.1951089e-07 
3.0200997e-08 5.9018035e-08 -1.2132089e-06 
3.2002713e-08 4.2301316e-08 -2.4684387e-06 
8.4877577e-08 3.0649733e-08 2.2900479e-06 
5.4323486e-08 -2.6273921e-07 -2.8037217e-08 
1.1004150e-06 1.4342841e-06 -4.5148927e-06 
-1.7467377e-07 3.4606742e-07 -1.4731191e-07 
1.8539950e-07 3.0666624e-07 -1.2223844e-06 
2.6902472e-07 -1.0477535e-06 3.7193686e-06 
-1.2600531e-06 -1.2700788e-06 3.1580421e-06 
3.1858201e-07 -7.8095098e-07 2.7656533e-06 
3.9345693e-08 5.4696403e-07 -3.3233644e-07 
-1.9226684e-07 -2.2879453e-07 4.2656364e-07 
4.3887812e-07 1.4838591e-07 -1.9729548e-06 
7.9449967e-07 5.6633678e-07 -1.8327642e-06 
2.0086610e-09 7.1577666e-10 1.5711719e-07 
-6.8443946e-08 1.6583860e-07 -6.5763163e-07 
-1.5202946e-07 8.1074819e-07 -1.6726858e-06 
-1.2672912e-06 -7.0091625e-07 1.6232026e-06 
4.7871646e-07 2.3881012e-07 -2.1933913e-06 
-4.9421448e-07 2.0106961e-07 -5.2243013e-06 
2.9256148e-08 -8.5823649e-07 2.7298750e-06 
-2.9002520e-09 2.7566639e-07 -1.5285706e-06 
-1.6847027e-07 -1.6850137e-07 1.4763280e-06 
2.4327015e-08 -2.6497975e-07 -7.8206995e-07 
2.3981104e-07 7.0865497e-08 1.0009222e-07 
-1.1805402e-07 -4.1548989e-07 5.9741942e-06 
-6.8059546e-07 -6.0850391e-07 1.8153390e-06 
-5.4356536e-07 9.2219932e-07 -6.0530106e-06 
5.9326015e-07 -8.4654243e-07 -2.0282507e-06 
-3.8104454e-07 -1.7511475e-07 -5.2128155e-07 
3.3757016e-07 3.2751117e-07 3.8125842e-07 
-3.3147114e-07 -4.8796704e-08 -1.6197171e-07 
1.1176101e-07 -2.8788531e-07 2.6209575e-06 
-5.2577286e-07 2.3518810e-07 3.4101554e-06 
7.4019127e-08 -1.2409399e-07 5.9050717e-07 
2.5821940e-08 1.4880271e-08 -8.6966324e-08 
-2.1465191e-07 5.7241039e-07 2.5887022e-07 
8.2730725e-07 4.6172644e-07 1.4783061e-06 
-4.7672145e-07 -3.0053036e-07 2.8772794e-07 
4.8123627e-07 -1.0815818e-07 3.1501411e-06 
5.0626873e-08 6.2056337e-08 -2.3066602e-07 
7.9105675e-08 -2.1950697e-07 -1.3517268e-07 
1.8689819e-07 -1.2817026e-07 -6.5636885e-07 
-3.3681545e-07 -3.7928718e-08 -1.3486431e-06 
6.1341262e-07 7.5734067e-07 -2.0238988e-06 
-5.1644656e-07 -3.8705028e-07 -2.5242293e-06 
2.4602468e-07 1.1629040e-06 -7.6476493e-07 
-3.9420897e-07 -2.0522457e-07 1.3142152e-06 
1.4969373e-07 4.5460564e-07 4.9665659e-06 
-1.1367089e-07 -2.7082103e-07 -3.5991687e-07 
-3.9852750e-08 -4.7961811e-07 -9.4682392e-08 
7.8740857e-07 3.8528142e-07 3.6257750e-06 
1.0644626e-07 -2.2184300e-07 -7.3521784e-07 
3.9685267e-07 2.4162557e-07 -1.5873261e-06 
-1.1763115e-08 7.9895521e-09 -7.9302089e-07 
-1.6300948e-08 1.7262709e-08 1.4841028e-07 
-3.1436363e-07 2.1146244e-07 1.5100984e-06 
7.8387927e-08 -6.0238563e-08 2.0753926e-06 
-1.2914941e-06 -1.8435118e-06 -2.1435210e-06 
8.5553938e-07 1.1788275e-06 -9.7400391e-07 
2.1285827e-07 2.6360516e-07 1.0173280e-06 
8.5178790e-08 2.2949477e-07 4.8773160e-07 
-2.4688103e-07 -4.7976727e-08 1.5337226e-07 
-1.4847886e-07 -9.7287182e-07 4.4586423e-07 
-7.5246061e-07 -6.4897807e-07 -3.3267483e-07 
-7.9078582e-08 4.3857560e-07 -1.7329133e-06 
-1.5650271e-07 9.4006850e-08 -2.6075536e-06 
4.1958376e-07 -1.2918032e-07 -3.3192823e-08 
-2.5815140e-07 4.0066683e-07 -4.5745668e-07 
-3.6685029e-07 -6.5884939e-07 -2.8208822e-07 
1.5847081e-07 7.0755988e-07 -8.3331878e-07 
-8.8395700e-07 -4.6613113e-07 2.3134514e-06 
1.1258718e-06 -1.1244028e-07 4.3741534e-06 
3.6312041e-08 2.7393684e-08 -2.6569739e-07 
4.8073986e-08 -2.4058227e-07 -6.0777129e-06 
-9.8942689e-07 -4.4798549e-07 -4.4841745e-06 
-2.1530596e-08 2.6156897e-08 6.5846461e-07 
1.6280052e-07 -4.5971768e-07 -2.1504121e-08 
3.9994131e-07 -1.8072745e-07 -1.2589409e-06 
-6.1444263e-07 2.8253800e-07 -1.2992806e-06 
2.2692899e-07 3.2767014e-07 2.4055146e-06 
5.8329584e-07 2.1543549e-07 8.0761703e-07 
1.4513276e-07 1.9228361e-08 -1.6265068e-07 
-1.5906724e-07 -1.0566624e-06 2.4005315e-06 
6.1839302e-07 7.3917573e-07 2.3685943e-06 
-7.5073882e-07 -5.0681855e-08 -3.5363978e-06 
4.8080841e-07 2.4553583e-07 4.7469989e-06 
-5.0585476e-07 -2.7684951e-07 -3.2527853e-06 
1.1762710e-07 3.7033783e-07 2.6094845e-06 
-5.4413812e-07 -3.8762042e-07 -6.0410912e-07 
2.5403210e-08 -7.9187757e-08 2.7290343e-06 
5.5608456e-07 4.6545736e-07 -3.5636754e-06 
2.5575599e-07 1.9195760e-07 1.3331835e-06 
-1.6689350e-07 -1.3292868e-07 -1.1408960e-06 
-2.1612635e-08 2.4231261e-08 6.5201277e-08 
1.7096565e-07 6.4576290e-07 3.4629134e-06 
-5.1335417e-07 2.5788376e-07 2.6412056e-06 
-5.3613366e-08 -4.5429992e-08 -8.8205866e-07 
-1.4983210e-07 -3.7442044e-07 -3.6812594e-06 
5.0377373e-08 8.0517572e-07 -2.1707649e-06 
-5.7810688e-08 -9.0014220e-07 -6.2475729e-06 
-3.3449317e-07 7.2391930e-07 3.1345023e-06 
4.6479826e-07 -5.2683993e-07 -2.1763958e-06 
5.6641346e-07 8.1058437e-07 2.0121036e-06 
-4.2606132e-07 -1.2340357e-07 4.3548585e-08 
3.3759000e-07 2.4696490e-07 -3.6925374e-07 
-2.6019168e-07 -2.0809372e-07 -3.9588781e-06 
1.0944612e-07 5.5669068e-07 -2.5401945e-07 
1.6400168e-07 -3.2589375e-07 4.6899694e-07 
-1.0127743e-07 -3.8537073e-07 2.8677590e-07 
7.0992411e-07 5.9535466e-07 2.6370442e-06 
5.7322114e-10 4.0921250e-08 -2.5574104e-07 
9.4259278e-08 -1.7754192e-07 2.4483550e-06 
-1.1140671e-07 -4.0037156e-07 -2.0151585e-06 
-1.2524721e-07 2.6895557e-07 4.9534506e-06 
3.8451706e-08 -7.7060498e-08 7.2990616e-07 
3.0920367e-07 -1.4439534e-07 -4.8540124e-07 
-8.2450867e-07 -4.8775155e-07 3.0949652e-06 
-2.7191518e-07 -2.3391432e-07 -3.9855587e-07 
5.2996540e-07 -5.1650642e-07 -1.0803683e-06 
1.7923847e-07 5.9368648e-09 9.7769146e-07 
-1.8738189e-07 -3.3756628e-08 1.3184092e-07 
-4.5075205e-07 6.2157682e-07 -3.8905746e-06 
-6.4420625e-08 -1.0777258e-07 3.6309933e-07 
-1.7740638e-07 -1.0305480e-07 -1.6918865e-06 
2.0927835e-07 3.1278731e-07 -3.4603872e-06 
1.4151216e-07 5.5539306e-07 2.2387943e-07 
5.2970199e-07 6.1945667e-07 -3.9022239e-06 
-4.5294768e-10 -2.5811499e-07 4.6245287e-07 
5.3320406e-07 5.2288635e-07 -3.0165171e-07 
7.9753801e-07 2.3677768e-07 3.9226188e-06 
-2.3150777e-07 -2.6898135e-07 1.3167897e-06 
1.4284833e-06 5.3564224e-07 -2.0762166e-06 
1.0427087e-07 -1.4913279e-07 1.7189473e-07 
6.9755913e-08 -2.8638333e-08 5.8088960e-07 
1.7431331e-07 4.1863228e-07 -3.3573230e-07 
-2.8799712e-07 -2.4065673e-07 6.6980181e-07 
4.8901200e-08 4.3432379e-07 -2.7921551e-06 
-3.6994689e-07 -6.0972269e-07 -1.5469396e-06 
-8.5531792e-07 -8.4422157e-07 3.9089605e-06 
-2.8316001e-07 -2.2650350e-07 -5.2136338e-06 
2.4690473e-07 5.8840095e-07 4.4259391e-06 
-9.3417924e-07 -7.7615390e-08 4.6520508e-06 
6.9669319e-08 -5.0871273e-07 -2.4208939e-06 
4.1762371e-07 2.0237226e-07 2.4928540e-06 
-2.6735700e-07 8.4952381e-07 -4.4330027e-06 
5.2879813e-08 1.8970879e-07 2.3916748e-06 
6.2602089e-07 1.2775303e-06 7.0859792e-06 
-1.7354247e-07 -8.3732738e-07 -4.2355250e-06 
2.1095217e-07 -4.2025505e-07 -5.4287671e-07 
1.0196961e-07 7.4145781e-08 -5.7246507e-07 
6.7353916e-08 1.5136624e-07 -5.4559194e-08 
7.8784450e-07 7.7696063e-07 2.2980948e-06 
-7.1605321e-08 3.7853619e-07 -1.3003105e-07 
3.0766830e-07 -1.2156313e-06 3.3739684e-06 
-9.2736110e-07 3.6853820e-07 1.0810405e-06 
-2.0570776e-07 2.5862923e-07 -9.6083355e-08 
-9.0812449e-07 -6.0555078e-07 2.1820179e-07 
3.6968308e-07 3.0932148e-07 2.0360233e-06 
-2.0617094e-07 -2.6481595e-07 -1.8399280e-06 
2.2700578e-07 -1.1619115e-06 -3.6891511e-06 
4.1939494e-08 -3.3491879e-08 -2.6224532e-07 
6.1394064e-07 -3.0167806e-07 -1.1809682e-07 
-1.0263541e-06 -1.6600666e-07 -3.1259460e-06 
-9.1092453e-08 9.5664980e-08 -1.5764014e-06 
1.0578670e-07 8.5472487e-07 1.2277413e-06 
-3.2546282e-07 -2.7789272e-07 -1.5627073e-06 
-5.8281256e-07 -1.1516244e-06 -1.8484114e-06 
-4.8095666e-07 -3.0186857e-07 7.3343165e-07 
4.5966908e-07 8.4861654e-07 -2.2425891e-06 
3.1055901e-08 -3.1869470e-07 -2.5528271e-07 
-3.6971240e-08 -3.3929406e-09 -2.5129001e-08 
3.5783852e-08 -5.7142671e-07 2.0796533e-06 
2.2110481e-07 -1.0310405e-07 -3.5224621e-06 
1.0182908e-07 -4.3978151e-08 9.9289980e-07 
1.5602748e-07 7.5193623e-07 3.7569337e-06 
7.4816505e-08 -2.1465040e-08 -2.0170944e-08 
1.3117329e-07 2.8106595e-07 8.4761660e-07 
5.4878143e-08 -1.2522867e-07 -1.2015978e-08 
2.1204973e-07 -9.1226173e-07 -3.8992852e-07 
-4.0599298e-07 -4.0149277e-07 3.6919553e-07 
2.0891234e-07 5.8045975e-07 -2.1417847e-08 
-3.8783068e-07 2.8844086e-08 -1.2596274e-06 
-9.9793192e-07 6.7076621e-07 -4.8571252e-07 
-9.7558740e-08 8.8749005e-08 1.0961455e-06 
6.4269830e-07 1.6127871e-08 2.0735631e-06 
-2.3573384e-07 -6.5985648e-07 3.2716616e-06 
1.2170578e-07 -2.9613520e-07 1.9032044e-06 
2.1873912e-08 -4.3641421e-07 3.7729973e-07 
-2.5719282e-07 4.6980837e-08 -1.2121819e-06 
-1.9699891e-07 -4.2129811e-10 2.9840339e-06 
-3.8026435e-08 1.7926824e-07 -9.1024759e-07 
1.8551408e-08 4.4138229e-08 -4.1943895e-08 
1.2578116e-07 1.6340007e-07 -4.2033119e-07 
2.7406088e-07 -1.3121850e-06 -5.3279473e-06 
-4.8423772e-07 -3.3406326e-07 1.3107882e-06 
2.1290653e-07 1.9342906e-07 1.2967309e-06 
3.8909877e-07 3.9814677e-07 -1.5219381e-06 
-7.7408833e-07 -1.0502146e-06 4.9399332e-06 
-2.2165720e-07 -6.2391558e-07 1.9875042e-06 
1.6292823e-07 4.2360566e-07 -1.7804219e-06 
-2.1742430e-07 4.6766829e-07 -2.9438695e-06 
6.1939829e-08 8.9601180e-08 -1.5978405e-07 
1.0730714e-07 -1.5599340e-07 -1.5628574e-07 
-4.1702214e-07 -4.0399760e-07 -1.2052114e-06 
-5.0640244e-07 2.3277178e-07 2.7778897e-06 
1.6628680e-07 3.6883586e-07 2.2300412e-06 
1.3670743e-07 -4.5683471e-08 1.3580679e-06 
1.4449340e-07 -2.7653306e-07 -5.9259611e-07 
-4.6496470e-07 7.4647426e-07 -2.8310139e-06 
-9.6896159e-08 -3.4015014e-07 -5.2838362e-07 
5.2881245e-07 4.3324636e-08 1.7599124e-06 
9.5873406e-07 1.3586459e-06 -4.0089458e-06 
3.2981723e-07 5.4302994e-08 -1.5756686e-06 
-5.4634489e-07 1.4455404e-07 2.0339780e-06 
1.9397324e-07 1.7753226e-07 -1.7341738e-06 
3.0116490e-07 -1.2545991e-07 -2.9043863e-06 
-1.0011280e-07 -1.0432534e-07 -1.0266385e-07 
7.9832012e-07 8.1898241e-07 2.4886460e-06 
3.1973622e-07 3.8218681e-07 2.1131510e-07 
-2.5698540e-07 3.0911139e-07 -1.4154098e-06 
5.1672191e-07 3.3473637e-07 -1.7905336e-06 
-7.7680085e-08 4.7230259e-07 -1.6656596e-06 
3.5844047e-07 4.0353754e-07 -2.5280372e-06 
-2.0868643e-07 -5.0199912e-07 3.1649467e-06 
1.7567903e-07 -1.8279884e-07 3.5534836e-07 
-7.5730810e-07 -5.3378352e-07 2.4569276e-06 
1.4332715e-08 -6.5939332e-08 1.0044668e-06 
8.4763718e-07 3.6256887e-07 -1.6430633e-08 
2.0108936e-07 -2.1094773e-07 -2.9336067e-07 
-3.8988210e-07 2.0679991e-08 1.5058705e-06 
4.4643848e-08 1.1902917e-07 -2.9779937e-06 
3.7468002e-08 -4.1638793e-07 9.4838657e-07 
-2.5698637e-07 -3.0057393e-08 -1.1366766e-06 
1.8899047e-07 4.0876193e-07 -2.2493805e-06 
5.7955711e-09 -1.2137195e-07 -4.6550920e-07 
-1.7955762e-07 -5.6034541e-08 1.3230879e-06 
1.7735562e-07 -1.4290618e-08 -1.2534840e-06 
1.1405064e-07 7.0249662e-08 -9.8609583e-08 
-4.8502835e-07 -8.7008702e-09 1.8258376e-06 
3.1285842e-07 -7.0977256e-07 -3.2583509e-06 
-5.0073885e-07 4.7398467e-07 1.5515891e-06 
1.2938071e-06 1.1328088e-06 -4.5233387e-06 
-7.6867099e-09 -2.2410768e-07 1.3752796e-06 
2.0033518e-07 5.6499425e-07 3.7211466e-06 
-2.6651182e-07 -5.6846975e-08 5.5919725e-07 
2.8209544e-07 3.3234895e-07 -1.6878176e-06 
-3.7471415e-07 -2.7889232e-07 2.3598825e-06 
-3.4374452e-07 -3.1404230e-07 -3.2459877e-07 
3.0397064e-08 -1.4367414e-07 6.7266575e-07 
-1.0342678e-06 -5.5370100e-07 1.4958113e-06 
-2.9217372e-08 -1.0918307e-06 4.8692154e-06 
-5.2364197e-07 -4.1144901e-07 -6.5429026e-07 
4.3678131e-07 3.7719619e-07 8.0007129e-07 
-2.7447462e-07 -7.4296133e-07 6.3257687e-07 
8.4721769e-08 -4.2079790e-07 2.8896327e-06 
3.3513786e-07 -1.0790626e-06 -6.7767729e-07 
4.3154799e-07 -3.6468893e-07 -2.4671526e-06 
-7.7283737e-08 3.4168312e-07 -2.8939953e-06 
2.1553022e-07 7.7484231e-07 -1.2079556e-06 
-9.1102159e-08 9.1362189e-08 1.3459744e-07 
-5.1130375e-08 2.4383525e-08 2.9446548e-07 
3.8011674e-08 1.8204114e-06 2.7879130e-06 
-1.1792444e-06 -4.1312956e-07 7.9105339e-06 
7.0992695e-07 1.4915364e-07 -6.6064877e-07 
-3.6752178e-07 -1.0105190e-07 -1.0778660e-06 
-5.2119714e-07 -6.0147318e-07 1.2882749e-06 
6.7136375e-07 7.5386697e-07 1.7493954e-07 
-2.7376498e-07 7.9527092e-07 -5.7417406e-06 
1.2616766e-07 -3.9247965e-08 2.9680602e-06 
-9.2583996e-08 4.1866357e-08 -1.8196553e-06 
-7.0566261e-07 -9.0344122e-07 -6.9217926e-06 
2.1650141e-07 -2.6925474e-07 -2.6972162e-07 
-1.5933108e-07 -9.7125837e-07 -4.1512283e-07 
-5.6543973e-07 -2.6007015e-07 5.6247222e-07 
1.0592214e-07 3.7613410e-07 4.1824678e-06 
-1.1407986e-06 -4.8513482e-07 -4.2600473e-06 
7.6268742e-07 5.6648452e-07 -2.1654689e-06 
-8.0919527e-08 1.6938148e-07 -3.5278330e-07 
-9.7374300e-07 -9.9066460e-07 1.1022026e-06 
3.0453793e-07 2.2394894e-07 3.5446995e-08 
-9.6975562e-08 3.8026897e-07 -5.5579276e-06 
-1.6292532e-07 -5.3687529e-07 1.0337708e-06 
6.7459176e-08 1.4492299e-08 -2.7579549e-07 
5.1457073e-07 1.3343955e-06 4.5623560e-06 
3.5690758e-07 2.8539765e-07 5.9546710e-07 
4.7115364e-08 3.3109774e-07 -3.6912643e-06 
5.7304455e-08 -1.3133405e-07 -1.3427309e-07 
-6.2625418e-08 -9.0750447e-09 1.4500216e-06 
-3.2118103e-07 -5.1203068e-07 -6.8947992e-07 
1.3186310e-06 1.7816451e-06 2.2467411e-06 
1.9992964e-07 3.6823070e-07 2.9176472e-06 
-2.5965463e-07 -6.5278175e-07 -2.8311904e-06 
-1.9772550e-07 1.0002328e-07 6.2797102e-07 
-9.6059512e-07 -3.4481073e-07 -2.3708867e-06 
1.6746317e-06 -6.9619375e-07 4.2789052e-06 
6.7279342e-07 -2.9301242e-07 -6.4097310e-07 
2.5659419e-06 -9.7173177e-07 8.2783190e-06 
-3.6037457e-07 -3.9204002e-07 3.1638369e-06 
3.2423131e-07 -1.6544639e-07 1.1848155e-07 
-2.9779702e-07 -2.5115591e-07 1.4489585e-06 
-3.8201156e-07 6.3832084e-07 4.6988416e-06 
-2.0599845e-08 -1.2865370e-07 1.1721738e-06 
-3.0539118e-07 8.5654996e-08 -1.1381192e-06 
-1.6655705e-06 6.2602925e-07 -1.1452430e-05 
7.0653741e-08 -8.3364547e-08 4.5165595e-07 
-4.7210133e-08 -1.4174198e-07 -1.5916347e-10 
5.7425711e-07 5.5940416e-07 -9.6274255e-07 
-4.5330427e-07 3.7958662e-07 -1.7748698e-06 
-2.0764430e-06 -5.6020224e-07 -7.9443298e-06 
-2.1525550e-07 -2.7900518e-07 -2.0027678e-06 
-1.3145487e-07 -6.7028293e-07 -2.1573487e-06 
5.7943382e-08 2.2988428e-07 1.4526170e-06 
-1.7249528e-07 -1.2724904e-07 -7.5960179e-07 
5.1068866e-07 1.7441468e-07 -2.7231529e-06 
5.2289852e-07 2.3172728e-07 -2.2826744e-06 
-3.5308551e-07 -5.9100904e-07 2.5230793e-06 
-2.8917088e-07 2.2562229e-07 8.5420754e-07 
-6.6922553e-08 -6.6531669e-07 -2.2017914e-06 
-3.6410000e-07 6.4042354e-07 -4.0358412e-07 
-8.1608584e-07 -6.0286408e-07 -3.4339455e-06 
8.4489966e-07 1.3220250e-06 2.4910032e-06 
1.2928459e-06 1.1520552e-07 3.7331774e-06 
2.3172535e-07 -2.5315353e-07 4.9821369e-07 
-7.6949611e-08 1.0032030e-08 5.1028604e-08 
2.0576498e-07 3.2347376e-08 -1.4281314e-08 
-2.4995134e-07 8.0952717e-08 9.8129135e-07 
2.4621036e-07 -1.2710865e-07 6.4418151e-07 
6.7727706e-07 -1.2754212e-07 4.9360387e-06 
-9.9421143e-08 3.3910084e-07 1.7772331e-06 
-8.1561154e-07 5.8468174e-07 -7.2468829e-06 
1.7035394e-07 -1.0290533e-07 -1.8192728e-06 
-4.1500903e-07 -4.0162965e-07 4.8643579e-07 
-6.8665145e-07 8.8597903e-07 -3.1336265e-06 
-2.1464925e-07 -3.9903103e-08 -2.2756735e-06 
3.0062407e-07 -1.3196913e-07 -1.0120250e-06 
2.9270603e-07 5.4219817e-07 2.1164001e-06 
8.9524960e-08 -4.3102511e-07 5.2035712e-06 
5.1597021e-07 -1.4776101e-06 3.1633426e-06 
-8.7065580e-08 -7.1805815e-08 2.5524005e-07 
1.1388610e-06 -3.6141972e-07 4.5841030e-06 
3.3379795e-08 -2.8707646e-07 6.5494834e-07 
-4.3157934e-07 1.2099996e-07 1.5632063e-06 
-8.4922036e-08 3.5205238e-07 8.8345195e-07 
2.9895883e-08 6.7284191e-07 1.2625445e-06 
8.7605670e-08 -4.0784067e-07 3.1347213e-06 
2.3406095e-07 1.0829352e-07 3.5457515e-06 
1.2845607e-07 -2.1125462e-07 -3.8779967e-07 
6.2776643e-08 1.5079883e-07 -7.3899548e-07 
-2.3773985e-07 -7.4622841e-07 -1.3202572e-06 
-2.4547495e-07 5.0027370e-07 -2.6576720e-07 
2.8621039e-09 1.2388804e-07 4.3317030e-08 
2.3546332e-07 2.2203054e-07 -9.2551386e-07 
-7.8178249e-07 -8.1938799e-07 -3.3168553e-06 
-4.9734979e-07 -5.9724152e-07 -3.1721711e-06 
-6.2998294e-07 -5.5455547e-07 7.1924399e-07 
-2.5041598e-07 3.6096236e-07 -3.4473777e-07 
-3.3233455e-08 6.9491612e-09 -4.0228713e-07 
1.2956356e-07 -7.7649240e-08 1.9760121e-06 
-1.9163855e-07 -3.7519609e-08 -1.0022803e-06 
-1.1100253e-06 -9.9513045e-08 4.0901846e-06 
3.6663575e-08 -9.2239716e-08 -1.5168676e-07 
5.5781885e-07 1.3194989e-06 5.3062163e-06 
-4.1850305e-07 2.0927473e-07 1.0799910e-07 
1.1281894e-07 -4.8411380e-08 4.2062530e-07 
3.1106373e-07 -4.2479178e-07 -1.3509585e-07 
-3.2642765e-07 -3.6485844e-07 2.4305671e-06 
1.3188155e-06 4.7393175e-07 -5.6695985e-06 
3.2304939e-07 8.8748084e-07 -4.3076989e-06 
-4.2961727e-07 7.5026901e-07 -1.1629313e-06 
1.3039368e-08 -8.3154433e-08 -3.1183004e-07 
1.0462462e-08 -4.2838747e-07 1.1115230e-06 
2.7796884e-07 9.0663875e-08 -1.0653273e-06 
1.8820144e-07 -3.6874930e-08 2.4084218e-07 
-1.5540730e-06 -1.6213781e-06 1.7274939e-06 
1.7225982e-08 -2.9101668e-07 5.1049125e-07 
5.2976793e-07 2.9738243e-07 1.0385106e-07 
-1.8851527e-07 -5.1761070e-08 1.0324857e-06 
8.6840018e-08 -4.7857519e-08 -1.5049237e-06 
6.3354668e-07 2.6537836e-07 1.2735520e-06 
3.0753324e-07 4.9258045e-07 -1.5654310e-06 
-1.4686502e-08 -5.2609960e-07 9.6035001e-07 
8.6222407e-10 2.5333645e-07 -6.1890137e-07 
-2.2433276e-06 -1.6159329e-06 -5.5018891e-06 
1.4118295e-06 9.3681973e-07 -1.7255302e-06 
-6.8279218e-07 -4.2224627e-07 -5.0571418e-07 
5.9555293e-07 5.4860095e-07 -1.4163973e-07 
2.0767181e-06 1.4691760e-06 -6.9891480e-06 
5.7374653e-08 1.5079908e-07 1.2739355e-06 
-6.7548501e-07 -3.8268615e-07 1.9270321e-06 
6.6946086e-08 -5.9109844e-08 1.0299279e-07 
5.7499460e-07 3.4842009e-07 -3.0239605e-06 
5.5989841e-07 1.2145204e-06 2.3212838e-06 
-2.4771300e-08 -5.3515883e-08 3.8542905e-07 
-3.0061091e-07 -4.1445327e-07 -6.2353615e-07 
-4.4734722e-07 1.0152522e-07 -1.2347101e-09 
6.1292673e-07 -6.6201915e-07 -2.7731546e-06 
1.7507512e-07 -1.3089375e-07 -2.1841715e-06 
-1.1434126e-06 -1.1240757e-06 5.7859402e-06 
3.8795477e-08 2.1862668e-07 -9.7917086e-07 
-2.1605928e-07 2.9228272e-07 4.7667126e-07 
-3.0392977e-07 -3.8454263e-07 -2.8693707e-06 
7.0797103e-07 3.3259101e-07 2.3585485e-06 
2.0063379e-08 5.4752854e-07 1.9183233e-06 
-1.5975388e-07 -7.9296166e-07 2.8186755e-06 
1.5286990e-07 2.2536723e-07 7.7483952e-07 
-2.2486971e-07 2.0483370e-07 3.2460468e-06 
-2.3434188e-09 4.1820851e-07 -1.0155924e-06 
1.1317585e-07 1.0804046e-07 -1.7088050e-07 
3.2798599e-08 6.1238879e-08 7.0826826e-07 
-9.8851913e-08 -6.3463955e-07 -3.5691420e-07 
-2.9010468e-07 4.5543800e-07 2.4181691e-06 
1.3040211e-07 -2.6704350e-07 1.7561949e-06 
-1.1431323e-07 -2.0985762e-07 2.6979990e-07 
3.3375181e-07 4.8092261e-07 2.9713524e-06 
-2.0964946e-07 -2.3542202e-07 1.0410369e-05 
-5.5503153e-07 1.3693729e-06 -6.2133431e-06 
-2.6195774e-08 9.1046253e-08 -2.1354622e-07 
9.0902529e-07 -6.7019798e-08 -2.0545610e-06 
5.7065421e-07 1.6551641e-06 -1.3972309e-06 
2.4932152e-07 -2.9563213e-07 1.3621523e-06 
-3.6999094e-07 -1.5482817e-07 -2.7558988e-07 
1.2053310e-07 -1.0668655e-06 9.5596829e-07 
-1.3113591e-07 -1.7379315e-07 -5.1909751e-07 
2.8542939e-07 8.7300936e-07 -1.8274493e-06 
-1.7195768e-07 -5.1148356e-07 -2.8410850e-06 
-1.6298027e-07 -1.6744295e-07 -6.8774375e-07 
1.0240919e-07 -1.0036685e-07 -1.4251975e-06 
9.1669229e-08 -2.5902571e-08 -8.7429271e-07 
-3.6979537e-07 5.3565810e-07 -2.9995772e-06 
-3.1902772e-07 -3.1550800e-07 -3.3219908e-07 
-1.3070772e-07 -4.4851416e-07 5.2624847e-07 
6.3286711e-07 3.9132576e-07 2.1982574e-07 
1.9084304e-07 2.6359169e-07 -1.5801205e-06 
5.2343808e-07 1.0713318e-07 -3.7013692e-06 
1.0583839e-06 -1.0496474e-06 -7.3440392e-06 
-3.8228745e-07 -4.8838086e-07 -2.7459278e-06 
-4.6481219e-07 -6.7987946e-07 3.5372288e-06 
-1.9489430e-07 -1.0850463e-06 2.8761605e-07 
-1.0365864e-07 2.6925017e-07 2.6327273e-06 
6.8301006e-07 2.5735454e-07 -2.3033942e-06 
-3.2574357e-07 -4.6977314e-07 -1.8297873e-06 
1.7887226e-08 3.6142538e-07 -9.8270050e-07 
3.3528398e-08 2.8434606e-08 1.7771893e-07 
-1.2354837e-08 -5.2701142e-07 1.3674369e-06 
-4.1988123e-08 8.8972271e-08 1.7021069e-06 
-2.4593874e-07 1.1370203e-07 3.5017988e-06 
-1.3066273e-06 2.4608951e-06 7.0765454e-06 
3.7887870e-07 8.4166044e-07 -1.9075571e-06 
1.6769526e-07 2.7998770e-08 -1.7995569e-07 
1.8596950e-08 1.5577680e-08 6.8144590e-07 
2.0448803e-07 5.3836385e-07 1.7582506e-06 
-5.5253344e-07 -6.0924538e-07 -1.4957468e-06 
4.7023906e-07 -9.2951510e-08 -7.2781563e-07 
1.6232902e-07 -1.4329953e-08 7.8131086e-07 
6.8962487e-07 8.9848174e-07 6.3608090e-06 
3.1182537e-08 -4.5905654e-08 8.0135379e-07 
-1.0861692e-07 -8.1941756e-08 -4.5919535e-07 
2.6627887e-07 -8.3848761e-07 -8.0568448e-08 
1.3571871e-06 -5.5848346e-08 -6.0027937e-06 
-2.9066965e-07 4.2562712e-07 -1.9293841e-06 
1.0557599e-07 6.8635337e-08 1.1450110e-06 
-2.6853539e-07 -2.6635064e-07 7.4538059e-07 
9.4654141e-08 9.9862621e-07 5.6381390e-07 
-8.2821475e-07 -9.3446226e-07 -4.4603360e-07 
-1.0946401e-07 6.4628790e-07 1.7888924e-06 
-2.7832081e-07 -1.4373249e-07 3.3241695e-06 
-4.1433609e-08 -1.2506521e-07 1.5532537e-09 
3.2901298e-08 4.3633645e-07 -9.9661190e-07 
-2.4690945e-07 -1.4462805e-07 5.3256861e-07 
1.8934998e-07 -5.2434211e-07 -1.0240534e-06 
1.2243240e-06 -3.0397300e-07 -5.1277061e-06 
-7.0184916e-07 -6.4201453e-07 8.2935986e-07 
4.5921306e-07 -1.1477636e-06 4.1101794e-06 
9.6269162e-08 -1.0267253e-07 -9.5356739e-07 
-4.9845517e-07 5.4337335e-07 4.9793716e-06 
-4.9924086e-08 9.5016375e-08 -3.0375134e-06 
1.4707649e-07 7.3922229e-07 1.7153526e-06 
-2.0150658e-07 -1.2929472e-07 2.5464690e-06 
6.7155298e-08 -1.8142370e-07 -1.4559788e-06 
9.8227481e-08 3.2670499e-07 -4.5494002e-07 
-8.1222623e-07 1.0262185e-06 6.5570971e-06 
-1.6107293e-07 7.6422715e-08 -2.9748360e-06 
-1.5924952e-07 8.2079893e-08 2.3655016e-07 
7.8478212e-07 5.2116116e-07 -1.1197105e-06 
-2.1659852e-07 2.5148816e-09 1.3858347e-07 
-2.9148339e-07 -1.0546646e-07 1.7845885e-09 
3.2264523e-08 -6.1199181e-08 -1.1516445e-06 
-1.3688226e-08 -4.0205956e-07 -3.3626375e-06 
1.0482051e-07 5.8923430e-08 -5.4949567e-08 
2.4018644e-07 -6.7557568e-07 -2.1747542e-06 
-2.4643322e-07 2.5946804e-07 -3.9008796e-07 
-4.9713627e-08 -2.5168208e-07 -1.0892207e-06 
3.7591764e-07 5.1364827e-07 -1.6420697e-06 
-3.9244730e-07 -1.2029587e-07 4.9030820e-07 
2.3104730e-07 -1.4721372e-06 1.7974888e-06 
-9.7664284e-08 -5.4941097e-07 -5.2371234e-07 
2.2615394e-07 9.0601321e-07 -7.0011066e-07 
1.2200871e-06 -5.0379890e-07 -1.6174063e-06 
-1.2203040e-07 3.3623732e-07 -7.8786582e-07 
1.0108304e-07 -1.9563075e-07 5.1315692e-07 
9.7447952e-08 -1.0397435e-07 1.7054914e-06 
-7.7781147e-07 4.6237585e-07 3.3251347e-06 
-2.0746239e-08 1.2052831e-06 3.8362930e-07 
-2.9749702e-07 -2.6899727e-07 1.1369268e-06 
-1.7916545e-08 -4.1066107e-07 -5.9799606e-07 
7.4673807e-08 -9.4960065e-08 -1.5420742e-06 
-1.1964538e-07 -7.1245125e-07 -5.6925251e-06 
-4.2311436e-07 -6.1763893e-07 -1.5217814e-06 
-8.0023722e-07 2.8077551e-07 2.4421633e-06 
7.1866350e-07 -5.4630016e-07 -3.4430873e-06 
5.6617336e-07 9.1734000e-07 2.1982714e-06 
-3.8781482e-07 1.2492407e-07 1.5510241e-06 
3.7613520e-07 1.9496392e-07 -3.6192398e-07 
-6.2176852e-08 1.2679877e-07 8.5121705e-08 
7.8984188e-09 3.9326119e-07 2.1455037e-06 
5.3326227e-07 -3.2485519e-07 -1.8781975e-06 
-1.3149163e-07 3.1293925e-07 -1.4089058e-07 
-3.8806962e-07 7.3207524e-08 -3.4777185e-07 
6.6212937e-07 -5.1405678e-08 -1.4883403e-06 
-6.7618764e-08 1.7888249e-07 6.5187794e-07 
-1.4407739e-07 4.1712084e-08 7.0405099e-07 
9.4347662e-08 3.7975406e-07 2.8885493e-06 
-2.0603206e-08 -3.0068389e-07 -1.6390712e-06 
-5.6719763e-08 -1.2613336e-06 6.5000995e-06 
4.9467047e-07 -1.6320282e-08 -2.6654175e-06 
-9.2342964e-07 1.9774262e-09 4.4671574e-06 
-1.3964407e-06 5.0874598e-07 3.1460008e-06 
6.5671361e-07 8.1719742e-07 1.4056715e-06 
-8.6756194e-07 3.0508286e-07 4.5729926e-06 
6.1681868e-07 2.7608738e-07 2.1462606e-06 
2.1090476e-07 5.3426345e-07 -2.4276487e-06 
-2.4105998e-07 1.3062208e-07 -1.0838618e-06 
-1.7650096e-07 -3.6759857e-07 -1.4289420e-06 
2.3301613e-08 -1.4326289e-07 1.3657258e-07 
2.8672321e-07 -7.0698114e-08 -2.2725212e-07 
-2.3969355e-07 -1.0143812e-06 -1.6905429e-07 
1.2503686e-07 9.8210216e-07 3.8897684e-07 
-3.6487759e-08 -1.1880726e-07 -7.6484653e-08 
-4.9960306e-08 1.6820782e-07 -3.5583673e-07 
-4.0595722e-09 6.9406497e-07 -8.1166372e-06 
-1.5505066e-06 -1.6709992e-06 6.9861530e-06 
1.1693918e-06 -1.5125917e-07 -2.6082918e-07 
-6.7976788e-07 -1.2584275e-06 -5.9217568e-06 
-1.0360310e-06 2.0444034e-07 -4.0841633e-06 
5.8478761e-08 -1.2605946e-07 3.6553323e-07 
-8.8653014e-09 9.5863857e-07 -1.5864820e-06 
-4.4982212e-07 -5.8196730e-07 -1.3238896e-06 
3.2279436e-07 -2.5804627e-07 -1.9204242e-06 
3.8878653e-07 3.6233649e-07 7.7061833e-07 
1.7557436e-06 -9.6793565e-07 1.0962477e-06 
5.5771778e-08 -4.4990094e-07 2.4144388e-06 
4.8014380e-07 1.9813220e-07 -7.6083364e-07 
1.1980723e-07 -2.4382140e-07 1.4089861e-06 
1.4087560e-06 1.6996441e-06 -1.4484611e-05 
1.1091765e-07 3.3577041e-07 3.9030024e-07 
6.0508754e-09 -1.6449032e-07 1.3255097e-06 
-7.7506455e-09 -2.7257116e-07 4.5712517e-07 
-4.1833925e-07 -5.6721211e-07 2.6217199e-06 
-1.2000851e-06 1.6752405e-07 1.0542805e-07 
3.7573494e-07 8.9637581e-07 -2.1928518e-06 
-8.3164070e-07 8.2067750e-08 -7.4343143e-07 
1.9661236e-07 -6.7568756e-08 -1.1959881e-06 
6.9616033e-07 -8.7791153e-07 1.7084245e-06 
4.9147559e-08 -3.4772043e-08 1.3938683e-08 
-3.9811732e-07 1.4969812e-07 -1.7358439e-06 
1.0975939e-06 -4.8298506e-07 2.6020552e-06 
-8.2322742e-07 -1.0380405e-06 1.3704534e-06 
1.7417692e-07 1.9572641e-07 3.2728758e-06 
-3.3707586e-08 1.8286194e-07 -8.2525787e-07 
4.7375618e-08 -1.3038289e-07 -1.7256747e-06 
4.5502580e-07 7.2664130e-07 -1.0007292e-06 
-1.6570976e-08 -8.1453827e-08 -4.0336025e-07 
-1.9914629e-07 -8.6488603e-07 1.6899355e-07 
-6.2678907e-07 1.8752569e-06 3.7746543e-07 
6.3703965e-08 -1.7983169e-07 -4.3122650e-08 
1.9714972e-07 -4.2335515e-07 -5.0392237e-06 
-1.1349317e-08 -7.7921840e-07 1.9001645e-06 
-1.3165075e-07 6.2372970e-07 3.6557857e-09 
2.8657098e-07 -5.9049327e-08 -6.0927272e-07 
-9.9874251e-07 -1.5404987e-06 9.6343801e-06 
-1.2064740e-07 -5.7474137e-09 2.9719045e-06 
3.3681505e-07 5.8095385e-08 2.2584757e-06 
1.1713342e-07 -1.7397660e-07 1.6981927e-06 
-7.5786386e-07 -1.4143866e-07 -6.8899823e-07 
2.3025865e-07 -4.7546206e-07 -3.5054456e-06 
-1.0921068e-07 -6.0313397e-08 1.9253874e-07 
8.1395990e-07 1.5414167e-06 -1.1065351e-06 
-2.0091170e-07 1.8296345e-07 7.5748659e-07 
-3.5648432e-07 9.2180876e-08 1.4923445e-06 
-2.1697116e-07 6.6450951e-08 3.7965688e-07 
2.0121337e-07 -1.8147129e-07 -8.1735169e-07 
3.9716730e-07 2.8421240e-07 5.9019749e-07 
2.1577846e-07 4.9799303e-07 1.5691846e-06 
-6.3915081e-07 -4.2462642e-07 1.1505913e-06 
5.7884432e-07 -7.0731909e-07 1.1059371e-06 
-4.1302675e-07 4.4042500e-07 -8.8926964e-07 
-3.4470324e-07 -6.7442062e-07 -2.7221597e-06 
-1.7832137e-07 5.7634793e-07 4.1283247e-06 
-3.6320958e-07 4.5688722e-07 4.6581363e-07 
-3.0077467e-07 3.2812397e-07 -5.1298239e-06 
-9.9507872e-07 -8.4200664e-08 2.9876530e-06 
-1.9708941e-07 -6.1782151e-07 1.4638177e-06 
4.4927071e-07 3.0637753e-07 1.1815829e-06 
-9.2617404e-07 -4.3033913e-07 -2.9486782e-06 
-4.2223661e-07 -1.8736776e-07 1.2117068e-06 
3.1433026e-07 5.4856440e-07 2.5498068e-06 
9.5383450e-07 -1.1138844e-06 -4.0809832e-06 
8.8041503e-08 -1.5240852e-07 -2.1271367e-06 
-2.6623366e-07 -1.1593467e-06 -1.0702521e-06 
-1.3607544e-07 6.4701527e-07 4.7443262e-07 
1.9091713e-07 4.2065000e-07 -1.6615139e-06 
-8.9685948e-08 -5.9513951e-07 -8.0349434e-07 
1.6939471e-07 5.0231870e-07 1.1633985e-06 
9.3348899e-07 4.5578764e-07 -6.0609241e-06 
8.0139444e-07 2.0938769e-07 1.4203617e-06 
-1.5925427e-06 -1.1196701e-07 -9.8912847e-07 
9.4850640e-07 -4.4304991e-07 2.9598439e-06 
2.2469928e-07 1.1326856e-06 -2.4172456e-07 
1.0071781e-07 -9.8643751e-09 -3.6199410e-07 
-1.4612681e-07 2.4561180e-07 2.2830287e-07 
2.8948620e-07 4.1267270e-07 -2.2235761e-06 
-5.4244325e-08 -1.1952775e-07 -1.0176524e-06 
6.9426727e-07 -6.2433395e-07 2.8969791e-06 
6.9549702e-07 1.0607008e-07 1.3836532e-07 
4.1398712e-07 1.8087933e-07 6.2812899e-07 
-1.7495515e-07 -3.0372973e-07 9.3215419e-07 
1.6236899e-07 6.6580117e-07 -1.9128113e-06 
-1.2951685e-08 -6.1468984e-07 1.5574661e-06 
-4.2247056e-08 1.0782074e-06 5.3129520e-06 
8.5772811e-08 1.8745793e-07 -1.2277688e-07 
-1.7282643e-07 1.0559540e-07 6.8006182e-07 
-1.4856718e-07 -1.3492063e-06 -9.3929418e-07 
1.3162222e-07 5.6994031e-07 -2.1674837e-06 
-5.4595422e-09 -4.4021068e-08 4.6644923e-06 
-2.9479992e-08 -1.3232211e-07 6.0986798e-07 
-1.5746305e-07 2.4155196e-07 -2.9041119e-06 
5.5396180e-07 4.8552778e-07 3.3597196e-06 
4.2890684e-07 2.9941475e-07 2.5417540e-07 
-8.0362685e-07 -3.8065981e-08 4.2198703e-06 
-1.9615582e-08 4.5152623e-07 -3.0555202e-07 
2.2075511e-07 2.9690023e-08 -1.6218917e-06 
-3.8753171e-07 7.3285108e-08 -8.4908470e-07 
-7.1158570e-07 -9.3515446e-08 5.3305840e-08 
1.7327666e-09 -1.0333608e-07 3.7620418e-07 
-5.4988504e-08 -5.9036296e-07 2.4324695e-06 
-1.8817869e-07 1.1496846e-07 6.0356676e-08 
-3.3959486e-07 -4.4154962e-07 7.1750225e-07 
1.6121274e-07 2.5644267e-08 -7.4855200e-07 
9.3728097e-08 3.7602284e-08 -4.4391548e-08 
3.3674715e-07 -3.4168801e-07 -3.0659571e-06 
-5.4140611e-07 -6.8675394e-07 -1.9880915e-06 
-2.7787357e-07 -3.3014319e-07 1.6778497e-06 
3.4640811e-07 3.1220867e-07 3.6254048e-07 
-2.9984764e-07 -9.6084989e-09 9.4651347e-07 
-1.7657808e-07 -9.0210740e-08 -1.8564560e-06 
-9.8329588e-07 4.3215090e-07 -3.5931359e-06 
2.4050507e-07 4.6586453e-07 -3.6155889e-06 
1.0943596e-07 -2.1346786e-07 5.0991713e-07 
-1.2895086e-07 -5.7959613e-07 2.7680085e-06 
5.6343265e-07 4.3170651e-08 -1.9154443e-06 
1.5664855e-07 -2.6388628e-07 5.7591177e-07 
1.2940933e-07 -3.7656076e-07 3.2283242e-07 
1.6903236e-07 4.2762167e-07 1.2883647e-06 
2.5108824e-07 3.8329006e-07 1.7553357e-06 
6.2347794e-08 3.5970353e-07 -7.1955702e-07 
-2.7728221e-08 -5.5862067e-08 7.2828222e-08 
7.3360195e-07 9.8489522e-08 6.0167002e-07 
-7.0724546e-09 1.0162024e-06 -1.0694472e-06 
4.8762370e-08 -8.8656400e-08 -2.5711095e-06 
-7.3883648e-08 -4.8231124e-07 -1.8598828e-06 
-2.2994661e-07 1.7588927e-07 5.9890630e-07 
2.6644670e-08 1.0422917e-07 6.0233546e-08 
-2.9522468e-07 1.1370636e-07 2.0722077e-06 
6.3815570e-08 9.1804864e-08 4.8608564e-07 
1.3055670e-07 -5.7718586e-07 -5.3195918e-06 
-6.8019247e-08 1.6238646e-08 -1.7439213e-07 
4.4374161e-07 -5.9801624e-07 1.1540222e-06 
-2.0481150e-07 9.4845296e-07 5.8128285e-07 
-7.0999903e-08 -7.3227454e-08 -1.1857959e-06 
-3.0187906e-07 -1.6584298e-07 -3.3786357e-08 
-4.0169778e-07 7.8598887e-08 -1.2274822e-07 
-8.4843485e-08 -4.1993235e-07 1.5363493e-06 
1.0597380e-07 5.1516004e-08 1.1248547e-07 
-3.1190626e-07 -1.8008330e-07 -2.2151203e-06 
2.3059232e-07 2.0884644e-07 -1.3164977e-06 
2.0830652e-07 3.8555501e-07 2.9807693e-06 
3.2935887e-07 -8.9001396e-08 4.3108014e-07 
6.0327807e-08 -3.4719693e-07 1.2196992e-07 
3.5802702e-07 -9.4375316e-08 -1.0288834e-07 
1.4471664e-07 6.8835351e-07 -2.2333968e-06 
-2.4901180e-07 -2.1201720e-07 -2.9684554e-06 
-1.0834182e-07 4.1477355e-07 1.5582586e-06 
-2.1362990e-07 -1.0274996e-07 4.5083627e-07 
1.1739117e-07 -2.8811374e-07 3.8368480e-06 
-7.3111613e-07 -3.3381923e-07 2.0704472e-06 
6.5460216e-07 -1.0479126e-07 -9.0251376e-07 
5.9558209e-07 -1.0074392e-06 1.7581738e-06 
-2.0392272e-07 5.6256408e-07 -3.2545242e-06 
-3.1862373e-07 -2.2601020e-07 2.1336891e-06 
-1.5771307e-07 2.1101418e-07 2.7868765e-07 
9.0131394e-08 4.8954178e-08 -7.9941991e-09 
2.8612791e-07 -2.1900009e-07 2.0430771e-06 
8.3350457e-08 5.0662965e-07 5.1514025e-06 
-1.3876198e-07 -9.9749535e-08 -2.1552975e-08 
-5.8442083e-08 5.5731067e-07 2.7927924e-06 
6.4752527e-07 -1.2658842e-06 -9.3254321e-06 
-4.0684742e-07 -8.9429085e-07 -2.1763976e-06 
1.5239070e-07 -8.1903664e-07 -2.5828911e-06 
-7.2726095e-07 -2.1935612e-07 3.1627437e-06 
-5.2848819e-09 1.0101639e-06 -6.3088764e-06 
-3.0342142e-07 3.9782097e-07 3.8627227e-06 
-5.6786951e-07 -2.8300811e-08 5.2332285e-07 
-1.7427542e-08 4.8482298e-07 -4.4031344e-06 
-1.0614094e-06 8.3888744e-07 -1.1413447e-06 
5.1264584e-07 6.4572180e-07 -3.0422098e-07 
-3.6552743e-07 -6.9703566e-07 1.7052157e-07 
3.3544006e-07 -3.6189363e-07 -1.3252566e-06 
7.3689328e-08 -2.1680073e-07 5.7585618e-07 
5.3449526e-07 8.5207290e-07 2.1951262e-06 
8.6311189e-07 -1.9584633e-07 3.5341266e-06 
1.9265286e-07 3.8815176e-07 3.5881794e-07 
1.2311935e-07 2.0775992e-07 -5.7623009e-07 
-5.4092004e-07 -3.8378872e-07 8.6708212e-07 
-8.2795543e-07 -8.9707652e-07 4.4600765e-06 
-1.6240617e-07 -5.1672171e-08 1.3843859e-06 
1.2244931e-07 -2.8897178e-08 -1.3290460e-06 
3.3059968e-07 5.9676253e-08 1.1569787e-06 
6.6124824e-07 -1.6804496e-07 -2.8478046e-06 
-3.0104491e-08 -7.0551515e-08 -2.2714202e-09 
-6.8644368e-08 2.9960387e-07 -3.9951382e-07 
-1.1224646e-06 -2.0278510e-07 -5.0565372e-06 
4.2477300e-08 -3.5421650e-07 -2.6015200e-06 
-1.1713508e-06 8.3574287e-07 3.5990352e-06 
8.9706458e-07 -3.0024418e-07 2.1131991e-06 
-4.6874419e-08 -1.8790101e-07 -4.5256641e-07 
1.3200915e-07 -2.8936503e-08 1.7596399e-07 
-1.1375617e-08 1.4289600e-07 1.6628866e-06 
-4.0503960e-07 -5.8982573e-07 -3.2227381e-06 
-1.5395133e-07 1.2488560e-08 -8.4013772e-07 
-8.2547369e-10 -8.6234884e-08 -1.1909957e-06 
3.0100293e-07 -4.0416626e-08 -5.8420733e-07 
2.7808207e-07 4.8405298e-07 3.6387489e-06 
1.2106714e-06 5.6088010e-07 7.3148101e-07 
-1.0746516e-07 -2.8779050e-07 -2.4461067e-07 
-7.0386321e-08 -4.8842844e-07 2.6862085e-06 
3.9203380e-07 -7.4615770e-07 6.1155069e-06 
5.1327106e-07 2.6165606e-07 -1.0111345e-06 
-4.6429517e-07 1.7200567e-06 -5.5151322e-06 
1.8314643e-07 3.5075146e-07 -2.6586893e-06 
5.8591670e-08 4.1269388e-07 1.2265284e-06 
1.8485902e-07 -4.2167477e-07 3.6243689e-06 
1.6340211e-08 -8.9431012e-08 2.7959582e-06 
-3.7792873e-07 5.2612378e-08 -3.8341278e-07 
-9.5804722e-08 -2.1121035e-07 6.8852108e-07 
1.3266390e-08 -2.7913833e-07 -1.2953694e-07 
1.4708408e-07 1.9805819e-07 -8.4465120e-07 
1.4969922e-08 3.9048951e-09 1.7837424e-08 
1.0205985e-08 -1.0799128e-08 -6.0207827e-07 
-1.8235521e-07 4.9210956e-07 1.9060847e-06 
-1.4752551e-06 -1.0993317e-06 1.7990933e-06 
3.1032764e-07 4.2598415e-07 -6.6935667e-07 
3.5066904e-08 4.4243609e-07 7.0978109e-07 
-1.8548673e-07 -3.4024043e-07 -2.1509731e-08 
7.0665507e-08 -8.6492423e-07 4.4754402e-06 
5.3360750e-08 5.1973285e-07 -1.5197909e-06 
3.4043140e-07 2.4788678e-09 1.9117642e-06 
-4.8807742e-08 1.5444380e-07 -3.7530911e-06 
4.7916404e-07 4.9425097e-07 -1.7694629e-06 
9.0879610e-07 -1.2912261e-07 1.5096736e-06 
-2.8823794e-07 -2.2630923e-07 2.1604924e-06 
8.2713558e-07 1.2917336e-06 3.7085933e-06 
-3.9564733e-07 -2.2362348e-08 1.8820203e-06 
5.4598509e-08 -4.2905970e-07 -7.5043818e-07 
-6.3753725e-07 -4.2392163e-08 1.1388165e-07 
2.3766246e-08 -1.4622185e-07 -2.6758707e-07 
-3.7451352e-07 3.2855620e-08 1.1149506e-06 
-1.6429577e-07 -1.7629783e-07 1.5053986e-07 
-2.3575518e-08 -7.4545483e-08 -2.2915674e-06 
1.0523793e-07 1.2335494e-07 5.7040506e-07 
-6.0637819e-07 -2.4478692e-07 3.2854846e-06 
-3.7455425e-07 -7.5648913e-08 9.5727671e-07 
-4.0667445e-08 -1.2839274e-07 -1.9023489e-07 
5.3583534e-08 1.7300601e-07 -2.7174885e-06 
-1.9727000e-07 6.9585340e-08 -2.3844314e-06 
-4.8951733e-07 -2.2536362e-07 -1.1715505e-05 
4.4794521e-07 4.3069659e-07 -9.6950416e-06 
6.8897378e-07 -7.2739078e-07 3.0566289e-06 
4.1394458e-07 1.8740074e-07 -4.0605119e-06 
4.7689485e-07 3.1850860e-07 -4.9096989e-06 
6.6880874e-09 1.3773575e-08 -2.4591480e-07 
-4.3086999e-07 -6.0149097e-07 -1.8546215e-06 
1.6925252e-07 -4.5912734e-07 -2.6290118e-06 
-1.5945396e-06 -1.3484622e-06 4.9837226e-06 
3.3819296e-07 6.7106191e-07 1.0980781e-07 
-7.7275061e-08 -9.4576848e-08 -6.2110402e-08 
8.0931400e-08 4.1062989e-07 -2.8638539e-07 
4.7491653e-07 1.1979444e-07 1.8022583e-07 
6.5345392e-07 2.9668442e-07 -2.3103320e-07 
-1.3975358e-07 -2.6630153e-07 2.7005663e-06 
-4.9797499e-08 4.5465481e-07 -9.8624787e-07 
1.5926035e-07 -1.3000641e-07 -1.0166422e-06 
-4.7544748e-07 -1.7288906e-09 -2.2166789e-06 
1.2696929e-06 -2.3481067e-07 -2.1942749e-06 
1.1281682e-06 4.8348750e-07 -3.2027083e-06 
1.6219295e-07 1.5754956e-06 2.2845391e-06 
-2.4493730e-07 -1.0884153e-07 1.3661014e-06 
-6.1241266e-08 2.4093697e-07 4.3909102e-07 
4.0572303e-07 2.1740487e-07 1.2985247e-06 
-6.5501311e-09 -5.8344312e-07 2.4205058e-06 
-2.3082366e-07 -2.3711443e-08 -1.8128080e-06 
-1.7488684e-07 6.9073360e-07 9.3562591e-07 
4.2044059e-07 6.3340639e-07 1.9880283e-06 
-4.8844680e-07 -6.2102536e-08 3.8644439e-06 
5.0092234e-07 -5.1953083e-07 3.6307217e-06 
-7.9616950e-07 2.3081098e-08 5.7916741e-06 
5.7703477e-07 9.3277316e-07 -2.2146547e-07 
8.0364963e-08 -4.1051021e-07 2.1586777e-06 
-9.4705450e-07 -2.6543495e-07 1.8341875e-06 
-1.0065527e-06 -1.5425612e-06 2.0317702e-06 
5.4088975e-08 9.9897228e-09 -1.8922731e-07 
-1.9481985e-07 1.5931330e-07 -1.7151265e-06 
8.8616460e-08 -1.8846953e-07 -1.1845859e-06 
-1.3954366e-07 -3.7466887e-07 7.1544025e-07 
1.0031675e-07 1.0059900e-07 3.2999384e-07 
-2.7085164e-07 -3.4033530e-07 -3.7657156e-07 
-1.2975440e-07 -1.7573075e-07 -1.5167766e-06 
1.1966583e-06 1.5795587e-07 -6.0063608e-06 
-5.7456037e-07 9.1222768e-07 -2.1397888e-07 
8.6633300e-08 2.9940600e-07 -6.2891964e-08 
3.1652772e-07 9.6179157e-08 1.2323284e-06 
1.6761353e-08 4.6127241e-07 -9.5516199e-08 
-1.5920328e-07 1.7780762e-08 2.1877599e-06 
-1.6349074e-07 -9.6085716e-07 2.6306401e-07 
-1.5934741e-07 1.3818402e-08 2.9546829e-06 
-2.0966577e-07 2.1831652e-07 -2.2242225e-06 
-3.2118518e-07 -5.9971609e-07 3.6476470e-06 
-3.6397276e-07 -3.3850299e-07 2.3492776e-06 
8.6143325e-07 3.9962686e-07 -4.2333832e-06 
1.8170199e-07 -2.7636997e-07 3.3077146e-08 
-7.0243303e-08 3.9445798e-08 -4.9923938e-07 
3.1380292e-08 -1.5817800e-07 -1.1860247e-06 
-7.9702200e-09 -2.3209600e-07 9.7969541e-07 
9.1569046e-09 -1.2217808e-07 1.3587244e-06 
8.4573293e-07 -1.6800919e-07 2.3918657e-08 
2.9647305e-07 -3.9623404e-07 -3.8697326e-06 
-2.3380566e-07 -1.7919183e-07 -2.2550882e-06 
-2.9801393e-07 -4.2674895e-07 7.3433097e-07 
1.6394835e-06 2.2798210e-07 -8.6007458e-06 
-2.3312354e-07 5.3683203e-07 -2.8672812e-06 
-1.4097274e-06 7.1069741e-07 7.0317028e-06 
3.6588520e-07 2.1986973e-06 -2.5264933e-07 
1.2902980e-08 1.7127120e-07 -3.1178087e-07 
5.1044265e-07 -3.0859468e-07 1.3475599e-08 
-1.7996180e-07 1.6232559e-07 1.9980246e-06 
1.7493461e-06 -8.6879015e-07 -4.0980863e-06 
1.0269051e-07 -1.5119117e-07 -5.5464091e-07 
-1.3203746e-07 1.0533230e-07 9.5881717e-07 
-4.1650529e-07 3.1175955e-07 1.6277410e-07 
6.2099055e-09 2.5050724e-07 -2.6087122e-07 
-7.7113718e-08 2.0373544e-07 2.3330408e-06 
-5.5609586e-08 2.7500090e-07 3.3388031e-07 
-6.5258524e-07 -3.3328902e-07 2.2309666e-06 
1.9547333e-07 2.7398264e-07 5.5356566e-07 
-8.5754699e-08 -1.8100122e-06 1.9663523e-06 
8.2011979e-08 -5.9272946e-07 -1.2459028e-06 
-9.3212208e-07 -4.5621601e-07 1.0364165e-06 
-4.6524030e-07 7.4272560e-07 -2.1347496e-06 
-2.8385125e-07 4.2074734e-07 1.4683307e-07 
-1.0559074e-07 -3.1328253e-07 -1.0141433e-06 
-5.9996728e-07 -6.6960064e-07 -8.6764715e-07 
6.1554215e-07 1.0716857e-06 5.7784432e-06 
1.2881839e-07 -1.4786447e-07 -3.9305010e-06 
-3.4882962e-07 5.2330694e-07 1.9514014e-06 
-6.2228075e-08 3.0800831e-07 -1.3281787e-06 
5.7889156e-09 -7.4614356e-08 -1.8420725e-07 
3.0770173e-07 2.6618250e-07 -1.0015258e-07 
4.0383955e-07 1.6393308e-07 5.2570781e-06 
3.3132895e-07 1.6136240e-06 3.8654257e-06 
-2.5695780e-07 -2.1357064e-07 2.1427309e-06 
4.9387012e-07 4.5020283e-07 -1.2639116e-06 
-4.9973636e-07 9.1138197e-08 -7.4546068e-07 
-8.9814726e-08 4.6177504e-08 -2.4274786e-07 
1.9027341e-07 1.1571028e-06 4.8663414e-06 
-3.4811758e-09 4.0949676e-08 -4.7216807e-07 
-1.3649337e-07 -2.5416219e-07 8.9420240e-07 
-2.5484781e-07 -5.8295075e-07 -4.6329337e-06 
5.8185719e-07 -2.0538466e-06 -7.5804478e-06 
7.5900104e-08 -1.5208062e-07 -1.9521024e-06 
-4.2564577e-07 -1.2718546e-07 -2.2660599e-06 
2.4116019e-07 -7.6220431e-08 2.9345080e-07 
5.4129634e-07 5.1041235e-07 1.2203732e-06 
-4.8721855e-08 1.9758839e-07 1.7978034e-06 
1.0780260e-07 1.3811822e-07 1.1131830e-06 
5.7523888e-08 8.6551545e-08 -8.4341497e-07 
-9.6777535e-07 -1.5941050e-07 -4.2242587e-07 
5.2736550e-07 4.8352273e-08 -4.2094601e-07 
-3.4398801e-07 4.1960845e-07 -6.5447824e-07 
5.5174559e-07 -2.5118931e-07 1.2636617e-06 
-6.3560481e-07 1.0056949e-06 5.6737590e-06 
-6.9850853e-07 6.5598630e-07 -7.9054752e-07 
1.0902570e-06 7.4035779e-07 4.2630340e-06 
4.1945318e-09 -1.3741910e-06 -1.6942242e-06 
1.7942199e-07 -7.2590342e-07 -4.8946276e-07 
3.0598056e-07 2.3901908e-08 8.3024804e-07 
-3.5390944e-08 8.0062216e-07 1.5424511e-06 
-6.4989365e-08 1.0687014e-07 -9.2823214e-08 
-4.3303135e-07 -3.4104750e-07 -6.8801864e-07 
-4.8977557e-07 -7.8559998e-07 -2.5616196e-06 
2.3023306e-07 1.5295601e-07 -3.2381806e-08 
1.6612586e-07 5.8624973e-08 8.2353461e-07 
1.8206508e-08 1.4589517e-06 1.4595760e-06 
4.2324640e-08 -3.7375864e-07 -1.3196004e-06 
3.0510864e-07 6.0765689e-07 1.9827378e-06 
8.2083442e-09 -6.2689224e-08 7.8652295e-07 
-4.1530848e-07 -2.0829282e-07 9.2012624e-07 
-2.3735053e-07 -2.9684867e-07 2.6599976e-06 
-3.4469591e-07 -8.0094281e-07 -5.5613345e-06 
-1.2518001e-07 -6.0801483e-07 -2.2413813e-06 
1.7893690e-07 -1.5260841e-07 5.6697104e-07 
-1.9669311e-10 -9.8107887e-07 -1.8600902e-06 
3.7556799e-07 6.4431970e-07 7.0951808e-07 
9.2179829e-07 -8.2363738e-07 -1.4020900e-06 
-1.1056096e-07 -2.7462926e-07 9.6396604e-07 
7.7079349e-08 -2.6841073e-07 -5.5409949e-08 
-1.5438641e-07 -1.3929659e-07 5.1980379e-08 
3.4433725e-08 3.3279167e-07 -1.4728688e-06 
-4.0853016e-07 -5.2740523e-07 -1.7102258e-06 
-1.3714394e-07 -8.0190965e-08 6.6555361e-07 
-1.9795077e-07 -5.2428703e-08 3.3539229e-07 
-9.9454645e-08 1.2546256e-07 1.2116891e-07 
-1.2630633e-07 -4.0944570e-08 -3.4700665e-06 
-5.0836042e-07 -1.8867142e-07 -2.9235805e-06 
-4.4276966e-08 2.1939903e-07 -2.1811931e-07 
-5.8946164e-08 -1.3905064e-07 -2.7325912e-06 
-7.1173986e-08 -2.0238954e-07 3.4367229e-06 
-6.1233504e-07 4.9535583e-07 -9.5942096e-07 
-4.8369782e-07 5.7823672e-07 1.0001725e-06 
-3.2523809e-07 -5.3784521e-07 -3.2408884e-06 
6.0507080e-07 7.6400033e-07 -5.1869956e-06 
3.4165510e-07 -2.8399462e-08 -4.2659730e-07 
-1.5293898e-08 -2.0980953e-07 3.0110274e-07 
-3.9841652e-07 4.7407340e-07 2.8056734e-06 
-1.3734015e-07 -2.8295483e-07 9.9936119e-07 
5.1510557e-07 2.8239718e-08 2.6598150e-06 
3.2361407e-07 -1.7364567e-08 1.5129673e-06 
-5.3558679e-08 -6.9698892e-08 1.4514868e-07 
1.5046543e-07 -6.8193152e-08 3.5367947e-07 
-3.0048614e-07 -2.0858133e-07 -1.4775386e-06 
-1.5680683e-09 7.0675647e-08 -1.5559255e-06 
-1.3879089e-06 -1.7995617e-06 -2.4998592e-06 
4.5559028e-07 -4.9875155e-07 1.7227544e-06 
7.3381976e-09 -9.5809362e-08 8.0178478e-07 
-4.1307200e-07 -7.8854293e-07 2.9543326e-06 
1.2744371e-07 -2.0246798e-06 -2.7611213e-06 
8.1834270e-07 8.7050881e-07 3.1421480e-06 
3.6212194e-07 3.9684113e-07 -4.6212915e-07 
3.0206044e-07 5.6140226e-07 -2.1102974e-06 
-1.1430569e-06 -1.4616264e-06 -5.5251130e-06 
-5.9328232e-07 -4.8045859e-08 -2.7757690e-06 
9.9002887e-07 1.4648994e-06 5.7010939e-06 
3.9782498e-07 1.5371822e-06 8.5111978e-06 
4.5243797e-07 1.0784142e-07 3.3185918e-06 
1.7373488e-07 5.9723038e-07 5.5767186e-06 
-3.2898694e-07 2.8107311e-07 -6.3813980e-07 
9.1580756e-07 -3.4121985e-09 -5.2500500e-06 
-1.0900325e-07 1.0645487e-06 9.1547718e-06 
2.8830004e-07 2.4372079e-07 1.0557645e-06 
-6.7416529e-08 1.6261723e-07 1.1201956e-06 
2.7540273e-07 -6.4246448e-09 -4.6844306e-07 
4.6564631e-07 8.5686230e-07 1.3789145e-06 
5.1779205e-07 -2.8003004e-07 1.3780036e-06 
-3.9733129e-07 3.8520940e-07 -2.7897597e-06 
-1.1404538e-06 4.2152118e-07 -2.4066596e-06 
5.2813516e-07 2.3790554e-07 8.5298302e-07 
-3.5260591e-08 -8.5242408e-07 -7.0180859e-06 
-9.6052119e-08 3.5644160e-07 -2.6936752e-06 
7.1880315e-08 1.8213645e-07 -3.6329905e-07 
-1.2277471e-07 7.8255471e-07 -1.7664830e-06 
7.2468356e-07 9.1512879e-07 7.5879734e-06 
-8.1333997e-09 -5.1896103e-07 -2.9760517e-06 
-8.9492664e-07 -6.0242053e-07 1.8288737e-06 
3.4600959e-07 2.2574704e-07 -2.7348156e-06 
-1.8417450e-07 -3.2450058e-07 7.6675445e-07 
6.2780418e-07 1.1071756e-07 4.5412668e-07 
6.4223877e-07 5.3479357e-07 1.4805771e-06 
-1.9725069e-07 -4.4028900e-07 1.5144115e-06 
-9.2380972e-08 -2.8632968e-07 -9.9383499e-07 
1.1511723e-07 2.5271984e-07 5.7922556e-09 
1.2779417e-08 -7.5793423e-07 -1.5532804e-06 
-1.3193960e-06 -1.2686468e-06 -8.1432936e-06 
1.8887616e-07 -4.4657915e-07 1.0061815e-06 
2.0462609e-08 5.6186212e-07 -1.6996432e-06 
2.2948665e-08 -5.4973626e-08 -1.2696636e-06 
1.0261696e-06 -8.4097326e-07 3.2675436e-07 
-1.0293357e-06 1.3636944e-06 3.4304826e-06 
-1.2969613e-08 -9.3943221e-08 -1.4141325e-06 
9.6983825e-08 2.7817370e-07 -6.4851866e-07 
-5.2795485e-07 3.3345813e-08 1.4309466e-06 
2.7293223e-07 -2.2566901e-07 3.1892355e-06 
-4.1741731e-07 -1.3589198e-07 -1.7703039e-06 
1.5041095e-06 3.1786993e-08 1.2253111e-06 
-5.5303553e-07 -8.8244963e-07 -1.3685469e-06 
1.0784384e-07 -1.6161920e-07 1.4845480e-07 
1.5644810e-08 8.2791924e-09 5.3977999e-08 
-1.4656601e-07 1.5340086e-07 -1.1802492e-06 
1.6140394e-08 1.4810195e-08 -6.4388939e-07 
-1.6474340e-07 -6.4306136e-07 -2.3938773e-07 
8.9224727e-08 1.7092159e-08 -8.5985494e-07 
2.7585705e-07 1.1148278e-07 6.5724868e-07 
4.3482274e-08 6.9576078e-09 2.1603226e-07 
-2.9307029e-07 2.8241905e-07 -4.1137837e-06 
-2.9320793e-07 6.1939581e-08 -4.6285228e-07 
2.1042820e-07 8.7546516e-07 -1.1844214e-06 
-1.5840448e-07 1.8186132e-07 -6.1446570e-07 
-2.2289061e-07 1.0932222e-07 9.6718531e-07 
2.8389502e-08 -1.1747336e-07 -9.7369468e-07 
8.1626922e-08 -2.0614314e-08 -9.0213570e-07 
7.6833965e-07 2.2700324e-07 1.3776179e-06 
-3.6993455e-07 -2.7843160e-07 1.7884474e-06 
2.1979484e-07 2.3449969e-07 -2.3463002e-07 
-2.2052687e-07 1.9949402e-07 2.5283539e-06 
1.9113355e-07 3.6750059e-08 1.4697201e-07 
-3.4726582e-08 8.7732651e-08 -7.3950758e-08 
1.0527883e-06 1.0637374e-06 4.8873239e-06 
3.7575091e-08 -1.9975880e-07 -1.5387540e-07 
-2.9949578e-07 -1.4442844e-07 1.8759540e-07 
-3.5329407e-07 -2.7093728e-08 1.5414565e-06 
-7.0070951e-07 -5.4393104e-07 -4.4108063e-08 
1.6432904e-07 5.9122840e-08 1.4728276e-06 
9.4432608e-08 -7.8969720e-07 4.2567176e-06 
1.8138502e-07 -2.0161863e-07 -1.8273714e-06 
-2.3789267e-08 -1.4752897e-07 -4.7072544e-07 
7.0625526e-07 -1.0277171e-06 1.1098064e-06 
-7.2752655e-08 -3.5684607e-07 4.4594879e-07 
5.2859853e-08 1.5277274e-07 -2.3990299e-07 
-1.1785645e-08 -6.6304352e-08 2.3287306e-08 
5.6406429e-07 2.0561168e-07 -8.4824882e-07 
-2.3274538e-08 8.2219231e-07 -1.6449205e-06 
4.8513880e-07 1.6332535e-07 5.6119922e-07 
1.4081600e-07 -2.9453426e-08 -3.0955664e-06 
5.0693740e-07 6.2459257e-08 3.7283110e-07 
-3.5318013e-07 1.3619479e-08 -1.6548159e-06 
2.3329901e-07 -2.0151298e-07 -1.7327392e-06 
-4.0752528e-07 9.0724689e-07 6.4158271e-06 
-2.5205603e-07 2.2193571e-07 -2.2974671e-06 
4.0545260e-07 2.9741483e-07 2.2856389e-06 
-7.8066606e-08 -4.3692393e-07 -1.2429066e-06 
5.9458085e-07 -3.0922962e-07 3.8705534e-07 
5.2172602e-08 1.5695026e-07 1.4832398e-06 
1.4424965e-07 2.0469288e-07 5.5769658e-07 
1.3176373e-07 -2.0139085e-07 -3.7458697e-08 
-1.8762061e-07 8.4938037e-08 -2.1439550e-06 
-1.4890546e-06 6.7097290e-07 -7.1164754e-06 
-2.5435327e-07 1.8627671e-07 1.1637328e-07 
-6.0782682e-08 1.2374579e-07 3.7682860e-06 
-4.2726441e-07 -7.2125616e-08 -2.5863424e-06 
-2.7749081e-07 1.9092464e-07 4.4138650e-07 
1.5716213e-07 -3.4226863e-07 -5.8420989e-07 
1.2216685e-06 -8.0923030e-08 8.4934600e-06 
-8.1848242e-08 6.2442348e-07 1.3545613e-07 
-1.4877414e-06 -7.7894526e-07 -2.8586903e-06 
-5.9708321e-07 4.3592897e-07 -1.2920848e-06 
-1.2096413e-08 -1.0959072e-08 1.2189653e-06 
7.1829868e-07 -6.8019318e-08 1.9381175e-06 
-2.5996192e-08 4.0842313e-08 6.8154677e-08 
-3.7850060e-07 2.3868253e-07 -3.2564740e-06 
-5.3545369e-07 -3.1169856e-07 1.6018447e-06 
4.4693985e-07 -8.3385274e-08 4.8169267e-07 
3.1126564e-07 -3.4238946e-07 -8.3259607e-07 
-2.9654784e-08 -3.2659293e-07 9.6434940e-07 
2.8194725e-07 -2.2247306e-07 1.1619031e-06 
-9.8777798e-07 5.0995106e-07 -5.7148586e-06 
6.3944788e-07 -3.2902543e-07 1.9060623e-06 
-9.4359208e-08 4.3693891e-08 -1.6272915e-06 
9.9187218e-07 -9.1302567e-08 3.8513585e-06 
-1.4428940e-06 -1.2956698e-07 -3.5235432e-06 
8.1531937e-07 -9.1916725e-08 4.3890036e-06 
-9.0720221e-07 -8.3484196e-07 -3.0521471e-06 
-6.3346647e-08 -2.9365225e-08 1.7187222e-06 
3.8653479e-08 1.3658779e-07 7.7565301e-07 
1.4834984e-07 -1.1900210e-07 -3.3608148e-07 
3.3555790e-07 -6.1311590e-07 -3.2744133e-06 
1.7885687e-07 -2.8085137e-07 -2.6840810e-06 
-7.0279049e-07 -8.5013806e-07 -4.5341699e-07 
-5.4823897e-07 -2.4276761e-07 3.4889281e-06 
2.3084249e-08 3.7415757e-07 -1.1190252e-06 
1.0229456e-07 3.3247122e-07 2.1702829e-07 
4.3150300e-07 3.6188666e-07 1.0064732e-06 
-2.2304972e-07 -4.2827185e-07 -3.4874140e-06 
9.9360307e-08 2.3137333e-07 -1.1994222e-06 
-2.4728618e-07 3.1491560e-08 1.7121931e-07 
-5.3769838e-07 -6.6601245e-08 -3.5661224e-06 
-7.6913472e-07 9.1504671e-07 -3.3313727e-06 
3.0514201e-07 -2.4982504e-07 9.7342183e-07 
2.2755023e-07 -1.1735748e-07 2.9893749e-07 
6.6523583e-08 3.2601787e-07 1.5400003e-06 
7.9473381e-07 2.9618730e-07 2.5766624e-06 
5.5904639e-08 1.2371303e-08 1.4585568e-07 
-4.4667780e-07 8.7779455e-07 -7.6194499e-07 
5.9105321e-07 -1.1283224e-06 2.5354160e-07 
-8.3941160e-07 -5.1288401e-07 1.1952199e-06 
1.1006763e-07 -4.2916531e-07 -7.0114618e-07 
-3.5972725e-08 1.1528242e-06 -2.4977337e-06 
-8.1146413e-07 -6.8032261e-07 -4.8076345e-07 
1.3864178e-07 1.4759922e-07 4.1771420e-07 
-6.5139687e-07 7.0771044e-08 1.0739597e-06 
4.6577452e-07 -1.4442650e-06 2.5602466e-07 
2.6451411e-07 7.2132144e-07 -2.5764484e-06 
-4.7051606e-07 4.0005571e-07 2.6514517e-06 
-6.9971935e-09 2.3433410e-08 2.5491246e-07 
-6.8669230e-08 4.3019628e-07 -1.4347967e-06 
-2.1119813e-09 5.6795173e-08 6.7733441e-07 
-4.5361534e-07 -3.0293666e-07 2.3998739e-06 
1.8470347e-08 1.7767086e-07 -4.4691401e-08 
1.2149000e-06 1.8671440e-07 2.7004244e-06 
-2.1021957e-07 -4.1439228e-07 -2.7721451e-06 
-2.9688863e-07 5.6779936e-07 -1.5283268e-06 
-1.1938600e-07 -1.4801168e-07 -9.7673524e-07 
3.6644454e-07 -6.9583268e-07 2.4100202e-06 
-5.1665006e-07 1.0482587e-08 -1.6054518e-07 
7.2354260e-07 6.0449497e-07 3.7627126e-06 
2.6872061e-07 -2.6569100e-07 -6.7776557e-07 
1.1309140e-06 8.9301906e-08 1.1030273e-06 
3.0257030e-07 7.1080386e-08 2.3771715e-06 
9.0816116e-08 -5.7587374e-07 5.2011806e-08 
-6.8802979e-07 -4.4360258e-09 -3.7464540e-06 
-1.3932302e-08 1.0995012e-07 -2.2765700e-08 
3.3738138e-07 -2.6849560e-07 -1.8951205e-06 
-3.3659131e-08 4.7350636e-07 4.8678970e-07 
-1.2357310e-07 1.1166910e-07 3.6667774e-07 
1.9807810e-07 -1.0649545e-07 -4.0145730e-07 
-1.7192437e-07 1.3449954e-07 1.5383690e-06 
-6.0258270e-07 -7.4840904e-07 -2.7828296e-06 
2.4230644e-07 3.1297225e-07 4.5604057e-07 
6.5172429e-07 -7.4262935e-08 -2.2275302e-07 
-4.5607698e-07 -2.9275566e-07 4.3098211e-07 
3.8287402e-07 4.7037375e-08 5.1142779e-06 
-2.7939734e-08 -6.1683373e-08 -3.9611914e-06 
8.3551861e-08 -4.5463131e-07 -2.1205572e-06 
-8.2818963e-07 1.9366080e-07 -5.7023603e-06 
-1.1106423e-07 2.2796100e-07 -5.8441344e-07 
4.5702515e-07 7.2604735e-08 -2.3726875e-06 
-9.8800012e-07 -1.7549716e-07 5.5721780e-06 
-5.2397689e-07 -1.0470594e-06 3.7027678e-06 
1.0797789e-06 9.4590803e-07 2.2505683e-06 
-1.7862341e-07 -1.7787666e-07 1.3081120e-07 
-3.4646106e-07 1.7156792e-08 -2.6317250e-06 
3.5754684e-07 4.2694737e-07 1.0195188e-06 
-3.6469508e-08 -4.9820648e-07 -3.3427614e-07 
-2.2446509e-08 2.6755529e-07 -6.7405620e-07 
-3.3256549e-07 -4.6404458e-07 -1.7246485e-06 
1.3948201e-07 2.7929926e-07 1.9279521e-06 
4.5874793e-07 -5.8389338e-07 2.4631654e-06 
-5.6105580e-07 4.7386447e-08 -2.2081513e-06 
-1.1990299e-07 8.0007574e-08 -3.6948970e-07 
-2.5359867e-07 7.7024609e-08 8.3402676e-07 
-1.6945069e-07 -7.2420261e-07 5.4380116e-06 
-9.3790327e-08 -1.1023960e-07 8.3221543e-08 
-3.5105265e-07 6.0428420e-07 5.0117330e-07 
-1.6929742e-07 1.3781911e-07 3.1029053e-06 
-1.0135948e-06 -3.0906759e-07 -4.6188470e-06 
-5.9808748e-08 -1.7738407e-07 -2.9940959e-06 
2.0752839e-07 1.3407505e-07 1.5064733e-06 
1.9013916e-07 -4.7276134e-07 3.0872118e-06 
-3.4861094e-07 -2.0782551e-07 9.1277661e-07 
8.4896293e-08 -3.4379670e-07 8.1684846e-08 
1.5879244e-06 2.1718988e-06 2.7922613e-06 
3.9238435e-07 7.4614678e-07 -2.8647689e-06 
-2.3846513e-07 -7.0614568e-08 -1.1518994e-06 
4.9242431e-07 -3.0045979e-07 -4.1079204e-07 
2.6508380e-07 -2.1799109e-07 -4.7403580e-07 
4.1824944e-07 -7.0034439e-08 -4.5881265e-07 
-3.8838795e-07 -1.6500462e-07 8.5663771e-07 
-7.6679711e-09 2.4196476e-07 6.7430398e-07 
-7.9480657e-07 5.1660942e-07 -2.4015148e-06 
3.7771494e-07 -2.0906496e-07 3.3825088e-06 
-7.6084007e-08 -2.8569869e-07 1.8668090e-06 
2.5352739e-07 -3.1990973e-07 -4.1506547e-07 
-1.9058815e-07 2.0815446e-07 -3.2441383e-07 
2.5475299e-07 -1.3802509e-07 5.5728896e-07 
-1.3532061e-06 1.2825092e-06 -3.5549519e-06 
-5.8303659e-08 -1.8903246e-07 -1.8561923e-07 
-4.6305644e-08 -1.0968633e-07 1.4031410e-06 
9.5481099e-08 -4.6337556e-07 7.6848846e-07 
-7.8414928e-07 -5.6625731e-07 -3.9211709e-06 
1.5549814e-08 -1.2572114e-07 5.0604694e-06 
6.0104901e-07 5.8595788e-07 -8.6719848e-07 
-1.3739576e-07 7.1826840e-08 -9.4655485e-07 
9.4950614e-08 -1.5931343e-08 -7.0928415e-08 
1.0043308e-06 -5.4510286e-07 -4.7461816e-07 
5.2406256e-07 6.9960419e-07 2.3757552e-06 
-3.2021092e-07 -9.7686879e-08 -4.7415324e-07 
-1.1540364e-07 -2.4589584e-08 -1.7722521e-06 
-1.5692444e-07 7.5029624e-07 -3.3286194e-06 
-4.6547478e-07 -5.3948526e-07 5.5853684e-07 
4.1161792e-07 -9.0087390e-08 5.5183918e-06 
-1.0243555e-07 -3.1522671e-07 3.5520318e-06 
4.7017454e-07 3.5309728e-07 -9.5435453e-08 
-3.2480975e-07 -5.4464341e-08 2.0634100e-06 
-3.9655819e-07 -3.1245338e-07 -2.5913432e-06 
8.7845882e-07 8.3761887e-07 -2.8299123e-06 
-4.4625065e-07 -2.5056769e-07 -1.7679699e-07 
-6.3419876e-08 -6.1311266e-07 -1.9914075e-06 
5.8652392e-07 5.5536543e-07 6.9549094e-07 
-9.0111683e-08 5.2512597e-08 -9.9378519e-07 
-4.3475396e-08 8.2588315e-08 4.8136243e-08 
-2.2630138e-07 6.6595717e-08 -5.8351088e-06 
4.4805211e-07 -2.1238793e-07 -6.8268145e-07 
-2.6408978e-07 -1.0649378e-07 2.8265447e-06 
-1.3104062e-06 6.5672799e-07 -6.2328904e-06 
-5.4316683e-07 -3.8345871e-07 9.4093116e-07 
-1.0004912e-06 -6.9956587e-07 -5.2688433e-06 
6.8503562e-07 5.0416054e-07 3.7813011e-06 
-2.0905918e-07 -3.4486558e-07 1.7449074e-07 
4.5792410e-07 1.2115872e-07 -2.8423844e-06 
5.2782343e-07 -1.5241267e-07 -3.9622569e-06 
2.7900191e-07 -1.1033649e-07 2.9751623e-06 
-4.3989382e-07 -2.3932029e-07 2.2483423e-06 
-1.2440321e-07 4.7375693e-08 1.1436019e-07 
7.3534233e-07 1.1584210e-07 -4.1515423e-06 
-1.1347768e-06 -4.5930312e-07 1.3611522e-06 
6.8473412e-07 8.9349231e-07 1.9872409e-06 
-7.3386971e-08 7.7209926e-08 -8.9308463e-09 
1.8231010e-06 1.2450322e-07 5.0413269e-06 
2.6214440e-07 1.9231547e-07 -5.6419440e-06 
-7.6373922e-08 1.7215521e-07 1.3801866e-06 
3.1400813e-07 4.1066636e-07 -7.3060181e-07 
5.4394189e-07 -7.0450380e-07 7.9583042e-06 
4.6364275e-07 -1.2884472e-07 1.2573471e-08 
3.3921026e-07 -1.2946202e-07 -7.8556542e-07 
-5.3411469e-07 -6.2796488e-08 -7.1488779e-07 
-4.0743737e-07 -5.6938137e-07 3.1101833e-06 
9.6330893e-08 4.4516727e-07 -1.3417806e-06 
-7.5055084e-08 -1.6637999e-07 4.8811330e-07 
9.3717927e-07 9.0844048e-07 3.0468914e-06 
1.5005272e-06 6.8393041e-07 3.0014839e-06 
4.9952627e-07 4.4261375e-07 -2.2987277e-07 
-5.2837044e-07 9.3033712e-08 -1.1025070e-06 
-6.5436660e-07 -1.7045785e-06 4.4417112e-07 
-2.7642434e-07 -1.8282826e-07 1.7102976e-06 
-4.0591448e-07 3.6819110e-08 -9.8951330e-07 
-1.3099861e-06 -8.1521455e-07 -2.6571740e-06 
1.3823467e-09 6.0658056e-07 -3.7142937e-07 
-5.1025643e-07 -1.3962129e-07 -1.2254520e-06 
2.7989884e-07 6.1067190e-08 4.6379628e-06 
4.7285099e-08 -3.6936708e-08 5.4800000e-07 
1.1952831e-06 9.3993066e-07 -1.0561582e-06 
1.1325059e-07 -9.2272501e-08 -5.1543047e-06 
6.6383222e-07 1.1311424e-07 1.5804836e-06 
4.6016964e-08 -3.1007986e-08 9.0589218e-08 
-2.4299948e-07 -2.8333002e-07 6.4073799e-07 
-9.9187019e-08 1.3702989e-07 -1.5880853e-06 
2.7314249e-07 6.1552697e-08 -9.9002864e-07 
-1.3959736e-07 -5.8493498e-07 -6.6513923e-07 
-7.4994114e-07 2.4034057e-07 1.5908398e-08 
3.9692544e-08 2.1549494e-07 -9.4255711e-07 
-6.9304303e-07 -1.0668710e-07 -2.0439331e-06 
-5.0677755e-08 6.2210268e-07 -3.0068629e-06 
-2.4403465e-07 -2.8267806e-07 -3.9028414e-06 
1.0894855e-07 6.1668196e-08 -7.0922692e-07 
8.1543823e-07 3.8175514e-07 -7.1372727e-07 
-4.6726527e-07 -3.7912380e-07 -1.1160078e-06 
-5.8410455e-07 -1.9810480e-07 5.2739335e-07 
-1.4467651e-07 1.9272949e-08 -2.1771057e-06 
3.2217466e-07 -9.7593276e-09 6.1093641e-07 
-7.0487772e-07 2.6144107e-07 2.3331361e-06 
-5.6547762e-08 -4.1986912e-09 -9.5858617e-08 
9.8408805e-07 2.8621804e-07 2.1607684e-06 
3.3527957e-07 -7.2538830e-07 6.5360723e-06 
3.3206086e-07 2.1325697e-09 1.6688530e-07 
-1.3625285e-07 -4.7719016e-07 1.1184979e-06 
8.2905052e-07 3.5520148e-07 3.0651870e-06 
9.7725859e-08 4.6450273e-07 -7.4444597e-07 
-8.6414033e-08 4.5630384e-07 4.4160791e-07 
-3.0169369e-07 -2.2977758e-07 1.1105765e-06 
-5.8598590e-07 7.1517242e-08 1.9220219e-07 
-4.3975735e-08 3.9924970e-07 1.5103727e-07 
3.5579825e-07 -5.0433493e-07 3.1390293e-06 
8.4595251e-07 -3.3422033e-08 -1.1586100e-06 
-3.2838517e-07 5.1495668e-08 -1.7499266e-07 
4.4681080e-08 -2.0260892e-08 -6.3831784e-08 
-9.3833449e-07 7.9160444e-08 -2.8789170e-06 
-5.7072282e-07 -3.0600503e-07 1.2475825e-06 
1.8167890e-07 4.7786460e-07 1.2714132e-09 
1.0604789e-07 -3.8579094e-07 1.1404935e-06 
-2.1179959e-07 -1.0448809e-07 5.5863632e-07 
-2.0698556e-08 -1.1836356e-07 -2.3059943e-07 
7.0372813e-08 3.7464952e-07 -5.0957979e-06 
4.2144032e-07 5.4463857e-07 -2.7023684e-06 
-1.3133403e-07 -2.0893211e-07 5.0460312e-07 
1.4143005e-08 -3.6581343e-07 1.8451747e-06 
-4.1717541e-07 9.0590788e-08 6.4784278e-10 
-3.0979155e-08 1.0294399e-07 1.6179338e-06 
-9.4305186e-08 7.1209492e-08 -3.1718406e-07 
3.8252759e-07 1.9356129e-07 3.9982410e-06 
-1.1666892e-06 -3.3163263e-07 -1.0060110e-06 
1.1516772e-07 -9.0363184e-09 -2.7997894e-06 
-5.0230619e-07 -3.2263074e-07 -2.5942002e-06 
4.7807077e-07 5.6687321e-07 2.8147133e-07 
1.8329587e-08 2.1244036e-07 1.4286007e-06 
-2.7210264e-08 4.3423609e-07 -1.8943118e-07 
1.2756036e-07 1.1561388e-07 -1.3796648e-06 
3.2170686e-07 -2.2064407e-07 -9.0616112e-07 
1.6678759e-07 -2.0813252e-07 -9.4079496e-07 
-2.0575807e-07 -8.2955687e-08 4.8781590e-07 
5.2154277e-08 -1.4556365e-07 5.7051000e-08 
-6.7744580e-08 1.3272884e-07 3.3742711e-07 
-3.7728526e-08 -1.2171409e-07 1.1361249e-07 
7.7959669e-07 -1.3490279e-08 -1.5282002e-06 
7.7131247e-08 -9.2993574e-08 6.4654108e-07 
3.7352891e-08 1.0367466e-07 -8.2734822e-08 
4.2608420e-08 -1.4759358e-07 -7.1178971e-07 
3.6880942e-07 -2.6869102e-09 2.2251969e-07 
8.4887532e-08 -1.3923956e-07 -9.1771955e-07 
-3.1789176e-07 -1.8314677e-07 6.8375164e-07 
3.5860158e-08 -2.5906367e-08 5.0239345e-07 
3.8901302e-07 -6.3318403e-08 1.9757274e-06 
3.4749965e-07 9.3865019e-08 7.3766182e-07 
-9.2126534e-08 1.7001175e-07 7.7350549e-08 
3.7531198e-08 2.0821848e-07 2.0304255e-06 
-7.7920326e-08 -1.4739318e-07 3.1332959e-07 
-1.1179664e-07 3.9800469e-08 3.0690398e-06 
-4.8781527e-07 1.5459671e-07 -8.6706422e-07 
3.1967325e-08 -2.2315804e-07 -2.5002187e-06 
1.6224220e-07 2.7224697e-08 2.4383365e-07 
1.4474001e-07 1.7916318e-07 -1.0080175e-06 
1.2354306e-07 -1.7120874e-07 -1.1988602e-07 
-4.7824287e-08 -9.9725689e-08 1.7586246e-06 
-2.9725490e-07 -1.2759384e-07 -9.1444991e-07 
3.8207250e-07 -4.9502955e-07 2.4290612e-06 
1.3267720e-07 1.5198722e-07 4.8373810e-08 
-2.8313136e-07 -2.3555332e-07 -1.0783024e-06 
-7.4322614e-08 1.8776650e-07 1.9947520e-07 
-8.5019622e-08 1.0891250e-07 -3.2960008e-07 
-1.2510453e-07 -1.3285822e-07 -7.8595156e-07 
-2.6594032e-07 -2.6889074e-07 -3.0075200e-06 
4.8813571e-09 -5.6863897e-08 5.0919148e-08 
2.7249758e-09 1.6503218e-07 1.3410001e-06 
-1.5561281e-07 -2.8417002e-09 1.7381171e-07 
1.1757794e-07 1.0283526e-08 8.0472034e-07 
7.1269028e-08 -1.7881341e-07 -2.0817090e-09 
-1.3931184e-07 -7.0416235e-08 -4.1341229e-07 
-2.1903915e-07 3.3832936e-07 -7.2824093e-08 
-9.9944920e-08 -1.0862323e-07 1.1388408e-07 
-8.8163588e-08 -3.5916116e-08 -3.1850780e-06 
7.8472659e-08 2.1683861e-07 8.4093375e-07 
-1.3353066e-06 -4.5276641e-07 -1.6142164e-06 
1.5624614e-07 -3.7807766e-09 7.5879291e-07 
1.8169338e-07 -1.6008754e-07 -5.5083808e-07 
-9.0801883e-08 -4.2148063e-08 -4.3816812e-08 
-2.1648000e-07 -6.6610141e-08 -2.1835863e-06 
1.0435921e-08 -1.0262200e-07 -2.0925309e-07 
1.3056349e-07 3.8017184e-08 2.2455954e-06 
2.7425222e-07 2.8889696e-07 2.4270771e-06 
3.7924164e-07 1.1666493e-07 -1.1904112e-06 
3.4828184e-07 -9.8503229e-08 2.0434475e-06 
-2.9154941e-07 -1.8775968e-07 8.1376680e-07 
1.1639635e-08 9.2241606e-08 1.2290413e-06 
-8.8123500e-07 -9.9591432e-08 -2.7888930e-06 
-8.4521517e-08 -1.6612435e-07 -3.8159484e-08 
4.3861604e-08 8.5747345e-08 5.8368045e-07 
1.5869533e-07 -1.5549763e-07 7.8666119e-07 
1.9132024e-07 -1.3254179e-07 7.6382314e-08 
1.4125958e-07 -3.5641301e-07 2.3736159e-06 
2.6361371e-07 8.3298715e-08 -7.4494352e-07 
7.7856612e-08 3.9891475e-08 -7.6197878e-08 
7.8655923e-08 1.9212283e-07 6.1000651e-07 
-2.0974509e-08 2.0754964e-08 9.9352837e-07 
1.6983989e-07 1.4973607e-07 6.5535085e-07 
-3.5396658e-07 4.7002501e-07 1.3928902e-06 
3.9840518e-07 1.8342560e-07 -1.2141859e-06 
8.7642498e-08 5.7697100e-08 -9.5993222e-08 
-4.5115473e-07 1.6586448e-08 5.3663638e-07 
-7.8672883e-08 -1.0459662e-08 2.9400707e-07 
-3.4762562e-07 -1.1671229e-07 -1.4548269e-07 
-3.4327513e-08 -1.1809349e-07 -8.3334140e-07 
2.0479728e-08 2.3274769e-08 -9.4342636e-07 
-2.5845409e-07 -5.9776688e-08 2.2301256e-06 
6.0171104e-08 2.8691545e-08 -4.7829849e-07 
-6.7430506e-07 -1.8107393e-07 -2.7780504e-06 
8.7360419e-08 1.3325439e-07 -7.9988695e-07 
4.9814258e-07 -2.3786441e-07 -2.5860836e-06 
3.5737347e-07 5.6214088e-07 -4.0679558e-07 
1.3233006e-07 -3.9190951e-07 -3.0404055e-07 
-2.2261149e-07 -3.6271464e-07 -5.9376607e-08 
-3.9774184e-07 -4.6140764e-07 -4.3353202e-06 
2.0305630e-07 -7.0851435e-08 -1.4490920e-06 
-4.8271295e-07 -8.9823409e-08 7.1360643e-07 
3.8070560e-08 5.2731474e-07 7.2586872e-08 
-1.1449215e-07 -7.4480909e-07 -8.5564329e-07 
9.0044331e-08 -2.8675407e-08 -2.7094845e-07 
1.7410969e-07 4.9808779e-09 1.1863455e-07 
-4.6715761e-07 2.9507333e-07 -2.5018278e-07 
-1.5198871e-07 -2.5770291e-07 7.4863442e-07 
9.2372929e-08 1.5451360e-07 -2.5086180e-07 
-5.4647131e-07 -4.5699764e-09 1.3451316e-06 
1.8883485e-07 3.8398542e-07 5.6666994e-07 
2.3674875e-08 -8.4737096e-08 -2.5090765e-07 
2.6870788e-07 -2.5147944e-08 -1.6265931e-06 
-1.0028930e-07 2.7949307e-07 5.5334124e-07 
-1.7293686e-07 -1.7269537e-07 1.8333347e-07 
3.0496281e-07 -2.8327941e-07 -6.2222762e-07 
1.2430850e-07 -3.5045394e-07 4.8684359e-07 
-1.1903280e-07 1.6928729e-07 1.2110720e-06 
5.6915272e-09 2.4396092e-08 -3.8373816e-08 
8.2094225e-09 3.0687588e-08 -2.1404885e-06 
2.9830633e-07 5.3917330e-07 1.9145029e-06 
1.3352313e-06 1.3308178e-06 4.1822846e-06 
-3.8034969e-07 7.2032815e-09 4.3780423e-07 
2.8462367e-08 -1.3957364e-07 1.7437039e-06 
1.1490398e-07 -2.9675892e-08 4.0917573e-07 
4.7588284e-07 -7.1752005e-08 1.9086369e-06 
1.0759003e-07 7.2734657e-08 1.3865343e-07 
-1.0938441e-08 -8.1119921e-08 -7.3396656e-08 
-1.4503135e-07 2.0343671e-07 8.4281481e-07 
-7.8471274e-08 2.0053704e-08 -8.4595865e-07 
-1.3948595e-07 7.1372682e-08 -5.7507299e-07 
-1.1344812e-07 -3.6809857e-07 -4.4094128e-07 
-1.2359217e-07 -1.2563726e-07 1.9760721e-06 
3.5768430e-08 1.1893923e-07 1.5448740e-06 
1.5047844e-07 -1.9074282e-07 -7.4593260e-08 
1.8041790e-07 5.1528264e-07 2.9284831e-07 
-3.9272740e-07 -3.4791594e-07 7.5447872e-07 
-3.9919268e-08 1.8305725e-07 1.3505334e-07 
3.5091055e-08 -4.4878938e-08 4.0507729e-07 
-1.2189808e-07 9.2363983e-08 2.9236489e-09 
-3.1759811e-07 -2.0268455e-07 1.6145544e-06 
3.9170652e-07 -2.7283460e-07 -2.4539902e-06 
-3.2022811e-07 -1.6948276e-07 5.9116377e-07 
-6.1512037e-07 -8.1811800e-07 -2.7407307e-06 
2.5750543e-07 8.4239126e-08 1.9688019e-07 
-7.1750357e-08 -2.0242092e-07 -1.2263973e-06 
-1.4370644e-07 -9.8009416e-08 -1.0945325e-06 
-1.7492778e-07 3.6290686e-07 -1.4810070e-06 
3.4432367e-07 -1.4777014e-07 3.8777316e-07 
-6.8906623e-08 -2.2234573e-07 2.0497368e-06 
-9.2063559e-08 4.6682281e-08 -5.7229295e-07 
-3.0641353e-08 -7.5872379e-08 -7.8681637e-08 
9.3826280e-08 5.4961339e-07 -1.4464435e-06 
4.4203130e-08 2.7769892e-07 -3.5970476e-07 
1.0152984e-07 7.5665156e-08 7.1296824e-07 
5.3091208e-07 3.9636456e-07 -1.0793760e-06 
-2.1615030e-07 -2.9282782e-07 2.0061568e-06 
-6.5370223e-08 -1.7176049e-08 -1.0971099e-06 
-5.5338614e-08 -8.7820233e-08 5.8667280e-07 
3.6325829e-08 4.6363076e-07 1.4312170e-06 
2.5711790e-07 6.1299140e-08 1.6188673e-07 
-3.1246782e-07 1.3881228e-08 -1.2181945e-06 
-2.6404570e-07 -7.6839331e-07 -3.0565670e-06 
1.3245678e-07 6.7116355e-07 2.7657500e-06 
2.6069907e-07 1.0252219e-08 -1.0809428e-06 
9.3428106e-08 -4.1471949e-08 5.8787919e-07 
-5.1584453e-07 7.6373198e-08 -4.8895449e-06 
-1.1735331e-07 -1.1891997e-07 9.1276502e-07 
2.7547327e-07 6.8502558e-08 2.4862715e-07 
-4.3906354e-08 -4.9797490e-07 -1.3934693e-06 
4.2865574e-07 5.0689181e-07 2.7772621e-06 
-1.0426857e-07 4.3933770e-07 1.0849999e-06 
-2.1276760e-07 4.7249760e-08 5.6167192e-07 
4.5313945e-07 4.2572051e-07 4.4686129e-07 
-7.8627780e-09 -2.3174428e-07 -3.0011296e-07 
-1.1852936e-07 -3.0476667e-07 -5.1652995e-07 
8.7379227e-08 -4.6093658e-07 1.1667003e-06 
1.1738662e-07 -4.3723126e-08 -1.1926008e-07 
2.9544384e-07 1.2689662e-07 5.3636973e-07 
3.6349377e-07 -3.7857532e-07 1.1681761e-06 
-2.9879018e-08 3.9523375e-08 4.3470561e-07 
-1.2029758e-08 -7.7887679e-09 -2.7764443e-07 
9.2049686e-07 4.6690127e-07 4.7850144e-06 
5.7537896e-08 4.0318511e-07 1.8507964e-06 
-4.8504631e-07 1.9552073e-07 -1.4562139e-06 
-4.5242196e-08 4.2664885e-07 -1.1631680e-06 
-4.6136302e-07 -6.1938931e-07 -9.0464329e-07 
-7.4998702e-08 8.4599286e-08 9.6304404e-08 
9.6661054e-08 -6.4979844e-07 -1.3221951e-06 
-6.9306708e-07 -2.3750074e-07 -2.0358577e-06 
5.0367487e-07 1.1780178e-07 -1.9562974e-06 
1.5546314e-07 -7.9281875e-08 3.2971644e-07 
-2.6075543e-07 -1.6669258e-08 2.1261567e-06 
-3.0846158e-07 -2.4620459e-08 1.4126928e-07 
9.3971302e-08 1.6402420e-07 2.7249700e-07 
-5.3752177e-07 2.3428271e-07 2.7164674e-06 
1.8027002e-08 6.6649392e-08 -3.0248606e-07 
3.5671701e-07 -1.5367037e-07 7.4815841e-07 
5.1433631e-08 1.2168184e-07 -2.3219222e-06 
1.0959426e-06 -3.7400056e-07 -4.3623018e-06 
5.2271755e-08 7.2264839e-08 -4.2081119e-06 
-4.3733444e-08 1.4553784e-07 -6.6336696e-09 
1.5413541e-07 2.9908853e-07 -1.3807255e-06 
4.9152180e-07 2.6829872e-07 7.5909878e-07 
1.2192122e-07 3.5720767e-08 1.6275987e-07 
5.5241435e-07 1.7190483e-07 2.2150634e-06 
-3.3827021e-07 -1.7851131e-07 -4.6116142e-07 
1.5209558e-07 -1.1519961e-07 5.5744948e-07 
3.3501383e-08 5.2157412e-07 -1.1671132e-06 
-9.5157688e-08 -2.5045358e-07 -2.1346641e-06 
1.0576249e-07 5.1068014e-08 -3.3512229e-08 
1.7965090e-07 2.3054500e-07 7.0047815e-07 
5.5514253e-08 1.4095065e-08 3.8925089e-07 
2.0481988e-07 6.1510769e-07 -9.0764793e-08 
-2.2758829e-07 2.7290309e-08 -4.6006303e-07 
-7.8762895e-08 -2.6335985e-07 3.0974368e-07 
8.4541732e-08 -2.1753098e-07 9.1754949e-08 
-9.5389808e-08 -3.3449112e-07 2.0112873e-07 
1.5559499e-07 -1.1457107e-07 -7.3571749e-07 
9.6771245e-08 1.8105249e-07 -2.2104386e-07 
-3.6451482e-07 -1.9915485e-07 1.1660803e-07 
1.7654108e-07 8.7279183e-08 -9.2333340e-07 
-4.8106290e-07 5.1784980e-07 5.0132248e-06 
-2.8238870e-07 -2.5667106e-08 5.3418057e-06 
3.4829361e-07 -6.6241449e-07 9.8151372e-07 
-4.3900781e-07 2.6904860e-07 8.1766700e-07 
-1.2166610e-06 5.7733516e-09 -2.8481800e-06 
-5.0250276e-07 -4.8913859e-07 3.9467950e-06 
3.5353489e-07 -4.1114018e-07 1.2008959e-06 
3.7090285e-08 -4.4338485e-08 -1.9715571e-06 
-3.7924144e-07 -8.4366457e-07 -3.3845570e-06 
1.2816056e-07 -2.3442833e-07 -1.3469981e-06 
-1.1558765e-07 1.4205729e-07 -9.9724832e-07 
-9.1024822e-07 -4.6561971e-07 1.5492451e-06 
1.0335297e-07 -1.3586696e-07 -4.2461707e-07 
6.4995265e-07 5.9136556e-07 1.2473410e-07 
1.1879117e-07 4.2767013e-08 -1.0911401e-06 
2.3533397e-07 3.3035082e-07 -1.6916249e-06 
3.8544389e-08 2.6907269e-08 2.6185560e-09 
4.9387143e-07 5.1046499e-07 9.4230813e-07 
1.8971047e-08 -1.6269384e-08 -1.4750455e-07 
-4.9705682e-07 1.8040093e-07 1.1507630e-06 
5.2548410e-07 -1.3458816e-09 -3.9850315e-06 
-1.1668958e-07 7.5362641e-07 9.1823148e-07 
6.9766406e-07 3.2726331e-07 -1.2565725e-06 
1.1183320e-07 -1.3534364e-07 -3.5955200e-08 
4.1040795e-07 2.3228574e-07 1.7381702e-06 
1.1475365e-08 -9.8854876e-08 1.4240804e-06 
-3.6051895e-07 5.2789797e-08 -1.5901699e-06 
6.0547428e-08 2.5921521e-08 1.7150661e-06 
3.1250860e-07 -1.3083516e-07 1.5066862e-06 
2.3040248e-07 1.5672116e-07 1.0634055e-06 
1.4820483e-07 2.3408809e-08 4.7908759e-07 
1.3428068e-07 -2.7757451e-07 -4.8778156e-06 
-1.6169727e-07 5.8337672e-08 -1.8604180e-09 
-3.8191797e-07 1.0631594e-07 2.2486472e-06 
2.1969595e-07 1.3223890e-08 1.1697069e-06 
-9.3666486e-08 -3.0749598e-07 -6.5634930e-07 
-6.4732220e-08 5.4652659e-08 -2.2983133e-07 
-4.5004896e-07 4.7769426e-08 -2.7275919e-06 
3.2973458e-07 3.2121952e-07 1.3124693e-06 
-1.9569067e-07 -2.5209616e-07 1.2864219e-06 
1.4628417e-07 2.5469598e-07 -9.8400881e-07 
1.6036553e-08 1.2277127e-07 4.2912379e-07 
1.8120329e-07 4.6993765e-07 -2.3209013e-06 
-1.5068558e-07 -4.4890367e-09 -1.4115725e-06 
-3.3875914e-08 -1.0981458e-07 -2.8046650e-06 
-2.7797778e-08 -7.0736490e-08 1.0765026e-06 
3.9060205e-07 -4.8802195e-07 3.9783367e-06 
-1.0088170e-07 -1.0133354e-07 -4.5364627e-07 
-5.4771341e-08 -1.5797077e-08 -1.5540033e-07 
-8.0616715e-08 3.4370541e-07 -2.6088449e-06 
6.1853314e-08 -5.0893355e-08 3.3461532e-08 
-2.3812790e-07 -2.9974336e-07 -9.0123956e-07 
5.7860099e-08 2.7859053e-07 9.9180959e-08 
1.0539723e-07 5.4315642e-08 1.1777635e-06 
-3.3119943e-07 -7.9384114e-07 4.6116625e-06 
1.8672584e-07 3.7002320e-07 6.6719230e-07 
6.4349429e-08 1.3829197e-07 1.6507946e-07 
2.5162959e-07 -3.3975599e-07 -1.6489448e-06 
7.2113963e-08 8.7882206e-08 -1.0665145e-06 
-7.2719075e-08 -1.2088766e-07 -8.5918981e-07 
-1.8393324e-07 -2.4193315e-07 1.8265787e-06 
-4.3947009e-07 2.7543055e-07 -1.1681789e-06 
2.3058595e-07 1.8207734e-07 2.1916142e-06 
3.8870105e-08 -6.5371644e-08 -9.3969753e-08 
-9.3217295e-07 -3.7168678e-07 1.3243040e-06 
7.6002522e-07 -4.8663105e-07 -1.6538722e-07 
8.3117463e-08 1.7030537e-07 -3.5625451e-06 
-1.8984331e-08 1.3642421e-08 1.2080387e-06 
5.5566094e-08 -4.5011967e-07 1.7699398e-06 
-4.3114332e-07 -2.3500107e-07 -4.5749746e-07 
-1.5333731e-07 2.8351312e-08 -5.1027587e-07 
-4.4870839e-07 -1.8832077e-07 1.0388061e-06 
-7.6643580e-09 -2.0752427e-07 4.4964310e-07 
-1.5466615e-07 4.6234277e-08 -6.3313706e-08 
-9.8333764e-08 -1.6022813e-07 8.7228642e-08 
5.2481602e-07 6.4266658e-07 -3.0892168e-06 
1.7999028e-07 -2.1019505e-07 1.3216393e-06 
-2.2792972e-07 3.7332828e-07 1.4954946e-06 
-2.9190176e-07 -1.1803493e-07 -6.3188861e-07 
8.5076252e-08 2.5056570e-08 -1.9016909e-07 
-3.3712879e-09 3.3945284e-07 -6.0445451e-08 
-3.3345525e-08 -3.2594848e-08 -2.0314761e-07 
3.1965499e-07 5.7610023e-09 1.2140102e-06 
-8.0594383e-08 1.7569516e-08 -3.1196274e-07 
-2.7040664e-07 -1.8679555e-07 2.5486493e-06 
-2.1029372e-07 3.2430842e-07 1.1749435e-07 
2.3962224e-07 -6.7497290e-08 -1.9116101e-06 
6.7871900e-07 3.2531892e-07 -2.5396585e-06 
2.1776566e-07 7.6990730e-08 4.1877989e-08 
-7.0442265e-09 2.0337163e-07 -5.5406602e-08 
-6.1529795e-07 -1.6892540e-07 2.2329937e-06 
-7.5148404e-07 1.6185803e-07 9.5632686e-07 
-4.9124587e-08 -2.0879307e-07 5.1135149e-08 
-4.7319563e-07 -6.8698193e-07 9.1087156e-07 
2.3270182e-07 -1.4239247e-08 9.0353689e-07 
1.1209610e-07 -2.8442599e-09 -2.6388811e-06 
7.8175177e-08 1.3574328e-07 -8.0860161e-07 
-1.0083461e-07 2.1508610e-07 3.9291737e-07 
-1.7384698e-08 -1.3074964e-07 2.3327104e-08 
2.2446127e-08 -1.1520726e-07 -2.7275889e-06 
2.5445937e-07 -8.0767045e-08 8.1972075e-07 
1.7458814e-07 2.4291504e-07 5.1988371e-07 
-2.7561987e-07 6.8315281e-08 -2.4603667e-06 
-5.7636259e-07 -4.0739785e-08 -2.0371669e-09 
-6.4797860e-08 1.9998598e-07 3.1679355e-07 
2.9669323e-07 1.0068102e-07 6.7589741e-07 
-1.2109973e-08 -5.9841376e-08 3.7017492e-07 
2.7760495e-07 3.4962085e-08 1.0859055e-06 
3.6208604e-07 -3.6306034e-08 -4.6645067e-07 
2.1370495e-07 1.4538288e-07 -8.8352046e-08 
-4.6447954e-07 -5.2413753e-07 5.2823378e-07 
9.4948518e-08 -2.1719455e-07 3.7629692e-07 
-2.0039465e-07 -2.1644762e-08 1.1922778e-06 
6.4236269e-07 6.3809921e-08 1.1403647e-07 
-1.3889877e-07 -2.3837504e-07 -1.2257598e-06 
-2.9053391e-08 1.1155541e-07 5.0824735e-07 
2.3036044e-08 5.2552974e-08 -1.4790182e-07 
7.5743480e-07 5.0029291e-07 2.4406229e-06 
-4.2070121e-07 1.8594188e-08 -9.8240241e-07 
1.1004113e-07 1.5185479e-07 -4.5911557e-07 
-4.0856705e-07 -3.4945245e-07 -2.6687828e-06 
5.7360488e-08 -7.0815084e-08 9.9651083e-07 
5.1761310e-07 1.5304495e-07 1.3519001e-06 
-6.8201736e-08 -4.1139693e-08 -9.2509254e-07 
2.4677274e-07 1.7937518e-07 4.5139950e-07 
3.9251046e-07 -3.5208836e-07 -2.2116114e-07 
-1.7629854e-07 -1.5418942e-07 1.2862749e-06 
-1.7800107e-07 -1.6338791e-07 -2.6556661e-06 
-1.1031002e-07 2.6155126e-07 -2.1912457e-07 
-6.9176586e-08 -4.9922637e-08 -2.6382833e-07 
-1.6984302e-07 6.9729715e-08 -6.2892002e-07 
7.9148990e-08 -7.3245992e-08 -1.4142194e-07 
1.1271405e-07 -1.7626666e-08 5.1149382e-08 
-9.5658727e-08 -1.3278694e-08 -9.3986458e-08 
-6.0197110e-08 -4.0561289e-08 -8.1226295e-07 
-2.7056819e-07 -2.8151428e-07 -1.2896255e-06 
-4.0497714e-08 -1.3221704e-07 6.0964203e-07 
-7.0191714e-07 -5.8248023e-08 4.0854059e-07 
-5.6430562e-08 3.5499905e-09 2.8865759e-07 
2.7749240e-07 -8.1375475e-08 1.5343008e-07 
3.5342518e-07 5.2636528e-07 -1.0956779e-06 
-5.2053483e-08 -3.7972036e-08 2.3949258e-07 
5.1100488e-07 6.6793137e-07 -4.1299090e-06 
2.0396450e-07 7.6561184e-07 3.0734491e-06 
1.8031295e-07 3.9818055e-08 1.2450784e-06 
-1.1176826e-07 -8.2795211e-08 1.0360623e-07 
2.0163431e-07 -3.3883214e-07 2.0001701e-06 
-8.4293035e-08 2.5653362e-08 8.7113631e-07 
9.2916906e-08 -1.3661862e-07 -7.6915222e-07 
-2.3828441e-07 -2.8322540e-07 7.5202536e-07 
-3.8023234e-07 1.0220486e-07 -1.3486206e-06 
-2.8431353e-07 -2.7991007e-07 -3.7016849e-07 
3.5559733e-09 -1.0162097e-07 -3.3480242e-07 
-7.0131314e-08 1.7468379e-07 -5.0621918e-07 
-1.3784198e-07 -1.5650599e-07 -3.9174026e-08 
-3.3786580e-07 -2.2671354e-07 -1.0606266e-06 
-4.7769009e-07 -3.2617399e-07 -1.4116575e-06 
1.8866979e-07 5.0285550e-08 -3.9450691e-07 
1.3508580e-07 -1.4412619e-07 2.6893098e-08 
-2.6579536e-07 -3.1759049e-07 4.3553200e-06 
-1.0131949e-09 1.5209524e-07 -2.1156399e-07 
9.8110107e-08 1.3995660e-07 1.2631574e-07 
-1.6707563e-07 1.0077250e-07 -5.1837560e-07 
-2.2939534e-07 3.9409993e-08 2.7422854e-07 
2.0578408e-07 -1.2707814e-08 1.0799037e-06 
-8.1333354e-08 -3.9600462e-08 -1.3188316e-06 
-5.6766697e-07 2.6547147e-07 3.0586448e-06 
-7.6486266e-08 -6.7489907e-08 8.1869501e-07 
-1.5863549e-07 -5.0611095e-07 -1.1295149e-06 
6.4170655e-07 -3.3067062e-07 -2.7427100e-06 
5.7067155e-07 1.7737847e-09 1.9342865e-06 
1.6309926e-07 2.2748908e-07 1.4395184e-06 
2.5109301e-08 -1.8008474e-07 -8.5333591e-07 
8.4605801e-08 3.3542999e-08 1.0169978e-08 
-1.1392566e-07 -4.1679817e-07 -6.5235758e-07 
9.6344564e-08 2.8005530e-07 8.4154044e-07 
-4.5026702e-09 3.8017827e-08 2.6243046e-07 
-6.0216325e-07 2.5274196e-07 1.5713626e-06 
-1.5736539e-07 1.6815758e-07 -1.3620549e-07 
4.0776879e-08 1.1231971e-07 1.4776832e-07 
1.9339596e-07 8.0191008e-08 1.3220332e-06 
5.4804474e-07 2.3115048e-07 8.5135395e-07 
1.7853623e-07 -2.6747654e-07 -7.5792251e-08 
2.2056987e-08 -1.5713897e-07 -9.4315288e-07 
-4.5159800e-07 -1.9627126e-07 -1.0521179e-06 
2.5685478e-07 -4.3394451e-08 1.9823879e-08 
8.4643403e-07 1.7006585e-08 7.0714981e-07 
-1.2622314e-07 -1.4564236e-08 -5.8307751e-07 
2.3597771e-07 -6.6393540e-09 5.9855319e-07 
5.6666810e-08 1.5108292e-07 -1.3055810e-06 
1.2201554e-07 2.5825113e-07 -4.8591346e-07 
-3.2552765e-07 -1.2058551e-07 -6.0940823e-07 
2.4674852e-08 1.3328190e-07 -3.7929865e-07 
-3.8810987e-07 -3.0358731e-07 -6.5178409e-07 
1.1163628e-07 6.8088980e-08 -5.9555526e-07 
-5.6084087e-08 3.2380914e-08 7.6928052e-07 
5.9429840e-07 1.5827835e-07 1.7298753e-06 
-1.4931886e-07 -2.2175945e-07 -8.0228205e-07 
7.2527662e-08 2.6891595e-07 -6.3055177e-07 
-1.6217935e-07 1.1271914e-07 7.3849925e-08 
-8.5531276e-08 1.4588780e-07 5.4142043e-07 
3.2148972e-07 5.1243779e-07 1.2186642e-06 
-2.0870630e-07 2.1813925e-08 1.1592394e-06 
-3.2258463e-08 -1.8859969e-07 8.8462065e-07 
5.0635641e-08 9.5850723e-09 1.2590364e-07 
-7.0841843e-08 -6.7929584e-08 -2.7903673e-07 
-1.4150967e-07 8.3082803e-08 1.2342299e-06 
-6.6604585e-08 8.9976695e-08 4.0648854e-07 
-2.4584901e-07 1.4164908e-07 3.6884526e-07 
1.1591781e-07 6.2629198e-08 1.1718699e-06 
2.6949743e-07 3.8419233e-07 -3.0041258e-06 
-8.2736236e-09 1.9536165e-08 -1.1830308e-06 
-5.0545914e-09 -2.3454538e-08 1.5232868e-07 
-3.2525387e-09 2.2007329e-07 -1.6013105e-06 
-9.1321354e-08 -2.3185522e-07 8.5462482e-08 
7.0380497e-07 6.6496870e-07 4.5422848e-07 
-2.6940125e-08 -1.3792715e-07 -2.5087513e-07 
3.4671515e-08 1.9804439e-07 -4.9637589e-07 
-4.9965587e-07 -7.1350348e-07 -5.8442549e-07 
-1.4018767e-07 -9.0361972e-08 1.4247698e-06 
1.4575527e-08 2.2560064e-07 -1.0919229e-06 
-3.6942981e-07 -2.0106040e-07 1.5208700e-06 
-4.4738385e-08 -1.0738620e-07 -1.3840884e-07 
1.5881334e-07 -9.6068561e-07 -3.9424517e-06 
-3.3649908e-07 -6.1110075e-07 3.1630107e-06 
7.1832460e-08 -6.2923078e-08 4.4904880e-09 
-2.5400837e-07 2.9742034e-07 -1.3055469e-06 
2.2561979e-07 -1.2398488e-08 2.4757770e-07 
-3.3326863e-09 -6.8968887e-08 -4.5679366e-07 
-5.1468186e-07 4.4111869e-07 1.9577365e-06 
-1.8331312e-07 3.3972100e-08 -1.6628474e-06 
1.6470963e-08 1.1188920e-07 2.1744918e-07 
1.8694814e-07 7.9599175e-08 1.0084559e-06 
1.0241372e-07 1.8915901e-07 -1.4277367e-06 
-2.1394435e-07 1.3188921e-07 3.1260197e-07 
-1.7454209e-07 -1.8885775e-08 -5.5275365e-07 
9.2489614e-08 2.9919761e-07 -1.6959693e-06 
1.0573109e-07 2.9728753e-09 -1.0605786e-06 
-1.3681110e-08 -2.0027628e-08 7.2721960e-08 
2.0687089e-07 1.5473766e-07 7.4546347e-07 
-3.7063182e-07 -3.3589565e-08 1.1855781e-06 
9.1870291e-08 -1.8490627e-07 4.6333855e-07 
6.2112400e-07 -3.8449065e-07 -1.5397387e-06 
5.8388331e-08 -9.5426500e-08 3.0054284e-06 
-7.4892547e-08 1.9749594e-07 -1.1820698e-06 
-8.1020637e-08 -3.3646113e-08 3.5722090e-07 
1.2199055e-07 -6.6966230e-08 -1.3136516e-06 
4.9302812e-08 -6.7627568e-08 -2.7104929e-06 
-2.0848856e-07 -1.5609447e-07 1.7606384e-06 
-5.5321827e-08 -1.2102825e-08 1.2056707e-07 
-3.2439524e-07 -2.8179613e-07 2.4652360e-07 
5.1761691e-07 2.6686509e-08 -2.0188104e-06 
-2.0828166e-08 -1.8332341e-07 -7.6973078e-07 
-1.3897643e-07 -1.9175994e-07 1.9824775e-07 
6.8740484e-08 1.7788138e-07 4.6330479e-07 
3.2499449e-07 2.3944247e-07 -8.5729943e-07 
-4.2565586e-07 -3.0374736e-07 9.0197727e-07 
4.1796466e-07 9.8873478e-08 1.2752960e-06 
3.5306121e-07 1.8517989e-07 -3.5113663e-07 
8.5586294e-08 4.6544358e-08 -5.8422029e-07 
6.3360176e-08 -5.9774223e-08 4.2181514e-07 
1.4180749e-07 6.6837870e-08 -3.1971095e-07 
-1.4972395e-07 -2.0805814e-07 -6.3952371e-07 
1.7169465e-07 -6.1238204e-08 -1.6189742e-06 
3.9531744e-07 2.6902109e-07 1.1457531e-06 
-5.2873474e-07 2.9057242e-07 1.3048041e-06 
1.8873008e-07 7.5867769e-07 -7.2597267e-08 
-8.9550063e-08 -4.4582183e-08 -3.2416290e-07 
5.5830708e-07 2.5599979e-07 2.3124328e-06 
6.9334021e-08 -1.0481068e-08 3.2927932e-07 
-2.7699707e-07 -4.7462822e-07 2.5465988e-06 
5.2246349e-09 -4.7513101e-08 -7.5287907e-08 
2.8423682e-07 1.4490086e-06 -4.6278674e-06 
-3.9263696e-08 -2.6166967e-07 2.3158250e-06 
-1.2034009e-06 -1.1908844e-06 5.4113739e-06 
9.0557805e-08 -1.5274216e-07 -7.8761775e-07 
1.0705950e-07 -1.5136891e-07 4.4837819e-07 
-1.1317361e-08 -3.8935987e-08 1.8082122e-07 
-2.0801593e-07 1.1970801e-07 7.0137810e-07 
6.6655261e-08 1.7311989e-07 9.3071208e-07 
-1.2561622e-07 1.1478389e-07 1.1410739e-06 
-5.4897004e-08 7.7683083e-08 2.0578386e-07 
1.8690125e-07 6.7143992e-07 -2.4524190e-06 
8.5050011e-08 2.7619541e-07 -2.8458322e-07 
-6.9387909e-07 -3.5539031e-07 1.4723407e-06 
-3.5220501e-07 -6.1541078e-07 2.1533979e-06 
-1.2755531e-07 -1.7146503e-07 1.4322359e-06 
-3.9796993e-07 -3.2236500e-07 2.7807710e-07 
-1.7330014e-07 -1.5298937e-07 8.5140334e-07 
2.5338940e-07 -2.2381329e-07 -1.7484369e-06 
-6.8322805e-08 -3.1408142e-08 -1.2490588e-06 
-1.4109181e-08 3.1555913e-07 8.9851582e-08 
4.3544322e-08 3.3158869e-08 2.6073752e-07 
9.4054775e-07 6.2316974e-07 -3.6243603e-06 
-2.3218178e-07 -4.4826528e-08 1.3353341e-06 
4.6069675e-07 2.4694421e-07 -5.9776585e-07 
-1.8105861e-07 1.2527833e-07 -1.6567881e-06 
-4.4211031e-08 5.1255778e-08 1.1098538e-06 
-1.5386545e-08 2.2641416e-07 -3.3575981e-07 
8.1764483e-08 -4.3212148e-07 6.0195610e-08 
3.8526062e-07 -1.7819863e-07 -7.6348653e-07 
-2.5678878e-07 -4.4660382e-08 -2.1896913e-06 
-1.8940952e-08 9.7363611e-09 3.5399322e-07 
3.1286746e-08 4.2968647e-08 -3.8950657e-07 
7.3626488e-08 5.7253629e-08 -1.2399715e-07 
4.9564261e-07 -9.4669147e-08 -3.2273385e-06 
-2.5898030e-08 -1.1191877e-07 -1.3481387e-06 
-1.7874600e-08 -7.7919218e-08 -1.2412173e-06 
-5.3098290e-07 -1.0964796e-07 6.7562263e-07 
-8.3675808e-08 -7.4768224e-07 1.4319990e-06 
-2.6645057e-07 3.2911936e-07 3.1291606e-06 
3.6269739e-08 -7.5769698e-08 3.4570706e-07 
-6.0187979e-09 1.0108873e-07 -3.4280056e-08 
-8.6939117e-08 7.4654292e-09 1.0249803e-07 
-7.2501663e-08 -1.7006387e-07 2.8573709e-07 
-2.0859473e-07 1.7848821e-08 4.5855765e-07 
4.5300055e-08 1.6581782e-07 -1.3561100e-06 
-1.3404460e-07 -1.2632788e-07 -6.8333219e-07 
-6.5883818e-08 1.9005635e-07 1.4882789e-06 
3.9137657e-07 -1.9530259e-07 -2.1073638e-06 
7.0106893e-08 6.7506157e-08 4.2281408e-07 
2.6327675e-07 1.7420494e-07 9.4974681e-08 
7.9239555e-08 4.7546678e-08 -3.1816276e-07 
1.6866048e-07 -1.1338884e-07 -1.3098454e-06 
-2.3498397e-07 -1.0408431e-07 6.2782607e-07 
1.0288795e-07 -8.3784713e-08 1.9457299e-07 
-1.3085585e-07 3.1459786e-07 -1.2906505e-06 
-4.5023276e-07 -7.6080767e-08 1.5301952e-06 
2.3099166e-07 -2.5202021e-07 -9.7913663e-08 
2.0005759e-08 2.3518722e-07 6.3444219e-07 
1.2167374e-07 1.5738379e-07 -6.8061138e-07 
5.0994669e-07 -1.5946453e-07 -9.4801442e-07 
1.9671549e-07 -2.1407408e-07 1.8624452e-06 
1.0162918e-07 -3.4508428e-08 -7.2219291e-07 
1.6358437e-07 -1.8921389e-07 -4.0194666e-07 
9.7536577e-07 -2.3427910e-07 -1.2713340e-06 
-2.7838936e-07 5.3643042e-08 5.6697195e-07 
-2.5926544e-08 2.7675941e-07 4.3771246e-07 
-1.0821734e-07 -1.8685780e-07 1.0818596e-06 
-1.3647023e-07 1.5792513e-07 2.9574443e-07 
1.4251224e-08 -1.8378914e-07 8.7623590e-08 
-1.6779542e-07 7.1803619e-08 -1.7154402e-06 
-4.9341836e-08 2.2621742e-07 7.2163493e-07 
3.3307629e-08 2.7732503e-08 -3.8644654e-08 
3.8320837e-07 8.8111371e-08 -8.7785247e-07 
-4.7362829e-07 6.7453885e-07 -2.5537470e-06 
-8.0642906e-07 -2.6290769e-07 3.5288097e-06 
-5.6602522e-07 -5.0458203e-07 -4.9983341e-06 
-1.6773825e-08 -4.8530929e-08 -1.9330436e-07 
-6.0080346e-08 1.3363173e-07 1.5209741e-06 
-2.7154201e-07 2.4139541e-07 9.7037207e-07 
-2.6621510e-08 -1.2982095e-07 1.6460251e-07 
-2.8804690e-08 -1.7034219e-07 -3.3474139e-06 
1.0652343e-07 8.3266123e-08 1.9726191e-07 
-1.2993306e-09 -1.4815545e-07 1.3744325e-06 
-2.4488580e-07 1.5923514e-07 5.4985389e-07 
-3.6751794e-07 -5.6212777e-08 6.0431699e-07 
9.2105950e-07 1.1068842e-07 -2.2045951e-06 
-1.5510034e-07 -5.0372794e-08 7.7527824e-07 
1.5071691e-07 1.9197121e-07 -1.9398869e-06 
-1.1777513e-09 1.6358260e-07 1.5321524e-06 
-4.3782890e-07 -3.9742297e-08 -1.2945689e-07 
1.7219168e-07 -1.4403280e-07 7.3126517e-07 
1.0377421e-06 3.8993267e-07 3.6114707e-06 
5.1725942e-07 -4.6764444e-07 -1.3689597e-06 
-1.6854520e-07 -6.9022953e-08 4.0054229e-07 
6.5500373e-08 2.4945439e-07 7.6676076e-07 
8.3744942e-07 -3.9788436e-08 5.6619378e-06 
-2.2238952e-07 -8.2409187e-08 -1.3704164e-06 
1.0090847e-07 1.0926495e-07 -1.3768604e-07 
2.9030533e-08 -1.1680303e-07 -2.6569109e-07 
-4.9976610e-08 2.4980844e-07 -7.8025329e-07 
-1.2989312e-06 4.8757897e-07 -3.7374289e-06 
-9.9020235e-07 6.1401437e-07 4.2085921e-06 
3.9866526e-07 3.8066131e-07 -4.1886545e-07 
-2.9724484e-07 -2.9379777e-07 7.9216943e-07 
1.9607365e-08 -1.5085508e-08 -4.1960909e-08 
1.7447624e-07 2.6660578e-07 -9.0444212e-07 
5.1339995e-08 6.8008937e-08 -2.3578792e-07 
-1.1397098e-06 -3.8520631e-07 -3.0430326e-06 
6.8161097e-07 -1.4156104e-06 -5.1232932e-06 
-5.6815189e-08 2.5836832e-07 -6.6266460e-07 
4.3627249e-08 8.4897351e-09 -3.2876122e-07 
1.1820918e-07 9.0891248e-08 -9.1816366e-07 
-8.9046441e-09 -7.7426108e-08 5.2164398e-07 
-1.7183008e-07 1.5216443e-08 2.3428126e-07 
5.2624989e-07 2.8218579e-08 3.6528154e-06 
6.8915733e-07 2.6305562e-08 -9.4087409e-07 
-8.3255330e-08 -2.1287337e-07 2.4065748e-06 
-6.6720013e-08 -9.8795113e-08 -2.9840999e-07 
1.6206340e-07 -4.9873074e-07 -4.8643983e-07 
1.0944172e-07 2.3583421e-07 -5.2665797e-07 
-7.8144780e-07 -5.7423033e-08 2.9255305e-06 
3.0923934e-07 2.0652709e-07 1.7941657e-07 
4.4358217e-07 3.1278233e-08 1.7654670e-06 
3.8895016e-07 -2.9572880e-07 1.1237177e-06 
-4.8760754e-08 8.7376463e-08 -5.8387650e-07 
1.7869709e-07 -4.2144535e-08 -6.4743011e-07 
1.4564090e-07 -2.2760828e-08 6.5876196e-07 
-1.6146885e-07 1.9160623e-07 -1.1151865e-06 
-3.0631728e-07 2.3214339e-07 1.3925215e-06 
-1.8501979e-07 -3.6047279e-08 9.9836043e-08 
5.6871624e-08 1.4714988e-07 7.0888206e-07 
-3.2209650e-07 -2.5442162e-08 1.2501660e-06 
-2.1777181e-07 -1.6498106e-07 2.4613905e-06 
3.0461081e-08 -6.0342124e-08 -8.6552973e-07 
-1.1581223e-07 9.3165809e-08 1.3383305e-06 
-3.4299283e-08 -1.9839190e-07 -3.7904886e-07 
4.7756203e-08 3.7608206e-08 -4.7376554e-07 
-6.5678833e-08 1.1872865e-07 -1.2265289e-07 
2.0043436e-07 -1.5520307e-07 -6.7204797e-07 
-1.7044596e-07 1.3178581e-07 -6.5480151e-07 
2.2195833e-07 3.0079707e-07 3.1600297e-07 
2.8807847e-08 -2.6785624e-08 1.1154805e-06 
-2.2939585e-07 1.6084559e-07 1.3878305e-06 
-4.7657238e-07 -1.7038849e-07 -1.1166841e-06 
9.3683923e-08 5.2738742e-09 2.4215193e-08 
1.2643426e-07 -1.9397750e-07 -8.0708730e-08 
-4.1312052e-07 4.0122607e-08 3.2429631e-07 
6.3698582e-07 -4.1450716e-07 -2.7255760e-06 
-1.5719817e-07 -1.2583695e-07 -1.0963291e-06 
5.0694069e-07 3.1892148e-07 5.4750393e-07 
7.4882678e-07 -3.6343721e-07 -2.3554996e-06 
-1.1110052e-07 -3.3798540e-07 -6.0264711e-07 
1.3077079e-07 -1.6216323e-07 7.6067630e-07 
4.1961124e-07 1.9836843e-07 -2.2338401e-07 
-3.9541881e-08 1.7020639e-07 3.0681511e-07 
-3.2722198e-07 1.4468102e-07 -1.1904920e-06 
-3.2947111e-07 7.8636276e-07 9.4311093e-07 
1.9689652e-07 2.3035793e-07 3.9459053e-07 
2.6066083e-08 -2.0062367e-07 -2.9515600e-06 
1.1969723e-07 5.5069439e-08 5.7184354e-07 
-1.9887496e-07 -8.4877215e-08 -8.7062642e-07 
4.2146027e-08 1.5274999e-07 -5.1841674e-08 
1.1548669e-07 -2.0893033e-07 4.0152682e-07 
-6.6643373e-08 -2.0211759e-07 5.8731302e-07 
-2.4856039e-08 6.1049448e-08 1.5944504e-06 
7.7536043e-08 -3.1141287e-08 -4.2781934e-08 
-7.4738004e-08 2.2492270e-07 -5.2277153e-07 
-2.6781134e-07 -2.5796538e-07 -8.9241320e-07 
-1.8723560e-07 1.5370233e-07 6.7492158e-07 
5.0535289e-07 4.1511632e-07 3.8613913e-07 
1.6051722e-07 -2.2783405e-07 -9.2119046e-07 
2.0518104e-07 -2.0579178e-07 -1.5098478e-06 
7.1478574e-08 -3.8386759e-07 3.1289981e-06 
-1.1421518e-07 2.8207492e-07 -5.0304823e-07 
-1.5786492e-07 2.5786915e-07 -4.3123400e-08 
-4.6467790e-07 -3.4161523e-08 1.0133534e-06 
-1.5081758e-07 -4.8696086e-07 -5.3483734e-07 
-2.1689331e-08 1.8607007e-07 8.4920435e-07 
3.5264054e-07 3.3894847e-07 -2.0039693e-06 
4.1881691e-07 1.4786775e-07 -1.5602950e-08 
1.1081498e-07 1.6232903e-07 -4.5650637e-07 
-1.0290226e-07 1.2435601e-07 1.8920576e-07 
-1.1118980e-07 3.1669779e-07 2.1557644e-06 
5.5972606e-08 4.6642391e-08 1.7641810e-07 
-1.3604358e-07 -2.4505695e-07 -1.4752185e-06 
-5.1316482e-07 -2.0456899e-07 2.9365858e-06 
5.9932823e-08 1.5959566e-07 7.9860911e-08 
6.7951873e-08 2.1766107e-08 -8.2872879e-07 
-3.9108616e-07 -2.5852376e-07 -9.1223831e-07 
-3.4212570e-07 -8.5000551e-08 3.9385560e-07 
1.0455159e-08 -1.4009327e-08 5.1674732e-08 
1.4820969e-08 1.5969354e-07 1.5371407e-07 
1.3227943e-09 2.8873234e-07 1.3393137e-06 
-1.0713161e-07 -1.8508257e-07 -1.2197124e-06 
2.9620207e-07 -6.6542469e-08 1.7471881e-06 
2.3494724e-07 -2.2071333e-08 -1.2337532e-06 
8.9825505e-08 7.6021486e-08 -3.5510607e-07 
-1.5457906e-07 -1.6162126e-07 -3.4156727e-07 
5.7800668e-07 2.1337097e-07 -4.0680254e-07 
-1.2806829e-07 -5.4653150e-08 1.1926247e-07 
5.8812351e-09 -3.1363962e-07 1.0322267e-06 
3.7906389e-08 -3.7504401e-07 2.3954531e-06 
1.3024041e-07 4.9138336e-08 -3.2061600e-06 
1.7381424e-08 -6.6799288e-08 1.9678733e-07 
3.5744134e-07 3.7513800e-08 4.8303139e-07 
-3.2652373e-08 -1.1826225e-07 -9.5853852e-07 
-5.0208007e-07 1.3733751e-07 1.4173747e-06 
1.1148718e-08 4.3647211e-07 2.3817288e-06 
-4.1102489e-08 -3.7961975e-08 4.2837624e-07 
-1.0128388e-07 4.1931294e-08 2.1394953e-08 
7.8070933e-08 3.6980012e-08 2.7522185e-07 
-4.2466997e-08 4.9243056e-08 7.7167937e-07 
1.9128117e-07 -4.5692866e-07 -4.3358926e-07 
-2.2332898e-07 -3.3365578e-07 -9.4898496e-07 
2.0595419e-07 3.2634420e-09 2.0952106e-07 
7.8915846e-08 2.0843434e-07 -6.3259438e-07 
-2.4944686e-09 3.0708728e-07 -6.5364532e-07 
-3.1364706e-07 3.3183292e-07 1.5605121e-06 
-2.0225832e-07 2.9386368e-07 -1.5048331e-06 
5.5990569e-08 1.9293461e-07 -2.1339858e-06 
-9.3537636e-08 -2.2144675e-07 -7.4157776e-07 
-2.3317728e-08 6.9475853e-08 1.3877293e-07 
-2.6024625e-07 -2.3712926e-07 9.4643940e-07 
2.0695097e-07 -4.9121979e-07 -1.1656599e-06 
4.8935782e-08 -2.1030873e-07 2.9506228e-07 
-2.1964863e-07 -1.4882724e-07 -8.8527429e-07 
-3.7453256e-07 -2.3192798e-07 -1.4853774e-06 
-5.8450513e-07 -9.6251665e-07 1.8558965e-06 
8.0198134e-08 1.1720971e-07 -2.9839285e-07 
3.8442928e-07 7.5464476e-07 -1.1307836e-06 
-2.1134751e-07 -2.5104433e-07 -8.1635653e-07 
2.2658656e-07 -4.0956792e-08 -5.5790412e-07 
4.1480342e-07 -8.8433126e-08 -1.0972639e-07 
-4.3162601e-07 -1.0117223e-07 4.9478183e-07 
-1.2084460e-07 1.3341212e-07 1.3919077e-06 
-2.7408757e-07 1.7023744e-07 -1.4150992e-06 
-6.2995262e-08 -1.9951651e-07 -2.8828353e-08 
3.2496196e-08 3.1334448e-08 8.3129365e-08 
8.0631732e-09 -1.2119359e-08 -7.8548948e-07 
-1.0467490e-08 5.9409409e-08 -5.0629254e-08 
1.5652506e-07 -7.1426534e-08 1.8092882e-06 
-1.0534954e-07 1.2909109e-07 2.4235601e-07 
7.8801705e-08 3.8850192e-08 3.3552936e-07 
3.6847638e-08 -1.7155939e-07 8.1504356e-07 
2.3639896e-07 -3.2064366e-07 -2.2145191e-06 
-1.6389028e-09 1.3460624e-07 -5.0513052e-07 
1.7840988e-07 5.6016813e-08 -2.0728444e-07 
3.7504242e-07 3.6245754e-07 9.6028907e-07 
-5.7313670e-08 4.0299312e-07 9.7782106e-07 
4.1009790e-07 4.5010614e-07 -5.4637871e-07 
-1.7054225e-08 -5.9055399e-08 9.1829901e-07 
-4.8310717e-08 1.7224860e-08 2.0004950e-06 
-9.3253341e-08 -8.8323723e-08 2.5123388e-09 
1.9801310e-07 9.3749321e-08 -2.1350820e-06 
-2.8374376e-07 2.6743928e-07 1.1172360e-06 
-6.6855009e-08 -7.3717466e-08 -2.4773809e-07 
6.3391134e-08 -1.8620564e-07 1.4815082e-07 
-1.2114947e-07 -7.9981064e-08 8.6576662e-08 
4.1550674e-08 -1.2250038e-07 -5.5390171e-07 
5.7647487e-08 -3.9654793e-08 1.3584311e-07 
-1.6590764e-09 1.1125331e-07 1.1335965e-06 
-1.8626418e-08 -4.7961102e-08 -1.3297813e-07 
-7.5460612e-08 1.3301718e-07 -7.7578807e-07 
-1.2660088e-07 4.8618730e-08 -3.4852306e-07 
2.1423708e-07 3.2662513e-07 -1.5840967e-06 
4.1810037e-07 4.7049423e-07 -1.9858103e-06 
-1.5070574e-07 -4.2612561e-07 -1.5774438e-06 
9.5555458e-07 1.5123675e-07 -1.0419404e-06 
-4.5288172e-07 -5.2614246e-07 1.5409967e-06 
-1.8335504e-07 2.2921898e-07 1.2799683e-06 
-3.3241719e-07 4.5723322e-08 -1.3002136e-07 
1.3026656e-07 3.7040365e-08 2.9723260e-08 
-2.2719058e-07 1.2601895e-07 6.9365262e-07 
1.1835949e-08 -2.2453638e-07 7.2573357e-07 
-7.5696960e-09 -3.8594740e-07 8.7949024e-07 
-4.5326232e-10 -5.4418571e-08 -1.7721424e-06 
-2.9089878e-07 1.8686015e-08 7.4099347e-07 
-4.1876274e-07 3.1933337e-07 6.6744684e-07 
-2.2228633e-07 -5.3778314e-07 -2.5537688e-06 
-1.4393321e-07 6.4982794e-07 2.9964917e-06 
2.9602063e-07 -2.8003143e-07 -1.0160070e-06 
3.8538452e-08 1.6987157e-07 -4.9914820e-07 
6.0727007e-07 1.3092131e-07 -1.6068877e-06 
-2.6817236e-07 -1.7954757e-07 4.2151729e-07 
-6.0051626e-08 -1.3382748e-07 7.3468129e-07 
6.0368919e-08 3.6044188e-08 -4.3358742e-07 
-2.5840487e-08 -2.4365281e-08 3.3377276e-07 
-1.6510473e-08 -2.5155168e-07 2.0983514e-07 
3.3090427e-07 -4.3126241e-07 5.8311775e-07 
-8.3030450e-08 -1.6120424e-07 -7.8254982e-07 
5.0140818e-07 1.8855818e-07 -1.0647757e-06 
-1.8463722e-07 2.3583625e-07 3.0589607e-07 
1.4904527e-08 3.3458886e-07 -2.4049552e-06 
1.1676939e-07 3.5141692e-08 4.3205223e-08 
1.0053146e-08 -1.1758020e-07 3.1002821e-06 
-1.0378906e-07 4.2937268e-07 -7.8108428e-08 
-4.8086474e-07 9.8561081e-08 3.0868662e-07 
6.1248892e-07 9.4120601e-08 2.1973258e-06 
-4.1092321e-07 -4.7517098e-08 3.5099574e-06 
6.5024705e-07 3.9366233e-07 4.6999594e-07 
-1.5731420e-07 1.6941115e-08 3.6106276e-06 
6.6480865e-08 -1.0255370e-08 7.3174135e-08 
3.5435045e-07 -9.6407584e-09 -4.9000363e-07 
-6.7110982e-08 -7.8368686e-08 -5.1319847e-07 
3.3281620e-07 3.0638908e-08 9.0457428e-07 
3.0603843e-08 8.5577284e-08 6.0918603e-07 
-4.6214308e-07 4.3962011e-08 -1.2947215e-06 
-8.8381950e-07 -1.5194608e-07 -1.2060513e-06 
1.2913478e-08 1.6408414e-07 6.3293697e-07 
2.1567604e-07 -2.1050369e-07 -2.9060263e-06 
-2.0374509e-07 -2.5051256e-07 1.4160935e-06 
1.0897138e-07 2.3907768e-07 -7.3939373e-07 
1.6351485e-08 -1.2024276e-07 -5.8713260e-07 
-3.4161896e-08 2.1898273e-08 -1.0790973e-06 
1.2424670e-07 1.2653344e-07 6.1696130e-07 
7.8701881e-08 1.1270350e-07 6.7943731e-08 
-1.1892205e-07 1.5407865e-07 -4.9454724e-07 
2.3920413e-07 -2.8724483e-07 -1.5452675e-06 
8.4165876e-08 -6.1707703e-07 2.1207959e-06 
-3.7846451e-07 -4.6688308e-07 -5.2196299e-07 
-6.6467031e-08 -8.2670738e-08 -2.3335210e-06 
-2.2788859e-07 5.7495436e-07 1.3863308e-06 
1.9534099e-09 1.0231800e-07 4.0402230e-07 
-8.9839894e-08 1.3702586e-07 -4.3470204e-06 
-1.7190086e-08 -1.7980006e-09 2.0630023e-07 
3.0542574e-07 6.9282024e-08 9.0479534e-07 
2.6897521e-07 8.4560785e-09 2.4346409e-07 
-9.5162996e-08 -6.4754595e-08 -1.9747765e-06 
1.9659524e-07 -7.0228758e-08 -1.6477545e-06 
2.7471557e-07 -7.4126561e-08 -3.5720521e-07 
-1.5474786e-09 9.8302344e-08 6.6448195e-07 
3.2236983e-08 3.7232660e-08 1.5613121e-07 
6.0752114e-08 1.9798435e-07 3.3603757e-07 
4.4960569e-08 -2.5307989e-07 2.9793867e-07 
-1.0713470e-07 -4.1119253e-07 1.0578252e-06 
-2.8549470e-08 3.4862322e-07 -3.9171439e-09 
-1.7048090e-07 -3.1019738e-07 3.7036972e-07 
1.5138147e-07 5.5979701e-08 2.9053028e-06 
-3.6597473e-08 8.6697611e-08 8.3958776e-07 
-3.4536336e-07 -7.9258534e-08 2.3562579e-07 
7.7473055e-07 -1.3828378e-07 3.0439714e-06 
-3.0309275e-07 6.7538792e-09 -4.1612366e-06 
-1.8103533e-07 4.2563906e-07 -1.9510296e-07 
2.8417440e-07 4.4106777e-08 5.4071006e-07 
-1.7611924e-07 -2.1506479e-07 -1.9789852e-06 
1.9258364e-07 1.6662020e-07 2.7380736e-06 
4.0148574e-08 -1.1023387e-07 -1.9881304e-06 
5.7711901e-08 -7.8383851e-09 1.0573372e-06 
1.9195971e-08 -2.1537743e-07 -2.2612708e-06 
1.2939290e-07 1.2345808e-08 3.4835384e-06 
-1.5258806e-07 -8.3965169e-08 -1.4920913e-06 
-4.7938579e-07 2.1823828e-08 -8.5040078e-08 
-2.7366536e-07 -3.0999793e-08 5.0058944e-08 
-6.4499056e-07 9.9110252e-08 -2.2155493e-06 
6.1408073e-08 5.3945396e-08 -2.8507588e-07 
-1.4091102e-08 -2.4390937e-07 4.3150138e-08 
-3.7542655e-08 1.6761302e-07 -6.3191948e-08 
5.0104383e-08 3.8544371e-08 -3.4219875e-07 
-1.5154058e-07 -1.0435350e-07 8.2924026e-07 
-1.9092683e-08 1.6425115e-08 -3.6964444e-08 
1.3784894e-07 -2.2149864e-07 -3.4667025e-07 
-3.3681835e-07 -2.7302374e-07 -7.0843134e-07 
2.3077778e-08 2.1403572e-07 -6.9746773e-07 
4.6629637e-07 2.8859765e-07 -1.7235224e-07 
-3.1813701e-07 -1.1996887e-07 1.1785140e-06 
3.3765701e-08 -2.3297632e-07 -5.4848090e-07 
-3.1159837e-07 6.1070892e-07 1.3200807e-06 
6.5954389e-08 -2.2901349e-07 1.9927304e-06 
7.3844808e-07 -2.0159271e-07 2.9462669e-06 
-9.0239375e-08 -2.9669214e-09 5.3666452e-07 
1.2555240e-07 -2.1888924e-07 -7.6074951e-07 
-1.4164870e-07 1.1254479e-07 1.1543897e-06 
1.3614160e-08 -9.6575583e-09 -9.2747774e-07 
2.2274145e-07 5.8198950e-08 4.3637485e-08 
-1.1895840e-07 -6.2686371e-07 -3.2103337e-06 
3.0948931e-07 -4.0394649e-08 6.1823044e-07 
-3.7926137e-07 3.1505976e-08 1.4527026e-07 
1.3625374e-08 -4.0262396e-08 1.0783853e-06 
-1.6880868e-07 4.2329475e-08 -1.8730266e-07 
9.9337413e-08 9.2852716e-08 9.8083535e-07 
7.6857072e-09 2.2963558e-08 -5.7615279e-07 
-1.7132139e-07 8.0982211e-08 7.2625380e-07 
3.7799526e-07 2.9405095e-07 -1.1979088e-06 
1.6112499e-07 3.4143358e-07 -3.7353061e-06 
2.4191099e-08 3.8101703e-08 -7.0385892e-07 
-8.5711456e-08 -9.4860484e-09 1.3079759e-06 
-8.1913697e-07 1.6335844e-07 -2.5890261e-06 
-5.1081810e-07 -5.9589030e-07 -2.0831806e-06 
4.6413284e-08 4.3624814e-07 1.9116342e-06 
-6.5985020e-08 -1.4724743e-07 -5.3920985e-07 
9.0799404e-08 1.2492840e-09 7.0029941e-08 
1.3529360e-07 -9.0608005e-08 -2.2231745e-09 
5.5584906e-08 -8.2751733e-08 2.2028203e-07 
3.9132905e-07 -9.5246833e-09 1.1867992e-06 
-1.3669857e-07 -2.7992607e-07 1.0076699e-06 
-5.9501127e-07 -6.7081849e-08 -1.5758740e-06 
6.4518005e-08 -2.7622159e-08 -1.0626349e-06 
1.6526322e-07 1.9000510e-07 -1.2845915e-06 
-2.4428854e-07 -2.6131494e-07 2.2933844e-07 
-7.1218170e-07 -1.4139650e-07 3.8980170e-06 
2.4910386e-07 2.6635831e-07 -4.1836969e-07 
2.0079439e-07 -1.9887000e-08 2.2917645e-07 
-1.1309150e-07 1.1402742e-07 -9.0151252e-07 
9.4199955e-08 -3.6734995e-08 -2.4716445e-07 
1.2461859e-07 8.1670727e-08 -3.4586841e-07 
1.2325302e-07 6.6831447e-08 -8.8064490e-07 
1.6590073e-07 -8.4023924e-08 -4.4942922e-07 
9.2050357e-08 -3.5552640e-07 2.4655703e-06 
-2.7207145e-07 -2.5397631e-07 2.4843534e-06 
-6.1324106e-09 -1.4768895e-08 -1.3628332e-07 
1.0789716e-07 -1.5186609e-07 -1.0736096e-06 
6.3558971e-08 1.3563242e-07 1.1085241e-08 
-1.9345087e-07 -9.9343751e-08 1.0802270e-06 
5.1684339e-08 9.0023491e-08 3.2012451e-07 
-8.8597192e-09 -2.5392470e-08 5.2858053e-07 
-1.4107933e-07 -2.4058693e-07 1.1441339e-06 
-2.1491979e-07 -1.2093292e-07 -8.0626472e-07 
-2.5057531e-08 6.0670789e-07 -2.1543940e-06 
-2.5361030e-07 -2.3854946e-07 1.6555896e-06 
1.7539529e-07 1.0628443e-07 1.5630324e-06 
2.1464751e-07 5.9465896e-07 9.1445884e-08 
4.4716640e-07 -5.0750938e-08 -3.4965134e-07 
-9.0152895e-08 7.9063305e-08 -1.2126578e-06 
5.8578343e-07 2.3380792e-07 1.3461504e-06 
2.1539654e-07 -3.0136607e-07 -1.3781374e-06 
8.0428561e-07 -2.6535449e-07 2.2627842e-06 
-1.2587476e-07 -1.7054793e-07 2.4995842e-07 
-1.6626812e-07 3.1316705e-07 1.4361804e-06 
-2.5530760e-08 -1.5111969e-07 5.1821985e-07 
-3.2033935e-07 1.5452430e-07 -1.0453292e-06 
-8.7148969e-08 -8.0916578e-08 -1.6003870e-07 
1.6294587e-07 1.1202540e-07 -2.3715540e-07 
-2.2486839e-07 1.0184064e-07 5.2617992e-07 
7.4300701e-08 -1.2733479e-07 -4.3796044e-07 
-7.5203332e-08 6.4056458e-08 -1.7968374e-07 
5.2692897e-08 -4.3972634e-08 -3.2663288e-06 
-1.5567801e-07 9.7066774e-08 -1.2551169e-08 
6.4178167e-08 -8.6296637e-08 -1.3713259e-06 
2.7218931e-07 -1.8407927e-07 6.3357857e-07 
1.3956799e-07 5.5392707e-07 -1.0145129e-06 
-4.7835005e-07 3.6384932e-07 -2.6564959e-07 
9.5454070e-08 3.0342434e-08 4.9454076e-08 
4.2972584e-07 2.0402281e-07 3.7167222e-06 
-5.5656045e-08 -6.5958446e-08 -1.2241393e-06 
-2.2576832e-07 -6.9655198e-07 1.5615630e-06 
-2.6220675e-07 -3.7676591e-07 -4.0773398e-07 
3.1566330e-07 3.0777352e-07 8.2546939e-07 
-2.4927422e-07 6.7391585e-07 1.1532346e-06 
-2.6342386e-07 -4.0655300e-07 1.6844328e-06 
-1.1689001e-07 -1.3667639e-07 1.7895054e-07 
-2.5460400e-08 4.0677239e-08 -3.1219874e-06 
5.0835735e-07 -3.7266202e-07 -5.1698198e-06 
1.8285454e-07 -1.2642180e-07 1.6467665e-06 
6.4275856e-09 7.7499926e-08 6.6277443e-07 
1.4271343e-07 2.3430297e-07 -1.1143800e-06 
1.5889086e-07 1.6889648e-07 -1.0275333e-07 
1.2108743e-08 1.5474949e-07 -2.3836634e-07 
8.3638469e-08 -3.0466452e-07 1.1256582e-06 
6.0876005e-08 -3.5257010e-08 1.4615246e-07 
-2.6118881e-08 5.1742720e-08 2.7448343e-07 
4.0841707e-07 7.0042273e-07 -3.5009539e-06 
-7.6988847e-08 -2.7748607e-07 -1.9210743e-06 
-4.0064858e-08 -2.5943137e-07 1.9622648e-07 
3.2758373e-07 -1.2526094e-07 -9.1874676e-07 
2.4022363e-08 -4.0527615e-07 1.3358443e-06 
-1.8728882e-08 1.0637010e-07 2.4571253e-07 
3.6565785e-07 4.6693518e-07 3.0974441e-06 
2.9945824e-08 -4.5795836e-08 -1.0922807e-07 
-6.8116793e-07 3.2140892e-07 -1.9943850e-06 
1.6151752e-07 2.7525230e-08 -4.9173684e-07 
-4.8477460e-07 -5.2935138e-07 -1.3543595e-06 
-1.8046799e-07 -1.7845697e-07 -3.3872709e-07 
1.5163772e-07 3.1950240e-08 -5.4565544e-07 
5.3464140e-07 4.5159697e-07 3.4403934e-07 
1.1467812e-07 8.7292290e-07 2.3742691e-06 
3.3325543e-07 -7.0041132e-08 -5.6819101e-07 
2.4732714e-09 -2.3382731e-07 1.1101674e-06 
9.6184507e-08 -3.7192699e-08 6.1314569e-07 
-5.1203534e-07 1.6648485e-08 -3.4084130e-06 
-3.4254683e-08 -4.0077623e-07 -5.5447214e-07 
-3.1784677e-07 -4.8238320e-07 -6.5377066e-08 
-1.1253823e-07 -3.2819480e-07 2.8737661e-06 
-4.9351394e-07 -2.9659506e-07 -3.4562449e-06 
1.7479084e-07 2.2603183e-08 -1.5205335e-07 
-7.7785636e-08 2.9454766e-08 3.2361342e-07 
1.9152772e-08 -5.6816170e-08 2.2798834e-07 
-3.3093102e-08 -1.9631479e-07 1.6747423e-07 
-1.4019746e-07 -1.0829301e-07 9.3287883e-07 
4.1341846e-07 -2.7032107e-07 9.3691710e-07 
1.6420904e-08 1.5860398e-07 9.8638770e-07 
-5.8199401e-09 -1.2977223e-07 -2.5776984e-07 
-2.3007772e-07 1.2716242e-07 -2.1995049e-07 
-1.1746125e-07 8.0184513e-08 -1.1549779e-06 
-5.9840715e-08 3.0256052e-07 -9.5089007e-07 
-5.2219522e-09 1.0943182e-07 6.2640351e-07 
1.3630292e-07 1.8911555e-07 -1.0325911e-06 
-3.0831334e-08 -3.8151740e-07 2.9115931e-06 
6.8568973e-08 -2.0872400e-07 -5.8283655e-07 
-4.8525135e-07 -6.6387673e-07 1.0591335e-06 
-2.8300829e-07 -3.1375100e-07 3.2973226e-06 
8.2145888e-08 6.2481519e-07 -2.1533303e-06 
-1.7532660e-07 3.5173920e-07 -2.8144930e-07 
-3.9665014e-07 1.0214965e-07 4.3712976e-07 
1.8583322e-08 -8.1167331e-09 -1.4960315e-07 
6.5270768e-08 -8.6846050e-08 4.7894855e-07 
-4.4601089e-07 5.0194279e-07 4.0057771e-06 
1.0955119e-07 -1.1719914e-08 -1.0547387e-06 
-1.4910507e-08 2.7273370e-07 -9.3937821e-08 
-7.1705633e-09 -7.3960720e-08 4.1430062e-07 
2.8163221e-08 -6.2421599e-08 -1.2317362e-06 
5.7517425e-08 1.7797842e-07 -4.7681519e-07 
3.3021436e-08 -3.5382691e-08 7.4221884e-07 
-3.2407812e-07 -1.7024550e-07 -9.0249290e-07 
1.4356625e-07 1.3616994e-07 -3.3828226e-07 
4.5229069e-07 -1.7309264e-07 7.0748456e-07 
4.4320640e-08 9.3404125e-08 3.0334834e-07 
4.9563891e-07 -4.1051661e-07 4.6328253e-07 
2.7584642e-07 2.3002103e-07 -2.2194461e-06 
-1.1516980e-07 5.1030796e-08 2.2852939e-06 
-4.2141946e-07 1.1478969e-06 5.8195774e-06 
9.5064216e-08 1.5339739e-07 -2.1681915e-06 
-2.5462006e-07 -1.0110958e-06 -2.9624905e-06 
-1.1744220e-07 1.7760166e-07 1.8446456e-06 
8.4520451e-08 -6.3630745e-07 -2.3465971e-06 
1.3308790e-08 -2.5165215e-07 -7.6648678e-07 
2.6827034e-09 6.0376067e-08 -7.2483743e-07 
-8.3056648e-08 1.8591541e-07 1.3418170e-06 
5.2236180e-09 -1.4166136e-07 1.1951854e-06 
-5.0587595e-08 1.1164934e-07 -3.4240068e-07 
3.9904751e-07 1.8419937e-07 -5.2244917e-07 
-2.2055313e-07 -1.3612380e-07 1.1183258e-06 
-2.4793515e-08 -5.9207551e-08 -1.1003920e-07 
-7.7596475e-08 -3.1588979e-08 -1.7961102e-07 
-1.2892333e-07 -1.0865293e-07 4.2052557e-07 
4.1506752e-08 2.0273917e-07 1.9614077e-07 
4.5683070e-08 4.4399478e-08 -3.4677564e-07 
-5.2924372e-07 3.5501142e-07 1.6654237e-06 
3.6844725e-07 -3.2154020e-07 1.8192579e-06 
-4.2724383e-07 2.3361825e-07 -6.7667889e-07 
1.5810095e-07 -6.9177084e-08 -2.2289193e-07 
5.3436441e-08 6.5415293e-08 -4.3564577e-07 
-4.1293839e-09 -7.3980942e-08 5.0380385e-07 
-1.5194601e-09 7.9540719e-08 -1.5668624e-07 
2.0004432e-08 8.9141921e-08 -3.3510258e-07 
-1.1908863e-07 -1.9430639e-07 2.0908512e-06 
1.7130401e-07 -7.9364916e-08 4.7584717e-07 
-1.1964008e-07 1.7094909e-07 -1.6005946e-06 
1.3200949e-07 -1.0089971e-07 -6.9407008e-08 
8.0325208e-08 2.8710794e-08 4.2052145e-07 
-3.2031988e-07 2.3673947e-07 -1.0792844e-06 
-1.7154747e-07 -2.0024160e-07 -8.0028855e-09 
8.1363673e-08 1.7508890e-07 8.3417291e-07 
-8.1205535e-08 -6.2783477e-07 -1.4589018e-06 
9.5046978e-08 -1.4750586e-07 6.3544735e-07 
1.1865297e-08 -3.5392361e-07 1.0698088e-07 
5.2534283e-08 3.4776397e-07 1.3210536e-06 
1.6872288e-07 -1.2587373e-07 -2.0935556e-07 
3.3019692e-08 3.6734173e-07 -7.7267396e-07 
-3.5368981e-07 7.0329588e-07 -1.8692660e-06 
-1.9228888e-07 -3.0479785e-07 7.8092910e-07 
3.6781228e-07 3.4050643e-07 -8.3546541e-07 
2.6068071e-07 -3.2090298e-07 -3.7408785e-07 
3.3780609e-07 1.2285695e-07 4.7973714e-07 
3.3262938e-07 2.5710946e-07 -9.0545836e-07 
-1.3369723e-07 -5.3966748e-08 7.7273498e-08 
5.7016777e-08 -1.2377970e-07 2.3565789e-08 
6.8299570e-08 1.3895848e-07 -6.8125487e-08 
-3.1110847e-10 6.8677480e-08 -1.1006541e-07 
3.8965501e-07 -9.1302880e-08 7.9662402e-07 
2.0856692e-08 6.5361037e-09 -8.2215030e-07 
1.1183960e-07 -1.1466590e-07 -2.3291871e-07 
-4.6831053e-07 -6.6757416e-08 -2.1842139e-07 
1.1160581e-07 -1.0840648e-07 -1.1399392e-07 
5.2809803e-08 -6.5168599e-08 5.3552833e-07 
2.9550435e-07 -2.0143999e-07 -1.4100543e-07 
-8.9660244e-09 -6.8621951e-08 5.2429147e-07 
-6.0251708e-08 7.8279612e-08 5.2070999e-07 
-9.2140766e-08 -3.8187258e-09 -5.5697001e-07 
-7.2920141e-09 -1.4241499e-08 -1.9930053e-07 
4.0785750e-07 6.3681307e-07 -2.1799194e-06 
5.0706905e-08 -1.1864992e-07 -2.0638984e-07 
2.5789222e-07 1.8247822e-07 -5.5844902e-07 
1.4798387e-07 -1.8124572e-07 -1.3171370e-07 
-9.3719308e-08 5.0629853e-07 -5.1522557e-07 
6.6392374e-08 5.2547566e-08 1.7123493e-07 
-9.5290680e-08 -1.4629940e-07 1.3254574e-06 
7.1309188e-08 -5.1656713e-07 -9.5719963e-07 
2.5323789e-08 -1.3405952e-07 1.5416475e-06 
9.9608599e-08 3.2852006e-07 -5.0105558e-07 
2.9449083e-08 1.0064871e-08 8.7251586e-08 
-1.2082012e-07 1.6460213e-07 1.2791918e-06 
-1.2407287e-08 4.4219323e-08 -7.6472944e-08 
-7.5619774e-08 -1.2907459e-08 2.7257022e-07 
1.3859869e-07 -1.8379390e-07 -5.8279147e-07 
8.6836906e-08 -5.7936109e-08 -6.0322026e-07 
3.2919147e-08 3.4930829e-07 8.9131692e-07 
-1.7361442e-07 1.7403845e-08 3.3361826e-07 
1.0981145e-07 2.0081060e-07 -8.5642364e-07 
2.5975023e-08 -1.3581039e-09 1.8935935e-07 
7.8406806e-08 -3.2000433e-08 -9.5384081e-08 
3.2385856e-08 8.3918994e-10 2.3101198e-07 
-7.2912826e-08 -2.7751383e-08 -4.2333630e-07 
2.8202329e-10 -6.3631454e-08 1.0249313e-07 
1.8236435e-08 2.5061021e-07 7.0160553e-07 
-1.8833855e-07 1.3548572e-07 6.8204969e-08 
2.6592991e-07 3.4432830e-07 2.4883179e-06 
2.2204460e-11 -8.6172115e-08 -9.5847656e-07 
-1.3260087e-07 -1.2658734e-07 -2.0051853e-06 
-4.9584122e-07 -2.5119942e-07 -7.7926251e-07 
1.5802622e-07 1.5660742e-08 -9.8266639e-07 
-3.0452372e-07 -4.2484164e-08 -1.0892676e-06 
1.8473898e-07 2.3675261e-07 6.1788472e-07 
3.9093388e-07 3.2679452e-08 2.4709084e-07 
-6.9046884e-08 -1.0625649e-07 9.3426962e-07 
-3.7660391e-07 -6.5906406e-08 4.4901103e-07 
-1.8566219e-07 9.0109161e-08 -1.7848238e-07 
-2.5534308e-07 1.1722788e-07 -5.6196626e-07 
-9.9717326e-08 -1.0107306e-07 -3.9596765e-07 
1.9731500e-07 1.1278502e-07 5.0663937e-07 
1.3607736e-07 -7.4724554e-08 9.1716635e-07 
-5.3544397e-08 6.9530749e-08 -4.1912008e-07 
-1.3768361e-08 -4.0667206e-07 -6.6385994e-08 
-2.6399556e-07 1.2262859e-07 -9.2920669e-07 
-1.1099335e-07 7.8883801e-08 1.6799066e-07 
-4.9497462e-08 1.1662438e-08 -2.6922083e-07 
3.3625554e-07 -2.1521646e-07 1.2117488e-07 
8.3741519e-08 2.4797129e-07 2.1079779e-07 
-3.4679104e-08 1.7446279e-08 5.1979129e-08 
-4.1143927e-08 -1.3542383e-07 -3.8244985e-07 
-1.6943172e-08 -6.6427731e-08 2.5532103e-07 
-4.7689888e-08 -1.2561944e-08 -5.7263087e-08 
1.0375981e-07 1.7918616e-07 -1.6064203e-07 
-7.7225089e-09 4.3812584e-08 -1.2233123e-07 
2.1690543e-08 -5.3540283e-09 6.5588033e-08 
-1.1941404e-08 -4.0148272e-08 -2.2236621e-07 
2.8361148e-08 -5.7983950e-08 -1.5452090e-07 
2.2626105e-07 -1.7954351e-07 -1.0084917e-06 
1.9356096e-07 1.4493240e-07 -3.3144556e-07 
-1.8942296e-07 4.9220446e-08 7.1273791e-07 
-2.5433010e-07 -3.7452483e-07 -3.1779706e-07 
1.2025285e-07 1.2137596e-07 -2.9990599e-07 
8.3358010e-08 -9.7626227e-08 7.2948563e-07 
-4.1332638e-07 -1.6697211e-07 1.1562901e-06 
-2.5836815e-08 -4.6965013e-08 -1.2299652e-06 
-2.1824064e-08 -1.1511503e-10 -6.7966774e-08 
-1.3528037e-07 -1.9575488e-07 1.0665467e-06 
1.0640184e-07 1.4253318e-07 6.4953991e-07 
-1.9257294e-08 9.0670582e-08 2.3154101e-07 
2.3560689e-07 2.8197692e-07 -8.9062934e-07 
1.7050451e-07 1.7126067e-07 -6.3185524e-07 
-1.9150139e-08 -1.1497673e-07 -1.4291896e-07 
1.1706437e-07 1.3730967e-08 -3.4904858e-08 
-2.4211292e-07 -5.2471495e-07 1.1698719e-06 
2.0265568e-07 1.3592650e-07 2.4286666e-07 
-3.1812586e-08 -1.0079005e-07 5.1303323e-07 
-7.0716048e-08 1.2208868e-07 3.5405563e-08 
-2.3541186e-07 -1.8921098e-07 -9.8017154e-07 
9.8362023e-08 -7.8495979e-08 -2.9173520e-08 
-2.8584655e-09 3.9892669e-08 2.9098194e-07 
1.7965678e-07 2.1200339e-07 3.8753848e-07 
-7.1988921e-08 -6.8176064e-08 -8.8196543e-09 
-9.4177587e-08 -1.8074761e-08 6.1685910e-07 
-4.8756146e-08 2.9087781e-08 -9.4625551e-07 
1.4836648e-07 -8.8663683e-08 -2.5960190e-07 
-1.4407745e-07 -4.8162835e-08 8.8357382e-08 
-3.7729973e-07 1.1549649e-07 -2.6013319e-07 
-4.3833154e-08 1.9388666e-07 -4.9342771e-07 
2.2580622e-07 2.0525668e-08 -1.1588907e-07 
-1.0852180e-08 -2.9842571e-08 1.8553186e-07 
8.3252353e-08 3.5188316e-07 1.4666665e-06 
2.3931294e-08 2.8612250e-08 1.0809435e-07 
-3.0015379e-08 3.8578658e-08 -5.2256777e-08 
6.8362297e-08 1.5055603e-07 -8.7834701e-07 
6.2760883e-08 1.6647633e-07 -3.6699223e-07 
-6.1411441e-08 -1.1373874e-07 1.2172174e-07 
3.0449293e-08 -1.3858886e-07 -2.6548398e-07 
1.5594379e-07 2.0784039e-08 3.9541965e-07 
1.4922962e-07 -1.5224779e-07 1.6902388e-06 
2.8979679e-08 5.4661541e-08 -8.5492580e-08 
4.1696275e-08 2.8657308e-09 1.0484079e-07 
3.0560068e-07 1.8237806e-07 -1.4196703e-06 
3.6782204e-09 -4.8508930e-09 9.7323984e-08 
-5.3498576e-07 -7.3926884e-08 1.4578178e-06 
7.6123776e-08 9.1303384e-08 3.0358876e-07 
-8.3543533e-08 -1.6698718e-07 3.8465816e-07 
-1.8191395e-08 7.3832162e-08 -2.1918819e-07 
3.9292857e-08 6.1833539e-08 3.5370965e-07 
1.1134032e-08 2.7455078e-09 5.9602581e-07 
4.4970964e-08 6.8432129e-08 4.2536382e-07 
1.2249170e-07 1.3190218e-07 -1.2681830e-06 
8.8762654e-08 -9.0439826e-08 -1.8733108e-07 
4.1914504e-08 -7.6059656e-08 -5.5247156e-08 
4.9820290e-08 -1.7039106e-08 -1.1959617e-07 
-4.0436257e-07 7.8045346e-08 -5.2950281e-07 
-1.6919014e-07 -3.4763737e-08 -3.4281720e-07 
-2.6327132e-07 -2.1937956e-07 -7.9809269e-07 
-2.9594680e-08 -2.0157952e-07 -1.9920488e-07 
1.1292703e-07 -1.0655943e-07 5.0572891e-07 
4.5292381e-08 -7.9971187e-08 -1.3431172e-06 
2.6367678e-07 1.4391519e-07 7.4646999e-07 
-1.2693559e-07 7.3610494e-08 9.5039758e-07 
-9.9769927e-08 -1.2894948e-07 1.4030168e-07 
-5.8597603e-08 -1.8182174e-09 4.0907736e-08 
9.9488503e-08 7.8701746e-08 -2.2512410e-07 
3.5399051e-08 -2.8967538e-08 3.4036088e-07 
1.2827421e-07 -1.0885157e-07 1.0943660e-07 
-1.8492230e-09 -1.4028082e-07 -6.9012071e-07 
2.3956213e-07 -5.2713382e-08 -2.8922661e-06 
-2.0182472e-07 -1.1100373e-07 -3.7946802e-07 
3.2914713e-07 1.9553713e-08 1.3586183e-06 
2.5437816e-07 -1.0885107e-07 -2.1838204e-08 
1.1704211e-08 1.0482486e-08 -4.1758170e-07 
1.6139499e-08 -5.9636591e-08 -3.1715902e-07 
-3.9658413e-08 1.0752411e-08 -4.6837894e-07 
1.3114012e-08 -2.9993775e-08 4.4961612e-07 
9.4987529e-09 -1.2159232e-08 1.1150688e-07 
-2.1532502e-07 8.2800980e-08 -6.1842997e-07 
-1.4114130e-08 -1.5949645e-08 -5.7800008e-08 
-1.0313435e-07 9.2554139e-08 -9.2342241e-08 
-2.3564721e-07 1.5205423e-07 6.0779848e-07 
1.2983027e-08 9.6775892e-08 2.2153317e-08 
2.8822587e-08 1.3355418e-08 -2.0794110e-07 
-9.2041290e-08 -4.9711197e-08 -1.0464889e-06 
3.4153366e-08 -1.6499344e-07 1.9799894e-07 
1.7062669e-07 1.2813084e-07 4.4201730e-07 
4.2285986e-08 -1.6490443e-07 1.1865812e-07 
2.0034969e-07 -7.1641225e-08 -8.5240436e-07 
-1.0380754e-07 -1.4806943e-08 -9.0735114e-08 
2.0352182e-07 1.6035611e-07 -1.3121996e-06 
-2.4032397e-07 1.9353453e-07 4.1606341e-07 
-4.1668503e-08 -5.2786692e-08 2.6318407e-08 
1.5036588e-07 -5.0575642e-07 3.9418447e-07 
-9.1317432e-08 5.5669005e-08 7.2535408e-07 
1.3964825e-07 2.1822335e-07 1.8510133e-06 
8.5415426e-09 1.2837758e-07 -2.3238624e-06 
-1.2679720e-08 -1.7586878e-07 1.0100403e-06 
3.0878911e-07 -1.4426801e-07 5.8859302e-07 
7.2000437e-09 3.8470567e-08 4.2289352e-07 
-1.0538187e-08 3.0293739e-07 2.7516343e-08 
-1.5030710e-07 -1.8741896e-07 -6.5696793e-07 
7.8807652e-08 -8.9424688e-08 -4.8356242e-07 
4.2169646e-09 1.5823329e-07 9.5044550e-07 
-6.1220263e-08 9.0425205e-09 -3.0147439e-07 
1.7644714e-08 -1.8565125e-07 2.3990756e-07 
-8.1692527e-08 2.2788107e-08 -1.0088672e-07 
-1.0806254e-08 -4.7530694e-08 3.2585202e-08 
7.2398997e-08 5.5599301e-08 -3.9994455e-07 
-1.6218530e-07 -6.6657861e-08 4.0864657e-07 
-6.5602947e-08 3.1244674e-08 3.5553353e-07 
3.5695049e-08 1.6694540e-07 -6.9978128e-08 
1.9429470e-07 6.9041832e-08 7.0305214e-07 
-7.8086941e-08 -5.8663474e-08 -3.1385451e-07 
4.6510849e-08 -5.1242790e-08 -2.9972043e-07 
1.9054561e-08 -1.6367530e-07 -1.8099121e-07 
-5.0063204e-07 -1.7982302e-08 -9.4959148e-07 
3.3164469e-07 7.2021017e-08 7.6491767e-07 
-8.7698510e-08 1.4804614e-07 1.9351771e-06 
2.6000532e-07 -2.9585991e-07 9.6011593e-07 
-3.7234500e-08 3.4083263e-07 7.0900160e-07 
-1.0093733e-08 2.0408216e-07 5.8322217e-07 
-4.0824489e-08 2.6327204e-08 4.2574817e-07 
-4.2054008e-08 2.0269970e-09 1.5407660e-07 
1.4749511e-07 1.5398375e-07 6.0260021e-07 
6.3697847e-08 -1.5521526e-07 -6.9699763e-07 
-1.0173877e-07 -2.5583469e-07 6.2276126e-07 
1.3561865e-07 -9.9485710e-08 -4.5849370e-07 
5.7535321e-08 9.6116175e-08 4.0450345e-07 
9.8074068e-08 7.7446323e-08 2.8953656e-07 
-2.0946480e-08 4.7339327e-08 -2.5088406e-07 
6.4430168e-08 1.8208443e-07 -8.8585210e-09 
-5.3663030e-10 2.0907732e-08 5.7380453e-07 
-1.6965149e-07 1.0866463e-07 -8.5547322e-07 
-1.2727134e-08 -1.9472102e-08 -2.4553231e-07 
-5.8634772e-08 4.6212142e-07 6.3282283e-07 
2.9974842e-07 -1.1936595e-07 4.3579644e-07 
-9.1132961e-08 4.0101050e-08 -1.5497237e-07 
3.7934772e-08 -2.3673758e-07 -3.3508945e-07 
-1.7259514e-07 1.6466943e-07 -4.1197728e-07 
-5.2149538e-08 -3.2827046e-08 -4.1714975e-07 
-1.0831605e-07 -1.5107619e-07 -5.4637889e-07 
-2.9453045e-07 2.1526887e-07 -4.2181429e-07 
8.5574499e-09 3.9548752e-08 4.9885051e-07 
6.2178358e-08 -3.8024119e-08 -5.5653504e-07 
-1.8082245e-08 -3.5083795e-07 2.7641923e-07 
5.4686300e-09 -3.5269331e-08 -4.2563414e-07 
1.5928276e-07 4.4977021e-08 2.4742860e-07 
-1.1024353e-07 2.6619693e-08 -3.7922314e-07 
-3.3089290e-07 4.0466652e-08 7.1017446e-08 
-1.4823600e-07 -3.4692914e-07 -5.3870554e-07 
-3.4416811e-08 -4.6963390e-07 -1.5293840e-06 
9.4167945e-09 1.6034720e-07 -3.2329791e-07 
1.5545480e-07 7.0942967e-08 -9.7149871e-07 
2.9310549e-08 1.0113510e-08 2.7875373e-08 
2.9235292e-08 4.6759549e-08 -8.8994710e-08 
-1.4060520e-07 4.7888150e-08 -3.3342621e-07 
1.1506555e-07 -5.0806367e-08 -1.6942110e-07 
-7.4959999e-08 -1.8724776e-07 -3.2977863e-07 
-7.9646213e-08 -4.9338578e-08 -6.6397735e-07 
8.1567613e-08 -2.2928710e-07 1.2832243e-06 
1.4736318e-07 1.1790169e-07 5.1499825e-07 
-8.8264356e-09 -7.5926629e-08 5.4052902e-07 
1.0610538e-08 2.9850806e-09 -6.8241938e-08 
3.1928096e-07 -8.8029957e-08 2.7563544e-07 
7.3928675e-08 -7.3915658e-08 -3.9690269e-07 
-9.6904369e-09 2.2914728e-09 -1.4173857e-07 
7.3643172e-08 3.0290624e-07 -1.4307393e-08 
-1.1978375e-07 5.8417776e-08 -2.5586889e-08 
6.5552967e-08 -2.5175689e-07 -1.5413425e-06 
2.2484511e-07 -5.3873606e-08 1.3881125e-07 
-3.6060115e-08 2.1527352e-07 1.3142329e-07 
3.9981884e-09 1.3893933e-07 -1.3717865e-07 
5.2156722e-08 -5.0420770e-08 -1.9169438e-07 
-1.4058290e-08 -3.6935326e-08 3.4817123e-07 
1.3711809e-10 1.3996623e-07 7.8249172e-08 
-2.8066853e-07 -2.9488854e-07 -8.4100257e-08 
4.7248840e-08 -4.9226060e-08 5.3644499e-07 
1.0614223e-07 2.9520589e-07 -9.0000668e-07 
-2.3050869e-07 2.5052273e-07 1.6557522e-06 
-1.6039974e-07 -3.1631379e-07 1.2675439e-06 
4.4960082e-08 -1.7129518e-07 -7.9135657e-07 
1.1435114e-07 6.3220696e-08 -2.9616635e-07 
2.3774271e-10 -2.0674794e-07 4.2710960e-07 
-1.2809068e-07 1.4496344e-07 1.0757954e-06 
-7.9274081e-08 3.3027689e-08 -4.2808185e-07 
1.3417748e-07 4.6831332e-08 1.2545526e-06 
1.0611745e-07 2.1000396e-07 3.5022856e-07 
1.4352557e-07 -3.7586844e-08 -7.3080457e-08 
-2.7467325e-07 1.8633486e-08 6.8193714e-07 
-5.5676370e-08 -1.3243343e-07 -3.6430998e-07 
-7.0016817e-08 1.3703146e-08 5.5832132e-08 
6.6670552e-08 -2.9813940e-08 4.4599750e-07 
-1.8151627e-07 -6.7874389e-08 -5.1656110e-07 
9.0177956e-08 6.9484599e-08 -3.9075232e-07 
2.9964423e-07 1.2296657e-07 1.3405850e-06 
3.7608554e-08 5.5019022e-08 -3.3817017e-07 
2.7158293e-08 6.2803264e-07 7.5185380e-07 
-1.9789434e-07 -1.3576314e-08 1.4633133e-07 
6.3331036e-08 -1.4170892e-07 3.4629315e-07 
-2.9850927e-08 -8.1331537e-09 4.9311993e-08 
4.0496874e-07 1.2591919e-07 -5.5056898e-07 
-1.9859057e-07 4.8770708e-08 7.3726642e-07 
-4.5803927e-07 -9.8178802e-08 -9.3455998e-07 
2.7260285e-07 -3.3826208e-07 -7.8876377e-07 
-1.2333994e-07 4.4368252e-07 -1.3455477e-06 
1.2635191e-07 -2.3861401e-07 3.9785704e-09 
6.6023631e-07 -6.2192569e-08 8.0675329e-07 
-2.8476762e-08 8.5766743e-08 -4.7265769e-07 
1.5833214e-08 3.3114073e-08 4.1418216e-09 
-2.4037737e-07 3.4264173e-07 -6.1885254e-07 
-8.5385253e-08 -2.6545393e-08 -9.8801752e-07 
4.6019203e-08 1.6717951e-07 -5.9131673e-07 
1.7262256e-07 8.6114397e-08 3.7488309e-07 
-6.1927892e-08 1.2114153e-07 8.8328818e-08 
2.9883044e-08 1.3715133e-07 3.0940427e-08 
5.5460387e-08 -4.1903186e-07 2.8312425e-07 
-1.7796779e-07 4.6512991e-08 6.0056288e-07 
2.4941386e-07 -2.1775662e-07 -8.4540665e-07 
-7.4762259e-09 1.3733954e-07 2.8749582e-08 
2.1439924e-08 -1.4189374e-08 3.0473848e-07 
-4.8422315e-08 -9.0912593e-08 1.9200145e-08 
-3.6828141e-08 -2.0545603e-07 1.5609232e-06 
3.3452938e-08 -1.1854234e-07 7.5633295e-09 
4.1091248e-08 -5.4876450e-09 -3.1481099e-07 
-2.6435191e-07 -5.7409046e-08 5.3375652e-07 
-2.2444503e-08 7.1256622e-08 -1.0272809e-08 
-9.8776006e-08 1.3974372e-08 -6.3089283e-07 
1.3772991e-07 -1.6179372e-07 7.3234503e-09 
-3.6117171e-07 -7.5629302e-08 4.1426330e-07 
1.2569846e-07 1.1943386e-07 6.9783357e-07 
-2.1174957e-07 -2.1753853e-07 3.0751167e-07 
-3.4500477e-08 2.4472448e-07 -6.7170515e-07 
2.7093844e-07 4.2507259e-07 -1.0130616e-07 
-3.6547951e-07 -3.7641641e-07 5.2691513e-07 
-7.0812312e-08 8.2776353e-08 1.7651993e-07 
-2.0520814e-07 2.9186859e-07 1.1266521e-06 
-2.3604047e-08 -6.0480112e-08 5.5947322e-07 
-1.9769123e-08 1.3532616e-07 -1.1564582e-06 
-2.5521916e-07 1.0477766e-08 3.7003761e-07 
-7.0676577e-08 -1.1384103e-07 -1.6489189e-07 
6.1074942e-08 1.6011661e-07 5.9832831e-07 
-8.2277928e-08 -3.5555182e-08 -4.7563404e-07 
3.9843634e-08 -2.2594324e-07 2.9442228e-07 
5.8496532e-08 3.3352674e-07 -7.2508089e-07 
4.5291483e-08 1.0200934e-07 4.0568491e-07 
9.3437478e-08 5.8112729e-08 4.6375663e-07 
-1.5819515e-09 9.0112884e-08 2.2982780e-07 
1.9109251e-08 -6.2158350e-09 -1.0584711e-07 
6.9528028e-09 5.4842538e-08 2.2928728e-07 
-2.8343214e-07 3.5518062e-07 -1.2794304e-06 
-7.2519448e-08 -3.0806231e-07 5.1508084e-07 
3.2562718e-07 -1.9786256e-07 -1.3787976e-06 
8.8767919e-08 -1.1473779e-07 -2.1069793e-07 
1.1048945e-07 2.6220926e-07 1.8694382e-07 
4.2511319e-09 -1.8133676e-08 -2.9400123e-08 
4.1827679e-09 2.4156435e-08 7.8217695e-08 
-2.8057019e-07 -2.1104819e-07 1.3474561e-06 
-2.1974046e-07 -5.5118232e-07 -1.3344047e-06 
-1.6466682e-07 9.9618642e-09 -1.9855635e-07 
6.1697364e-08 -6.9028992e-08 -5.2773925e-07 
-2.8543555e-08 3.4693091e-08 3.2680109e-08 
2.3922306e-08 -7.4417031e-08 -1.4418752e-08 
2.6148385e-07 -1.2877572e-07 -1.2067406e-06 
-2.5849454e-07 -1.2153372e-07 -2.6559923e-07 
-1.9745883e-07 1.0165915e-07 -7.4826681e-07 
1.3379633e-07 1.0534739e-08 -9.5582345e-07 
2.1419034e-07 -3.2690636e-07 1.7808270e-06 
-1.1828605e-07 -9.9674857e-08 8.4275911e-08 
3.5643035e-07 -8.8717997e-08 -2.4760281e-08 
1.3027415e-07 -2.0071527e-08 1.5889940e-07 
-3.2874478e-08 5.0579036e-08 1.0317998e-07 
1.0909524e-07 4.6656899e-07 -6.0206207e-07 
-4.5295133e-07 1.4695516e-07 -1.2840850e-08 
1.3594158e-07 -7.7893915e-08 -1.2065786e-06 
4.7587861e-08 -2.1026885e-08 9.8566011e-07 
3.3391667e-09 -1.5966397e-07 1.1018292e-06 
8.5352312e-08 3.0407776e-07 8.1316819e-07 
-8.2015220e-08 -7.1921768e-08 -7.1354606e-07 
9.6734972e-08 -2.2242700e-07 -3.6933230e-08 
-8.8351293e-08 -2.4295746e-08 -2.2129883e-07 
-2.3405846e-09 -9.9362133e-08 -2.7054321e-07 
1.0619069e-07 4.5081428e-08 -6.3452893e-07 
-4.5412122e-08 -2.0637046e-08 -6.6475124e-08 
9.3774029e-09 3.0708236e-08 -3.2445973e-07 
1.8443970e-07 -1.5484629e-07 8.2986753e-07 
7.0399381e-08 -1.1538633e-07 -3.2820640e-07 
1.1953355e-07 2.0308124e-07 5.8046211e-08 
-4.6637915e-08 4.4580567e-08 2.9369474e-07 
-2.1912197e-07 1.2399481e-07 5.0478906e-07 
-1.6537984e-07 -4.1973673e-09 -4.1093213e-07 
4.1500737e-08 2.8441642e-07 -7.4878807e-07 
3.6216770e-07 -2.1328393e-07 1.0769220e-06 
8.8459622e-08 1.2794735e-07 -4.9583980e-07 
-1.2224595e-07 6.1289242e-08 5.1442180e-07 
-1.2888268e-07 -5.9565870e-08 1.5321474e-06 
5.3761561e-08 3.5813418e-08 4.4503932e-07 
-1.1269262e-07 -2.6774833e-07 -1.7457136e-06 
-7.7227380e-09 1.3820140e-07 -2.7732412e-07 
7.6414706e-09 -1.5059150e-07 6.0680048e-07 
-1.6058827e-08 7.5383603e-08 2.2190021e-07 
1.4832185e-07 4.9486378e-08 -6.5160674e-07 
-6.9551255e-08 -3.1512062e-07 -8.6180125e-07 
1.5418053e-07 2.8977388e-07 -1.7855366e-07 
9.0164519e-08 7.6899894e-08 -4.9762139e-07 
5.8804922e-08 1.3930961e-07 6.5075415e-07 
-1.9288859e-07 -8.9713765e-08 4.8809773e-07 
-4.9811312e-08 1.7245455e-09 -4.1298901e-07 
-4.2688308e-07 -1.6692685e-07 -2.2523809e-06 
-5.2617303e-08 -3.2251737e-08 9.8827975e-08 
1.8802545e-07 4.7452153e-07 1.1189497e-06 
3.4411070e-08 2.4648938e-07 -1.0997795e-06 
2.0459517e-08 -2.3860402e-08 1.4479842e-07 
-4.8044569e-08 -1.6819074e-07 1.5179640e-07 
-3.1792705e-08 4.2401815e-10 2.4132845e-08 
-1.8277118e-08 1.5464882e-07 8.6407772e-07 
-2.8259802e-07 -4.9587624e-07 -1.4428069e-06 
1.8313621e-07 4.1185211e-07 -2.1767837e-06 
-5.5045914e-09 9.7432022e-08 -8.2227308e-07 
-2.5136885e-08 1.2869747e-07 2.3610382e-07 
3.9279979e-07 2.9486856e-07 -1.5445917e-06 
-7.7470688e-08 -1.7867954e-08 -1.7266865e-07 
-4.4711879e-08 1.0721133e-07 -1.7484118e-07 
-1.4323885e-07 -1.1716654e-07 1.5253295e-06 
4.2976302e-07 1.0088919e-07 1.3073659e-06 
3.6963903e-09 -1.2556420e-07 -2.7016179e-07 
-1.1917850e-08 -1.6856038e-07 4.9387074e-07 
-1.7767144e-07 -9.5864991e-08 2.5165258e-07 
-8.4776033e-08 -5.3242950e-08 1.2620550e-06 
3.1757020e-07 4.6276486e-07 3.0599573e-08 
-2.5163340e-07 -1.3208742e-07 -1.2190372e-07 
-5.4436056e-09 -2.2103240e-08 5.1249719e-07 
5.1912359e-08 1.6366845e-07 -3.6185779e-07 
-3.2564891e-08 -5.6007480e-07 2.8823345e-06 
-2.6034659e-09 2.3326706e-08 1.2298092e-07 
-1.3107852e-07 -1.8089912e-07 1.2397429e-06 
3.5258168e-08 8.9484324e-08 1.5866415e-07 
5.5663762e-08 1.0463119e-07 -4.8154038e-07 
-3.7964615e-08 -7.0581674e-10 1.6055215e-07 
-2.7659507e-07 -2.5704600e-07 3.2689633e-07 
1.2572263e-08 3.6220047e-08 -2.6234676e-07 
5.6141499e-08 5.1294403e-08 -3.0638938e-07 
-1.1332434e-08 -9.2354018e-09 -3.8434329e-08 
1.8806394e-07 -2.7092815e-08 -4.1534614e-07 
-1.6891929e-07 -1.9444992e-07 -1.0533550e-06 
1.3082266e-07 5.5870508e-08 1.5238571e-06 
7.3120880e-08 -7.9127389e-08 -5.5837961e-07 
-2.6841454e-08 -9.2047777e-08 -9.4330602e-08 
-4.4368235e-08 -5.3603703e-08 -8.4604073e-07 
-9.9620813e-08 -1.8238060e-07 7.1067478e-07 
-8.7134175e-08 -2.7591636e-08 -3.8984695e-08 
-1.0436416e-07 3.9529814e-07 -3.5593112e-07 
-5.9720207e-08 -3.8651187e-08 -3.7791062e-07 
1.9662785e-07 -3.1119009e-07 -3.8276355e-07 
-1.2817137e-07 -5.3646261e-07 2.3412645e-06 
5.1046825e-08 1.1402985e-07 8.6473250e-08 
2.4029976e-07 2.2026171e-07 1.2196846e-06 
-4.0928637e-07 1.2604694e-07 -3.0623596e-07 
7.6433160e-08 9.9463769e-08 -6.5881807e-07 
1.6875869e-07 2.5688735e-07 5.3444165e-07 
2.8974466e-07 5.3775935e-09 -1.5905360e-06 
1.0590850e-07 -7.6326756e-08 -1.4094611e-07 
-6.3258227e-08 -1.0286086e-07 3.7470028e-07 
-4.1456396e-08 -1.2338526e-07 7.6386959e-07 
-3.5127528e-09 -2.5651769e-08 -6.3652237e-07 
2.8181908e-08 2.0290568e-07 -7.3246568e-08 
-1.2677897e-08 -1.6747515e-08 2.2502115e-07 
2.4774097e-08 8.5112916e-08 4.6798476e-07 
1.0366992e-07 6.1389777e-08 2.8404273e-07 
2.6439889e-08 -7.3338072e-08 -9.9984149e-08 
-7.7129037e-08 1.2251711e-09 3.1034716e-07 
1.0672739e-07 -1.7128366e-08 -7.0299416e-07 
-1.4074973e-07 1.0164184e-07 4.8646831e-07 
8.7898400e-08 -1.3868718e-07 9.3887806e-08 
4.6438068e-08 -1.4632970e-07 1.2284542e-07 
-2.5692094e-07 -2.2851052e-07 -4.7405220e-07 
-1.7214683e-08 -1.0711246e-07 1.4639882e-07 
6.2644068e-07 6.0154107e-08 -3.6636337e-07 
9.0001556e-08 -7.0013328e-08 6.9803747e-08 
-2.2229555e-08 1.2944446e-07 -6.8154469e-07 
8.7954710e-09 -1.7452129e-07 8.1723249e-07 
-9.5974642e-09 -9.7329490e-08 -3.2823689e-07 
-2.8135020e-07 -1.6098065e-09 -8.7594412e-07 
2.0873271e-08 -3.0865007e-07 -1.9723754e-07 
-1.6599673e-08 -1.9397078e-08 8.3777401e-08 
8.6767095e-08 2.7952433e-07 -3.2281162e-07 
3.0130277e-08 3.0775131e-09 -1.4459496e-07 
-1.9185705e-07 -2.8184931e-07 -2.8385289e-06 
-5.0615216e-07 -1.9539875e-07 -2.3124289e-07 
6.1117603e-08 5.4738751e-07 -1.7951522e-06 
5.4870088e-07 3.0883191e-07 1.1065630e-06 
4.4590898e-08 -1.3965099e-07 1.2939030e-07 
1.7280151e-07 -1.8265185e-07 7.6960038e-07 
-1.6690269e-07 -3.7608621e-07 9.9364638e-07 
2.5756815e-08 -3.3123456e-08 -1.9893260e-07 
2.3519844e-08 -8.8082750e-08 -4.4662437e-07 
-4.1771393e-08 8.8811412e-08 -2.4320698e-07 
-8.6174808e-08 6.2824924e-08 -3.9283887e-07 
-1.5751861e-07 -3.7115268e-07 1.6026761e-06 
3.2689383e-07 3.2055803e-07 2.2511267e-06 
2.5056817e-08 4.6373437e-08 -4.6623848e-07 
7.2211598e-08 -9.9602694e-08 -3.2145905e-08 
-3.5084803e-08 5.5820554e-08 -1.9665993e-07 
1.8769697e-08 7.5889737e-08 -2.0422402e-07 
-1.0108320e-07 2.7637659e-08 1.4104758e-06 
5.7362094e-08 -1.2129490e-07 4.6713629e-07 
-2.1346078e-07 8.4397769e-08 4.2410815e-07 
-5.7058273e-08 2.4965102e-08 4.8167351e-08 
8.3346634e-08 4.7396446e-07 -3.3316422e-07 
9.6520738e-09 9.9539619e-08 3.2135574e-07 
-3.8284060e-08 -3.0962671e-08 -3.4490662e-07 
2.6791398e-08 1.6005292e-07 6.4774935e-07 
-1.2985824e-08 -9.7550227e-08 5.9642576e-07 
1.6728710e-07 3.0497606e-08 1.2249142e-06 
-3.0737758e-07 -3.4582218e-08 -1.1540254e-06 
1.3818929e-07 3.9412715e-08 -2.9556128e-07 
-1.4219651e-07 -6.9621095e-08 -4.4846871e-08 
3.4478333e-08 -1.1111170e-07 7.8718540e-07 
-1.3689426e-07 9.0459864e-08 8.1508261e-08 
-4.2928601e-08 2.2201381e-07 -3.0748882e-07 
-2.4217243e-07 -2.3273870e-07 2.0869425e-07 
-7.5537642e-08 5.8489761e-08 -4.5857050e-07 
1.2582368e-07 3.6073934e-07 -9.0835886e-07 
-1.1224821e-07 1.6362213e-07 4.8833931e-07 
2.6200655e-07 2.9008056e-08 1.9301408e-06 
2.3900867e-07 -7.5553039e-08 1.6629925e-06 
1.8409288e-07 5.9376266e-08 -1.8597355e-07 
-3.4175542e-08 2.5252808e-07 1.4295213e-07 
-2.3154686e-07 2.3288672e-07 -1.0793835e-06 
-6.2971317e-10 -9.4669190e-08 -4.9007701e-07 
6.4882266e-07 1.4753743e-07 -1.4704605e-06 
5.4954892e-08 -3.7149036e-08 -2.9187555e-07 
-1.8372494e-07 -3.3185721e-08 -1.2907091e-07 
2.2241389e-08 -9.6831101e-08 -1.1372550e-07 
1.3653033e-08 2.2714932e-08 -3.1837999e-07 
-4.3032880e-08 -9.9307641e-08 1.4433667e-07 
-9.9697544e-08 -1.2091368e-08 1.2415768e-07 
-2.1797957e-08 9.0547310e-08 -5.9326226e-08 
1.2644371e-07 -2.5729014e-08 1.8526434e-07 
-1.8531178e-08 -8.3731130e-08 4.2313602e-08 
-1.4893487e-07 -9.8501950e-08 -1.7249398e-06 
-1.3302126e-08 1.3714144e-07 8.7123269e-09 
9.7505115e-08 1.0743072e-07 -1.0257946e-06 
-9.7642328e-08 7.7397942e-08 -1.3748802e-07 
4.4782517e-08 7.2829124e-08 2.0139021e-07 
1.1341679e-07 1.2618503e-07 -1.0801126e-06 
-2.7954653e-07 -3.5838548e-07 9.7736699e-07 
-1.9980777e-07 1.1347502e-07 -7.3795462e-07 
2.5373531e-08 -2.6905940e-07 2.0367293e-06 
-1.5667590e-07 8.4415831e-08 5.0183365e-07 
-1.2436617e-07 -3.2439907e-08 -7.3398246e-07 
-1.3299834e-07 -7.8449929e-08 9.6576468e-07 
1.8754292e-07 -1.3052197e-07 -1.4466022e-07 
5.6409961e-09 8.5573632e-10 -1.7850343e-08 
2.5527936e-07 2.5790104e-07 -2.1516308e-07 
6.8786598e-08 1.3908237e-07 -2.1822045e-06 
-3.0578772e-07 -1.0360633e-07 4.8521133e-07 
1.5064826e-08 -2.3807438e-08 -5.5199024e-08 
-8.4164483e-08 -2.1589180e-07 7.4575217e-07 
1.1762492e-07 8.4349153e-08 -1.0386029e-07 
1.4298617e-07 -2.0676781e-07 -5.1632380e-08 
-1.0828389e-08 -4.3547448e-08 1.9242333e-07 
-6.1624682e-08 3.0107305e-08 2.4343450e-07 
4.5159954e-08 4.5746450e-08 2.9227493e-07 
7.4481562e-08 1.4381322e-07 -4.5517996e-07 
6.9479906e-09 6.1419755e-08 7.7389188e-08 
-3.4357200e-08 9.1746202e-08 -6.4302151e-07 
9.5013505e-08 9.4983610e-10 6.0938555e-07 
1.5642891e-08 7.7676447e-08 -4.1916209e-07 
3.5749039e-07 4.6492409e-07 -1.0733922e-06 
2.7625555e-07 -2.7485203e-07 -7.4740007e-07 
1.5916612e-07 4.5648881e-07 9.7669238e-07 
2.6564695e-07 2.6092829e-08 -9.3552438e-07 
-4.8289166e-08 -4.5924491e-08 -1.7133236e-07 
-2.1360081e-07 4.2021171e-07 4.4762359e-07 
2.5165940e-07 -3.6094389e-07 1.3162770e-06 
6.4382959e-08 -1.1596194e-07 -3.4805076e-08 
-3.2467685e-07 -6.4156822e-08 -9.3813969e-07 
-1.7334369e-08 1.0873217e-09 -3.1902388e-07 
1.2881324e-08 -7.3966193e-09 8.0235985e-08 
-4.0075250e-08 5.6854340e-08 5.0110287e-07 
9.9929141e-09 -5.2689252e-08 -3.3084387e-08 
5.1519475e-08 7.1364347e-08 2.3337310e-07 
-1.4474128e-07 1.1338759e-07 -1.3572874e-07 
-4.7574584e-08 6.3963512e-08 2.2894210e-07 
4.4598959e-08 5.6511016e-08 -6.8800074e-07 
-3.9799581e-08 -2.0186411e-07 4.8197654e-07 
2.1215723e-08 3.5723101e-08 4.1552241e-07 
-2.1850839e-09 3.9879126e-08 3.2050761e-07 
-1.7383047e-07 2.2649218e-08 -8.6415201e-07 
-1.2688626e-07 -1.9740087e-07 2.9643991e-06 
1.2312354e-08 1.2432658e-08 -2.1556356e-07 
-1.0684147e-08 8.5942965e-08 1.6048682e-07 
3.3671750e-08 -7.1589419e-09 2.7932897e-08 
-1.3936122e-08 6.7904111e-08 -1.0864719e-07 
-2.5716513e-08 1.0101266e-07 2.8525656e-07 
-1.2057581e-07 -5.1536560e-08 1.3941936e-06 
1.7064190e-07 3.1721150e-08 -1.4761720e-07 
2.7587056e-08 -7.3475991e-07 -4.4166899e-07 
-5.7858571e-09 2.5293183e-08 -5.5344833e-07 
-1.2273739e-07 -2.4036007e-07 4.1460197e-07 
-1.3833615e-07 -1.2706899e-08 -9.8132091e-07 
-4.7304081e-07 1.1387567e-07 1.6677433e-06 
9.9655459e-08 -4.9147097e-08 3.2267468e-07 
2.6984657e-07 5.7954324e-08 3.3177787e-07 
-1.0656539e-07 -3.0421316e-07 -7.5564787e-07 
5.5190949e-08 -1.2888093e-08 3.3006367e-07 
-2.8450909e-08 8.0456978e-08 -2.6231186e-07 
-2.5083740e-08 -2.9080539e-07 -4.7884288e-07 
8.0737266e-08 8.7484217e-08 3.4209179e-08 
-2.5516531e-08 -1.5817815e-07 -1.6617398e-06 
-2.6286600e-07 3.7353885e-08 1.9879901e-07 
2.6771190e-07 1.0549858e-07 1.3129331e-06 
2.7512213e-08 -1.1348767e-07 -1.9540371e-07 
7.2497592e-08 -6.7576565e-08 -1.3493526e-07 
-2.4986119e-07 2.7267628e-08 1.5325155e-06 
3.2200813e-08 -1.2116685e-07 -1.1079542e-07 
-4.9610001e-08 -1.5504111e-07 -1.9540774e-07 
2.5491474e-07 -9.5584390e-08 6.6445494e-07 
-1.2519195e-08 7.2792417e-09 3.4049542e-08 
-1.0989176e-07 2.1595751e-07 6.5983789e-07 
2.2361869e-08 -2.4441627e-07 -8.0372178e-07 
-1.3078952e-07 -3.1333315e-08 2.0264228e-07 
4.6881116e-08 -1.0316183e-08 3.3604468e-07 
-1.1646280e-07 -1.2067346e-07 4.2393933e-07 
-4.2189043e-07 4.0061487e-08 -2.0834784e-06 
6.5037637e-09 -9.5056585e-10 -1.4109049e-06 
5.3942749e-08 5.0209749e-08 -4.8189150e-07 
7.9025810e-08 -4.8025470e-08 -7.6879061e-08 
1.2921676e-07 7.0948664e-10 -3.2746038e-07 
-1.5996477e-07 1.2607109e-07 -6.3937136e-08 
-1.0574804e-07 4.3326221e-08 -1.3483991e-06 
-3.2024783e-08 1.6299877e-09 4.4780879e-08 
3.2042573e-07 2.5993972e-07 2.0173024e-07 
5.5407341e-08 -1.0365886e-07 -3.3105269e-07 
7.6044635e-08 -4.4293301e-08 3.9975740e-07 
-7.6278447e-08 -5.3163671e-08 1.9451511e-07 
2.7399352e-07 1.5164254e-08 -6.0942943e-07 
9.9321305e-08 -6.8513731e-07 -1.3046467e-06 
-6.1976976e-08 -5.7315646e-08 -3.0661525e-07 
2.8742559e-08 -4.5555279e-08 -2.3260296e-07 
-4.6753740e-08 2.3741931e-07 -5.9366396e-08 
-2.9325172e-08 9.8323255e-08 -1.8854621e-08 
1.7667351e-07 1.5159704e-07 3.0086149e-08 
1.3362821e-07 -9.8260557e-08 2.9413044e-07 
8.8212730e-08 5.6035261e-09 4.5529148e-07 
-3.1636080e-07 1.8903938e-07 1.4599939e-06 
-1.3213163e-07 -3.9530615e-08 6.3331117e-07 
2.0367027e-07 1.2241220e-07 -7.3338799e-07 
-1.2545080e-07 2.6560016e-07 -5.5492245e-07 
3.4467757e-07 -3.5059195e-08 -8.9085937e-08 
-1.1800282e-07 -6.1974035e-08 -2.6745340e-07 
8.3726803e-09 -1.6030198e-08 -1.9471328e-08 
-3.2827806e-08 6.1076179e-08 5.5037290e-09 
4.0814982e-08 -3.8889077e-08 1.0399614e-07 
3.7402963e-08 3.8209471e-08 -3.8541978e-07 
-4.4009063e-08 8.7016566e-08 -6.3249990e-07 
-1.2128319e-07 1.5328995e-08 2.1877194e-07 
2.4304398e-08 -9.3579764e-08 -1.1228690e-07 
-6.6474009e-08 8.3157687e-08 1.4588535e-06 
-2.8165196e-08 -7.9256267e-08 4.6499383e-07 
3.2084378e-07 -1.3904020e-07 -5.5038532e-07 
2.4212573e-08 -3.2941053e-08 -2.3469849e-07 
-4.2429923e-07 1.3510730e-07 -1.3621466e-06 
-1.3149644e-07 -9.2928374e-08 1.0358432e-06 
-3.2573828e-07 3.0075756e-07 1.1262488e-06 
-5.4319149e-09 -1.3160219e-08 -1.7558953e-07 
3.1056452e-08 -4.9643614e-08 -1.2438642e-07 
-2.1803743e-08 1.8564010e-07 1.7930269e-07 
2.3697849e-07 1.2296083e-08 -1.0813659e-06 
-6.6270211e-08 3.1955011e-08 -5.0036107e-08 
2.2374452e-07 2.0354700e-07 -9.7213581e-07 
1.9433659e-07 -6.6949831e-08 5.0910046e-07 
5.2707364e-08 1.4154985e-07 -5.3811794e-07 
-1.0942279e-07 7.0241612e-08 -5.6031996e-07 
-5.1101082e-08 2.0800993e-08 3.8124705e-07 
1.1908643e-07 -1.0575947e-07 6.7843791e-07 
-3.0388254e-08 7.2552837e-08 6.2667777e-07 
-2.1972586e-08 1.2258846e-07 4.7764507e-07 
3.1174599e-07 -9.3833137e-08 2.0545415e-06 
1.6273179e-07 -7.8932338e-08 -4.8317872e-07 
3.2851298e-07 -3.0583205e-08 -7.1964638e-07 
-3.7930040e-08 3.6831910e-08 6.9887795e-07 
-3.2156098e-07 -2.4544138e-07 -2.9065468e-06 
-4.8261931e-08 2.5036374e-07 2.6461473e-06 
1.8967957e-07 2.9503391e-07 5.5154538e-07 
1.4156687e-07 9.7836434e-08 3.6486779e-07 
2.1025466e-08 3.7379536e-08 8.6189701e-08 
2.3104390e-08 -1.3421375e-07 3.4975542e-07 
-5.6055082e-08 5.4721976e-08 2.7079392e-07 
1.2684079e-07 1.8036070e-09 -1.8774642e-07 
4.4535167e-08 -1.7475671e-07 -9.1195488e-08 
1.0066665e-07 -5.3943910e-07 -6.1670443e-07 
-1.8318842e-08 1.1659380e-07 -4.2526295e-08 
-4.5708944e-08 3.4125797e-08 -2.1723326e-07 
-5.7173395e-08 -1.9478885e-09 9.6212716e-08 
3.3710318e-08 2.5434769e-08 -4.8308380e-07 
-1.2617708e-07 -1.0150796e-07 7.0789480e-07 
-3.5784680e-08 -1.8095943e-07 -4.6594076e-07 
-2.4110642e-07 2.2152076e-09 -1.7027073e-06 
-1.7034992e-07 6.7934977e-08 -9.3896938e-07 
2.1725899e-07 3.9657973e-08 1.6246653e-07 
-1.8178673e-07 9.7103168e-08 3.1636091e-07 
-2.5286170e-07 8.0819667e-08 1.9887310e-07 
2.9342115e-08 7.0138256e-08 8.8994858e-07 
-7.5329005e-08 4.2465491e-08 -3.5284600e-08 
1.1315549e-07 -9.9568013e-08 -2.1158210e-07 
-1.9846537e-08 9.0266298e-08 -9.0064447e-07 
3.8943359e-08 -1.1695177e-07 -1.2870797e-07 
5.9921014e-08 -2.2283110e-07 1.0483737e-07 
-7.0661727e-08 -1.6468947e-07 2.1771939e-07 
-2.2928013e-07 -1.2158786e-07 -8.8197521e-07 
-1.5672812e-07 -9.0621448e-08 7.9547817e-07 
1.7019478e-07 5.2507001e-08 7.9489547e-07 
1.2497183e-07 6.7660089e-08 -9.4073397e-07 
6.3050214e-09 -8.8398608e-08 1.7586233e-07 
-2.4202478e-07 8.5872003e-08 -1.0466088e-06 
-6.1280765e-08 1.2874504e-07 -6.1740161e-07 
-1.6244445e-07 -8.8741459e-08 -8.5545753e-07 
-2.6085104e-07 9.4894915e-08 3.7270556e-07 
8.4763387e-09 7.0796723e-08 -3.2792377e-07 
-4.2510905e-08 1.5712304e-08 -9.8229826e-08 
2.8570607e-08 7.7137798e-09 -5.8186782e-08 
1.5064998e-08 -1.1345535e-07 2.0579644e-07 
-7.3837931e-09 -2.7671128e-08 -2.1946647e-08 
-6.7834286e-08 -1.1674584e-08 -2.9590527e-08 
-5.8478605e-08 2.0923416e-08 1.8458384e-07 
2.3481800e-07 -4.0707752e-07 4.2922068e-07 
-3.1678567e-07 3.9226120e-07 -1.1460846e-06 
-1.0068351e-07 -6.7435231e-09 -4.8097706e-07 
1.4757431e-07 1.8304654e-08 -5.6627658e-07 
3.7415258e-08 -7.7421689e-08 1.4177996e-07 
-4.2215698e-09 7.1919422e-09 2.4501574e-07 
-1.2598406e-08 2.6592826e-07 -5.1380141e-07 
6.7778551e-08 -6.1771033e-08 4.7698364e-07 
4.2846131e-07 2.0664527e-07 -1.4095207e-07 
9.6491981e-08 -7.6655482e-10 1.8322007e-07 
-1.3973406e-08 -4.0899785e-08 -6.6491617e-07 
4.1721979e-08 -1.7469986e-08 7.6429956e-07 
1.1518304e-07 1.6878404e-07 -2.1946613e-07 
5.2959361e-08 1.9269617e-08 9.4864859e-08 
-1.3898347e-07 -8.4100549e-08 -1.3025357e-07 
2.9662786e-08 -4.5609958e-08 -1.5392754e-07 
5.4269250e-08 5.8617843e-08 1.2627813e-06 
6.7622267e-08 -2.1304825e-09 1.8426645e-07 
-1.2287224e-07 4.7611955e-08 5.4167435e-07 
4.8824884e-08 2.9454921e-07 -6.6159186e-07 
2.2477153e-07 -7.7474155e-08 7.7037822e-07 
-3.3213759e-08 -6.5303723e-08 8.1540072e-08 
-3.1466623e-08 -7.3667323e-08 3.6848283e-07 
-5.8142305e-08 1.6539349e-08 4.6839691e-07 
1.8210784e-08 4.9492577e-08 1.8633492e-07 
-2.3660039e-08 1.2072692e-07 3.3553161e-07 
1.4794473e-07 -4.8755417e-08 1.4046570e-06 
6.9979642e-08 4.3606039e-09 8.7247258e-09 
-3.1487119e-08 -3.5131702e-08 1.3560677e-07 
1.3636260e-08 4.1927599e-08 9.8854187e-08 
-4.4073474e-09 4.8142095e-08 -1.0833647e-07 
-2.6852675e-08 6.7267443e-08 -7.1462601e-08 
-3.0087648e-07 -1.2288344e-08 -1.3945285e-07 
-5.0526161e-08 6.9010426e-08 -1.1495702e-07 
6.0472800e-08 -1.3944022e-07 6.0991829e-07 
-2.4034588e-09 4.1890395e-08 2.1579963e-08 
-1.9743448e-08 1.4042078e-07 -1.9627343e-07 
-8.0683877e-09 3.4323328e-08 -4.3482177e-07 
7.4279235e-08 -2.1346848e-07 -1.8042498e-07 
-9.7165412e-08 -1.7743808e-08 6.7116713e-07 
4.4476359e-08 -1.4865742e-08 3.3196554e-07 
-2.2338342e-07 -3.5357496e-07 -6.8863665e-07 
-2.1492755e-07 -7.7871064e-08 1.2638330e-07 
5.5771920e-08 -9.9192732e-08 5.2953715e-07 
6.4119796e-08 -8.5885041e-08 -8.9427061e-08 
-1.5452400e-07 -2.9409264e-07 -3.7842565e-07 
6.6835533e-08 -8.9867797e-08 -1.1056910e-07 
-9.1792572e-08 -2.6563009e-07 8.0406619e-07 
-6.2081462e-08 -4.1589260e-08 2.2970866e-07 
-7.1284418e-08 8.4749807e-09 -1.5818975e-07 
-5.6549968e-08 1.4262591e-08 2.5150985e-07 
-1.1658224e-07 2.1519045e-07 1.2207522e-08 
1.3199484e-07 2.5094656e-07 2.9886911e-07 
-2.2056334e-08 -2.1676945e-08 4.1439685e-07 
4.5939050e-08 2.5335181e-08 2.0760115e-07 
1.0602002e-07 1.8837682e-07 1.1329922e-07 
9.8384074e-09 -3.6376669e-08 -9.3050986e-08 
-1.2653702e-08 6.2799280e-08 -4.5777256e-08 
-1.0026945e-08 -5.8133400e-09 -1.0912692e-07 
1.0489598e-08 8.3406896e-08 2.7107603e-08 
-4.2332328e-08 -3.1552389e-08 -1.9516818e-08 
1.6294891e-07 5.7780028e-08 -1.1760173e-07 
1.3050948e-07 -4.9593861e-08 -2.9293864e-07 
-1.0520204e-08 1.2078864e-07 -5.6330583e-07 
8.4432223e-08 -5.9650578e-09 3.3594699e-07 
4.8010516e-08 7.4694157e-08 3.6122361e-07 
9.7546810e-08 -7.1547621e-09 -4.4098005e-07 
6.2073710e-08 -1.9959114e-07 4.7168831e-07 
1.7651519e-07 -1.2926540e-07 -2.5855780e-07 
1.3491685e-07 4.2554960e-10 -7.9170938e-08 
-7.8748997e-08 2.1427407e-07 2.7353678e-07 
3.4338488e-08 -1.2314148e-07 -4.5162059e-07 
7.7072684e-08 3.0043875e-08 1.4582436e-07 
-1.1249190e-08 2.1230582e-09 -1.5939612e-07 
-7.3677271e-08 2.2597962e-07 -1.0045362e-07 
1.4252927e-07 2.9991139e-07 -4.2750298e-07 
4.3800700e-08 -2.5682491e-08 3.0578380e-07 
-6.7869429e-08 -1.1116220e-08 5.6081383e-08 
-2.7464901e-07 -1.7038867e-07 4.5841412e-07 
2.2905844e-08 -1.4576558e-07 -1.3447760e-07 
1.1275564e-07 1.6828895e-07 -7.8846938e-07 
-3.3100295e-07 1.0592718e-09 5.0381300e-07 
5.9929732e-08 -4.9455352e-08 6.7904858e-07 
3.5016811e-08 -4.3818199e-10 -1.1207779e-07 
-3.1866980e-09 -7.9022342e-08 1.4940269e-08 
-1.9757611e-08 -2.1229408e-08 7.9402980e-08 
2.4160228e-08 2.8532448e-08 1.0320737e-07 
-3.4218427e-08 -3.9890811e-08 -1.3768307e-08 
1.5027953e-07 7.5995061e-08 8.8129553e-08 
1.0457477e-08 1.6251323e-07 -3.5654818e-07 
3.1249763e-07 -5.8590636e-08 -9.8150917e-07 
3.9501924e-08 -3.8245734e-08 -2.3046053e-07 
2.1090637e-08 -2.7631305e-08 4.3950770e-08 
-1.4892939e-07 1.3339357e-07 5.7372307e-07 
3.0637032e-08 2.5570651e-08 -1.1819250e-07 
4.0346098e-08 -2.1993338e-07 -8.2095639e-08 
4.7592835e-08 3.6633221e-08 -1.1855937e-07 
-1.5025788e-07 2.0442535e-07 -8.3405247e-08 
9.5904156e-09 2.0965162e-08 -4.0391348e-07 
7.8836294e-08 7.8206810e-08 2.0903380e-07 
-2.2377563e-07 -6.3659343e-08 3.5718983e-10 
-3.6936239e-08 1.0759012e-07 3.1611668e-07 
-8.5425583e-08 -1.1178826e-07 -1.2203681e-06 
7.5182832e-08 1.0969936e-07 -2.5913556e-07 
-8.8820244e-08 -1.6591903e-07 4.9536544e-07 
-3.6600312e-08 -2.4184476e-07 4.5189233e-07 
-2.1654714e-09 -1.0570547e-08 9.2236732e-08 
-1.3742548e-08 -1.4160005e-08 -3.2341973e-07 
-2.3830151e-07 -1.1180227e-07 6.0882792e-07 
-4.3860009e-09 -1.1100058e-08 -1.8419411e-07 
9.7946007e-09 8.2243723e-10 2.2316780e-07 
4.1961862e-08 1.5859756e-07 -6.9616141e-07 
-4.3562448e-08 -4.5318956e-08 -2.8153255e-07 
4.9856954e-08 -1.9105330e-07 5.4353052e-08 
6.7870850e-08 -3.5990038e-08 3.6398905e-08 
-3.7036699e-08 5.3159440e-08 -5.1107634e-08 
1.2760378e-07 1.1489165e-07 1.7345126e-07 
4.8461635e-10 -1.0803468e-07 -9.8782266e-08 
4.9281290e-10 1.9556357e-09 7.8520372e-08 
2.8751128e-08 4.7204193e-08 -1.6411931e-08 
-3.3809066e-08 2.6204891e-08 2.7591653e-09 
-1.0078918e-07 2.0830340e-08 1.9600947e-07 
2.6537586e-07 1.0346997e-07 -6.3488192e-09 
8.9623740e-08 3.5734441e-08 -1.0622000e-07 
-3.0833416e-08 -5.5812585e-08 1.3399094e-07 
-7.7443332e-09 -6.2752310e-09 -1.2416095e-09 
-7.4929538e-09 1.0354139e-08 -1.6144547e-07 
-3.5437690e-08 6.3884556e-08 9.4457926e-07 
9.3726030e-08 -1.5550580e-07 8.4345714e-07 
1.5482435e-07 -2.1381622e-07 -1.9705135e-07 
-3.4190634e-08 2.5836889e-07 -1.0548857e-07 
3.0120493e-08 -7.2401939e-08 -3.7112554e-07 
-5.2001692e-08 7.5087101e-08 1.5818679e-07 
1.4460813e-08 -1.2693779e-07 -6.0055427e-08 
-1.6721283e-07 2.1309802e-07 -9.8360442e-07 
-9.4252684e-08 -8.7843759e-08 5.7197195e-07 
2.8244123e-08 4.8666254e-07 -1.7011996e-07 
-9.9658855e-08 7.5173844e-08 8.6852680e-08 
1.5512443e-07 -8.6803048e-08 -2.9962393e-08 
-2.9488405e-07 -2.2599401e-07 7.0058860e-08 
-5.6558047e-08 1.6268702e-07 6.2103709e-07 
1.1853889e-08 -6.7338206e-08 1.0985414e-07 
9.5423651e-08 1.1888167e-07 2.0384898e-07 
7.9135759e-08 5.8033716e-08 -2.5311067e-08 
-1.3441638e-07 8.0083829e-08 3.9227589e-07 
1.8072782e-08 1.1929140e-07 9.4305094e-08 
-2.8964527e-08 -2.5273410e-08 -2.1309900e-07 
-5.2115613e-08 9.3032426e-10 1.6554993e-07 
-9.4523021e-09 -2.9955402e-08 -3.9028407e-08 
4.3812037e-08 1.3163984e-07 -1.0625439e-07 
-1.1427916e-09 -4.9453104e-09 -2.8423148e-07 
-4.6745097e-09 9.7572531e-08 2.5420135e-07 
5.7350267e-08 -2.2852956e-07 -3.3104629e-07 
-6.2088134e-08 -8.3537742e-08 -4.2336339e-08 
-4.8087291e-08 -6.7431330e-08 -1.4254576e-07 
-5.9333765e-08 4.9891987e-08 4.1134989e-08 
-1.3266369e-07 7.0973869e-08 4.0901000e-07 
9.4091675e-08 1.3289631e-09 1.9984715e-07 
6.4125508e-08 8.2023686e-09 -2.9655476e-07 
7.1502129e-09 -2.4323279e-07 8.8370359e-07 
1.0706867e-07 -3.8238817e-08 -3.1277139e-07 
5.1505275e-08 5.1757638e-08 -5.6503836e-07 
4.4368676e-08 4.9980201e-08 -4.4537234e-07 
7.6834814e-09 -7.0671859e-08 1.9838757e-07 
1.3305488e-07 -1.0122009e-07 2.9716395e-07 
-3.1655187e-08 7.1163342e-08 1.9086684e-08 
8.0204439e-09 3.4310357e-08 7.2200450e-08 
3.2925511e-09 -1.4952013e-07 -1.7092100e-07 
4.2887649e-08 -1.8043792e-07 -5.6941821e-07 
6.5175534e-08 3.2901731e-08 -6.0327174e-08 
-2.2156348e-07 -6.1774649e-08 1.0834483e-06 
-1.2492299e-08 1.1506931e-07 1.1868849e-07 
1.2324091e-07 3.1670393e-08 6.0034424e-08 
-3.5162034e-07 -4.0207244e-08 -1.4144268e-07 
-4.3520309e-08 2.2340058e-07 -1.4628249e-06 
-4.3166679e-08 -2.6857896e-07 -4.5668611e-07 
2.0973178e-07 3.3370605e-07 -1.5158237e-06 
1.3067853e-07 -6.7968891e-08 2.2970178e-07 
1.8003223e-07 1.9194439e-07 -9.1096649e-07 
1.7881597e-08 -3.0161907e-08 5.5735012e-07 
1.0462659e-07 2.9902097e-08 8.2185545e-07 
-4.2149253e-09 -6.8492724e-08 1.0889703e-06 
1.4358783e-07 -8.0285830e-08 -5.2694890e-07 
-1.6277735e-07 -5.7963128e-08 -4.1215321e-07 
-6.2094280e-08 5.7077997e-08 -6.6748748e-07 
-2.6380468e-07 -3.7264574e-08 9.6627218e-08 
-2.4135446e-07 -1.7232037e-07 2.4146166e-07 
-9.3910202e-08 1.3736299e-07 2.6103194e-07 
-8.5949225e-08 -5.1803021e-08 -1.7384863e-07 
1.1309830e-07 9.0686214e-08 -4.1258028e-07 
6.3015456e-08 2.6551686e-07 1.2802020e-07 
2.1211040e-08 5.6932841e-09 1.5019722e-07 
-8.6266603e-08 1.4639181e-08 2.0490288e-07 
1.1199496e-07 -4.5772666e-08 -7.0229092e-08 
-9.2410573e-08 -1.8633848e-08 1.4106547e-07 
1.4031710e-07 1.3451853e-07 2.0438833e-08 
-2.1677696e-08 -2.2034090e-08 -4.6230895e-08 
-1.7143044e-08 3.2983394e-09 4.6956967e-07 
-4.5141920e-08 8.0544503e-08 1.9036719e-07 
-4.6099032e-08 -2.0995685e-09 1.7542618e-07 
-3.9895207e-09 -7.5173681e-08 -3.6180484e-07 
1.0053000e-07 2.8517260e-08 2.3239413e-07 
4.9925397e-11 -2.5829433e-08 3.7366280e-07 
2.9368493e-08 -2.1264199e-09 -3.7612324e-07 
-1.0362873e-07 2.4567953e-08 1.9607143e-07 
1.4660245e-08 -9.1527525e-08 1.4442942e-07 
-6.2393291e-09 -5.5094350e-08 1.0061246e-06 
3.5213894e-08 4.4823985e-08 -1.9862232e-07 
6.4693246e-08 -2.2112738e-07 3.5407433e-07 
1.6447341e-08 6.2843185e-08 -8.1151558e-07 
-1.5736107e-07 1.7922376e-07 2.6677986e-07 
1.6953352e-07 9.8358605e-08 -3.6060550e-07 
-1.0034697e-07 6.6352719e-08 -3.2284433e-07 
2.7342628e-07 -1.1552024e-07 -1.0535048e-06 
9.3324665e-08 -2.9719800e-09 -1.5305116e-07 
1.3001359e-07 -1.9506929e-07 2.0620507e-07 
1.1238213e-07 1.4711082e-07 7.4112592e-07 
1.2010032e-07 1.7619399e-09 -2.7404980e-08 
1.2473456e-07 -4.9552487e-09 -1.5202752e-07 
-1.6777720e-07 -1.5834780e-07 9.6578287e-07 
5.7263190e-08 -8.3471313e-08 -6.3217800e-07 
-3.1109004e-12 -2.4430122e-08 3.2574158e-07 
7.5688412e-08 -1.8962782e-08 -3.7212061e-08 
-8.7349726e-08 -1.5454302e-07 -3.2363613e-07 
1.2106469e-07 -1.4396016e-07 -6.3015625e-07 
-3.3529705e-07 -3.2723261e-07 4.8863137e-07 
-4.5057799e-08 -1.8672704e-07 4.8321533e-07 
-4.3893607e-08 -6.3926446e-09 9.4654922e-08 
1.0411329e-08 -1.9004116e-08 -4.7903356e-08 
3.1724952e-08 1.9110963e-08 1.1586663e-07 
-1.5363858e-07 3.9179795e-08 -1.2258417e-07 
-1.0910885e-08 -7.4799559e-08 -2.6800728e-07 
4.8509975e-08 8.5126480e-08 -4.2946283e-07 
9.9908149e-08 5.7105279e-08 -9.9937722e-07 
7.4542029e-08 3.8331859e-08 1.7550528e-07 
8.1874283e-08 7.4181386e-08 -4.4402799e-07 
-2.7900462e-08 -3.8515410e-08 -3.1558807e-07 
1.6586532e-07 5.7267670e-07 2.1764033e-07 
8.3718007e-08 4.1199151e-08 7.0385170e-08 
4.8649804e-09 -7.1712591e-08 7.3703319e-08 
-2.2259460e-08 1.2660587e-07 8.0036443e-08 
1.2502562e-07 -8.6498915e-09 1.4576567e-06 
-2.1711395e-07 8.3869253e-08 5.6865593e-07 
-8.3659984e-08 -1.1585600e-07 3.5406811e-07 
-1.5136629e-07 -2.5778803e-08 -4.1667474e-07 
-5.0377704e-08 1.1508020e-07 4.5023697e-07 
-2.0085480e-09 -1.1822408e-07 6.6076353e-09 
-6.4343837e-08 9.2218016e-08 1.2687527e-06 
7.0798336e-09 -2.9605161e-08 6.6672663e-07 
-9.9005433e-08 -9.2873293e-08 2.0539538e-08 
-2.3683327e-07 6.7639817e-08 -9.9265583e-07 
-9.4127415e-08 8.6199535e-08 -2.0763645e-07 
-1.1791881e-07 -2.0623318e-08 1.4111062e-07 
-7.4128288e-08 -2.3280330e-07 1.4042990e-07 
-2.0372063e-07 -1.2123590e-07 -7.4266063e-07 
-3.3140342e-08 -2.1875573e-07 -3.6375027e-07 
2.3366640e-07 -1.7349787e-08 -1.0031289e-07 
-5.2821886e-08 -1.1989317e-07 8.4523748e-08 
2.4766123e-07 2.7520849e-07 -4.7067365e-07 
-9.8307240e-08 -1.9813496e-07 -3.1229814e-07 
-2.3748491e-07 -3.0060983e-07 -4.2703738e-07 
3.3522014e-07 1.3456791e-07 5.9570823e-08 
8.4902190e-08 1.1094659e-07 -8.3370139e-08 
-2.1778621e-07 -2.9418004e-08 -4.7042928e-07 
4.6273172e-08 2.1859282e-07 1.4853542e-07 
-8.5406228e-08 2.5848507e-07 -2.0851374e-08 
3.7273983e-07 8.2674283e-08 3.9603134e-07 
2.6452395e-07 -1.8278546e-07 -3.2045307e-07 
-1.1926812e-07 -2.0113625e-07 -3.5076894e-07 
1.4531741e-07 6.7957188e-08 -2.3719338e-09 
6.2198978e-08 6.5904473e-08 -4.0192793e-07 
-1.3729509e-07 1.0681387e-07 2.1885091e-07 
6.1235710e-08 5.1349446e-08 1.3981537e-07 
-2.5523597e-08 -8.3327684e-08 -1.4040540e-07 
-2.4995872e-08 3.4417589e-08 1.8407128e-07 
1.7207775e-07 7.7971400e-08 9.0512077e-07 
1.3759781e-08 2.3392978e-08 -1.0925953e-07 
-1.9234487e-07 -2.6904542e-07 -6.3584139e-08 
-2.8902432e-08 3.8764604e-08 -4.5646971e-08 
4.2017284e-08 -3.0589728e-08 1.0958013e-07 
3.5714667e-09 -1.0344634e-07 1.3754153e-07 
2.9269202e-08 -1.4100399e-07 1.0115713e-07 
2.3487723e-07 3.8081754e-07 -3.3247488e-07 
-3.3216119e-07 1.6178635e-08 5.3939004e-09 
-1.6006049e-07 -2.8799391e-08 -1.6334576e-07 
4.5282263e-08 2.3247365e-07 2.3216700e-07 
-4.8856126e-08 -5.2111137e-08 -2.1815788e-07 
8.7676000e-08 -1.1059188e-07 8.1202035e-07 
-2.2558443e-07 -4.9388650e-08 -3.0425002e-07 
1.4435983e-08 -2.0990331e-07 2.2898335e-07 
-8.8714302e-08 1.4192953e-07 3.4196253e-07 
1.7477555e-07 1.1405012e-07 3.9364380e-07 
-8.7913897e-08 -2.6601427e-08 1.8442489e-07 
-8.2184343e-08 2.4615311e-08 8.2486125e-09 
6.7245921e-08 2.1487412e-07 -1.1392007e-07 
7.5370309e-08 -3.3946208e-08 3.6727798e-08 
3.7957349e-08 -3.7831995e-08 4.3651909e-08 
1.4973304e-07 -1.0199257e-08 1.0462088e-07 
-5.8927512e-09 1.4358771e-07 -1.8267686e-07 
-1.2544703e-09 -1.4156406e-07 -4.1906296e-07 
1.6741950e-09 1.7464206e-08 2.2702132e-07 
1.7702112e-07 -7.4467586e-08 -1.1610558e-07 
-1.4356183e-07 -4.1441709e-08 6.3202720e-08 
9.6927074e-08 5.8577729e-08 -4.9765287e-08 
-7.8018765e-08 4.2107962e-09 5.2383257e-08 
7.7313203e-08 4.4440224e-08 4.6693458e-09 
1.4001542e-07 3.3668133e-08 4.7463413e-08 
5.6626774e-08 -5.9429741e-08 -1.9850741e-07 
1.8907295e-07 3.2423756e-08 2.5305241e-07 
-1.6308803e-09 1.6599616e-08 -6.3217556e-09 
-5.5071400e-08 -4.3935383e-08 6.0426345e-08 
-7.0860935e-08 -6.9351273e-08 -9.5879109e-08 
-4.0673214e-08 -7.4425088e-08 -8.8152490e-07 
-7.2715238e-08 3.8710823e-08 5.1022863e-07 
6.7427788e+01 -9.4249466e+01 2.2134573e+02 
1.3927716e+02 -3.0199399e+02 4.2452100e+02 
1.7200742e+02 2.2563847e+02 -4.5471531e+01 
6.8430267e+02 4.2594598e+02 7.1192065e+02 
5.3793182e+01 -4.2178296e+02 7.9228967e+02 
1.5680185e+02 2.9866031e+02 -4.3827524e+02 
-1.1927661e+02 8.4424355e+01 -2.5866507e+02 
-4.4900311e+01 -1.1192115e+02 9.3781744e+02 
2.1867390e+02 1.2270876e+02 -2.5758932e+02 
-1.6726836e+02 -3.9964468e+02 9.5606464e+02 
-3.6363828e+02 1.5481799e+02 -7.4996832e+02 
2.6330658e+02 2.0847594e+02 7.0634021e+02 
-5.4077389e+01 -4.8647091e+01 1.3365341e+03 
-1.0239412e+02 1.8501836e+02 -1.7485421e+03 
-2.5554738e+02 -2.4567090e+02 6.4998090e+02 
-2.7276309e+02 3.8423904e+01 -4.8475360e+02 
1.9457668e+02 3.3102094e+02 -3.6983768e+02 
9.4576225e+01 1.1159776e+02 1.5965016e+01 
-3.4071378e+02 -9.7736465e+01 5.0985220e+02 
-3.4194626e+02 -1.3327995e+02 -6.0066748e+02 
-8.9979904e+01 8.6254623e+01 8.6023645e+02 
-9.0253517e+01 -6.3521561e+01 -1.5241736e+03 
-3.2121094e+02 -7.2988388e+01 7.6012274e+02 
-2.6934729e+02 -1.7460094e+02 -1.0126501e+03 
-8.9946030e+01 6.0234779e+01 4.8084271e+02 
1.8007123e+02 1.0936755e+02 -6.9049677e+02 
-1.9082581e+02 7.6033409e+01 4.7964096e+02 
-1.6596823e+02 -3.2661740e+02 -6.0682916e+02 
-9.8495514e+01 7.6474510e+01 1.8952322e+02 
-2.3630238e+01 -2.3917059e+02 -4.2461084e+02 
7.6634468e+01 -7.5046043e+00 -7.3358147e+01 
4.4683281e+01 -2.8501340e+02 -5.8440033e+02 
1.7980856e+01 -9.0861549e+01 -1.5987552e+02 
VELOCITY 3 4496  float
1.1441821e-01 1.1466090e-01 -1.1472920e-03 
1.1398348e-01 1.1414088e-01 -1.1470715e-03 
1.1452794e-01 1.1490666e-01 -1.3328607e-03 
1.1468278e-01 1.1477017e-01 -8.1175618e-04 
1.1399202e-01 1.1395959e-01 -8.3677395e-04 
1.1386681e-01 1.1411583e-01 -1.3325524e-03 
1.1354578e-01 1.1361732e-01 -1.1468420e-03 
1.1466925e-01 1.1513922e-01 -1.4358402e-03 
1.1490203e-01 1.1497349e-01 -7.1641640e-04 
1.1423073e-01 1.1462052e-01 -1.4450826e-03 
1.1446360e-01 1.1444661e-01 -7.1218575e-04 
1.1355358e-01 1.1343419e-01 -8.3493826e-04 
1.1342692e-01 1.1359312e-01 -1.3380407e-03 
1.1378410e-01 1.1409213e-01 -1.4544777e-03 
1.1481708e-01 1.1533870e-01 -1.4726254e-03 
1.1401724e-01 1.1391027e-01 -7.0790941e-04 
1.1310504e-01 1.1309014e-01 -1.1466005e-03 
1.1505932e-01 1.1517280e-01 -7.3461473e-04 
1.1368698e-01 1.1363742e-01 -9.0578414e-04 
1.1432374e-01 1.1475319e-01 -1.4798691e-03 
1.1455888e-01 1.1458373e-01 -7.4977567e-04 
1.1298403e-01 1.1306678e-01 -1.3434652e-03 
1.1311209e-01 1.1290517e-01 -8.3308300e-04 
1.1332908e-01 1.1355378e-01 -1.4640355e-03 
1.1356270e-01 1.1336412e-01 -7.0354529e-04 
1.1500708e-01 1.1553784e-01 -1.4271326e-03 
1.1370597e-01 1.1402388e-01 -1.4954035e-03 
1.1266138e-01 1.1255930e-01 -1.1463200e-03 
1.1520842e-01 1.1540902e-01 -8.2849641e-04 
1.1394772e-01 1.1383849e-01 -7.2627485e-04 
1.1286546e-01 1.1300517e-01 -1.4737290e-03 
1.1253805e-01 1.1253671e-01 -1.3489742e-03 
1.1266758e-01 1.1237253e-01 -8.3121582e-04 
1.1415200e-01 1.1451322e-01 -1.4240427e-03 
1.1309969e-01 1.1280789e-01 -6.9912110e-04 
1.1324907e-01 1.1348299e-01 -1.5045872e-03 
1.1434127e-01 1.1438044e-01 -8.4194058e-04 
1.1463822e-01 1.1507066e-01 -1.3849128e-03 
1.1349136e-01 1.1329056e-01 -7.2245445e-04 
1.1479834e-01 1.1496776e-01 -9.0802117e-04 
1.1221451e-01 1.1202488e-01 -1.1460450e-03 
1.1522344e-01 1.1576059e-01 -1.3687202e-03 
1.1369714e-01 1.1398292e-01 -1.4463863e-03 
1.1391101e-01 1.1385206e-01 -8.1935030e-04 
1.1536027e-01 1.1568196e-01 -9.7645639e-04 
1.1239286e-01 1.1244587e-01 -1.4835679e-03 
1.1278345e-01 1.1293168e-01 -1.5138745e-03 
1.1208895e-01 1.1200295e-01 -1.3544412e-03 
1.1221993e-01 1.1183613e-01 -8.2915893e-04 
1.1262804e-01 1.1224127e-01 -6.9462159e-04 
1.1302651e-01 1.1273244e-01 -7.1857829e-04 
1.1487913e-01 1.1535160e-01 -1.3732385e-03 
1.1324610e-01 1.1343659e-01 -1.4354505e-03 
1.1497548e-01 1.1529455e-01 -1.0941678e-03 
1.1176455e-01 1.1148651e-01 -1.1457121e-03 
1.1343374e-01 1.1329377e-01 -8.3934068e-04 
1.1413085e-01 1.1446021e-01 -1.3792218e-03 
1.1424327e-01 1.1438680e-01 -1.0420548e-03 
1.1545452e-01 1.1604282e-01 -1.3781369e-03 
1.1552378e-01 1.1600928e-01 -1.1896556e-03 
1.1230883e-01 1.1236961e-01 -1.5233053e-03 
1.1278888e-01 1.1290362e-01 -1.4581436e-03 
1.1191107e-01 1.1187567e-01 -1.4935677e-03 
1.1163658e-01 1.1146530e-01 -1.3600026e-03 
1.1176908e-01 1.1129595e-01 -8.2713465e-04 
1.1255284e-01 1.1216386e-01 -7.1471359e-04 
1.1298744e-01 1.1274578e-01 -8.1589748e-04 
1.1214730e-01 1.1166386e-01 -6.9006899e-04 
1.1131129e-01 1.1094438e-01 -1.1454120e-03 
1.1329679e-01 1.1346712e-01 -1.3869980e-03 
1.1340447e-01 1.1338975e-01 -1.0518124e-03 
1.1182491e-01 1.1179649e-01 -1.5327587e-03 
1.1207004e-01 1.1158437e-01 -7.1076810e-04 
1.1118103e-01 1.1092386e-01 -1.3654906e-03 
1.1131506e-01 1.1075190e-01 -8.2508463e-04 
1.1230524e-01 1.1231799e-01 -1.4468413e-03 
1.1141973e-01 1.1129405e-01 -1.5036663e-03 
1.1249181e-01 1.1216623e-01 -8.3704857e-04 
1.1165725e-01 1.1107533e-01 -6.8541727e-04 
1.1566363e-01 1.1640810e-01 -1.5645304e-03 
1.1085472e-01 1.1039828e-01 -1.1451049e-03 
1.1486950e-01 1.1546286e-01 -1.5722981e-03 
1.1183022e-01 1.1176419e-01 -1.4703862e-03 
1.1202841e-01 1.1159734e-01 -8.1261987e-04 
1.1133139e-01 1.1121184e-01 -1.5423513e-03 
1.1083820e-01 1.1019339e-01 -8.4356137e-04 
1.1072194e-01 1.1037827e-01 -1.3710797e-03 
1.1157791e-01 1.1099377e-01 -7.0681440e-04 
1.1091856e-01 1.1070080e-01 -1.5139179e-03 
1.1115772e-01 1.1047546e-01 -6.8060291e-04 
1.1407158e-01 1.1451303e-01 -1.5800856e-03 
1.1235633e-01 1.1234728e-01 -1.3955625e-03 
1.1039470e-01 1.0984831e-01 -1.1447688e-03 
1.1239781e-01 1.1219177e-01 -1.0611052e-03 
1.1132699e-01 1.1115450e-01 -1.4581982e-03 
1.1082791e-01 1.1061537e-01 -1.5519732e-03 
1.1025973e-01 1.0982881e-01 -1.3765247e-03 
1.1039670e-01 1.0965176e-01 -8.2062918e-04 
1.1151303e-01 1.1099508e-01 -8.3509332e-04 
1.1107592e-01 1.1039151e-01 -7.0278300e-04 
1.1040715e-01 1.1009532e-01 -1.5242451e-03 
1.1326973e-01 1.1355802e-01 -1.5879197e-03 
1.1064804e-01 1.0986362e-01 -6.7577767e-04 
1.0993155e-01 1.0929409e-01 -1.1443204e-03 
1.1083294e-01 1.1057844e-01 -1.4825746e-03 
1.1103137e-01 1.1040393e-01 -8.0962892e-04 
1.0979396e-01 1.0927521e-01 -1.3821543e-03 
1.0993250e-01 1.0909569e-01 -8.1838947e-04 
1.1031412e-01 1.1000655e-01 -1.5617205e-03 
1.1056393e-01 1.0977739e-01 -6.9878157e-04 
1.1135487e-01 1.1115450e-01 -1.4045414e-03 
1.0988513e-01 1.0947724e-01 -1.5346938e-03 
1.1144930e-01 1.1106025e-01 -1.0654584e-03 
1.1012819e-01 1.0923971e-01 -6.7092536e-04 
1.1246394e-01 1.1259834e-01 -1.5960267e-03 
1.0946463e-01 1.0873612e-01 -1.1438531e-03 
1.0953523e-01 1.0860386e-01 -7.8966451e-04 
1.0932474e-01 1.0871767e-01 -1.3875251e-03 
1.1030866e-01 1.0994309e-01 -1.4694688e-03 
1.1049479e-01 1.0977745e-01 -8.3363760e-04 
1.0978954e-01 1.0938512e-01 -1.5715032e-03 
1.1004136e-01 1.0915088e-01 -6.9466582e-04 
1.0935228e-01 1.0884643e-01 -1.5452260e-03 
1.0899433e-01 1.0817391e-01 -1.1432928e-03 
1.0959755e-01 1.0860289e-01 -6.6593091e-04 
1.1165388e-01 1.1163346e-01 -1.6039765e-03 
1.0979424e-01 1.0934329e-01 -1.4946444e-03 
1.0905793e-01 1.0802618e-01 -7.7692047e-04 
1.0885196e-01 1.0815576e-01 -1.3927892e-03 
1.0999354e-01 1.0916261e-01 -8.0701942e-04 
1.1035994e-01 1.0996956e-01 -1.4132719e-03 
1.0925414e-01 1.0875060e-01 -1.5814098e-03 
1.1045660e-01 1.0988276e-01 -1.0804661e-03 
1.0950811e-01 1.0851166e-01 -6.9082173e-04 
1.0852055e-01 1.0760736e-01 -1.1425680e-03 
1.0880797e-01 1.0820225e-01 -1.5559702e-03 
1.0905580e-01 1.0795329e-01 -6.6087587e-04 
1.0837535e-01 1.0758971e-01 -1.3983097e-03 
1.0855319e-01 1.0742135e-01 -7.7267853e-04 
1.1083988e-01 1.1066423e-01 -1.6119281e-03 
1.0924741e-01 1.0868055e-01 -1.4804902e-03 
1.0943429e-01 1.0851028e-01 -8.3265826e-04 
1.0870721e-01 1.0810262e-01 -1.5910884e-03 
1.0804287e-01 1.0703684e-01 -1.1419525e-03 
1.0896354e-01 1.0785925e-01 -6.8676414e-04 
1.0825200e-01 1.0754421e-01 -1.5666503e-03 
1.0850262e-01 1.0729025e-01 -6.5570639e-04 
1.0789521e-01 1.0701945e-01 -1.4036818e-03 
1.0803739e-01 1.0681031e-01 -7.7964959e-04 
1.0871126e-01 1.0805529e-01 -1.5064348e-03 
1.0891230e-01 1.0787020e-01 -8.0471835e-04 
1.0756157e-01 1.0646211e-01 -1.1412433e-03 
1.0915116e-01 1.0853037e-01 -1.4236941e-03 
1.0814847e-01 1.0744072e-01 -1.6008094e-03 
1.0925261e-01 1.0844246e-01 -1.0779903e-03 
1.0840742e-01 1.0719346e-01 -6.8269391e-04 
1.1002181e-01 1.0968991e-01 -1.6197851e-03 
1.0768387e-01 1.0687190e-01 -1.5774376e-03 
1.0793747e-01 1.0661327e-01 -6.5044092e-04 
1.0741149e-01 1.0644513e-01 -1.4089230e-03 
1.0755765e-01 1.0625376e-01 -8.0546847e-04 
1.0814029e-01 1.0736369e-01 -1.4912137e-03 
1.0707643e-01 1.0588286e-01 -1.1405563e-03 
1.0832873e-01 1.0719055e-01 -8.3249906e-04 
1.0757750e-01 1.0676444e-01 -1.6105700e-03 
1.0783954e-01 1.0651366e-01 -6.7849102e-04 
1.0692333e-01 1.0586584e-01 -1.4144507e-03 
1.0704764e-01 1.0565543e-01 -8.2105538e-04 
1.0710312e-01 1.0618488e-01 -1.5883350e-03 
1.0919937e-01 1.0871058e-01 -1.6277523e-03 
1.0736040e-01 1.0592224e-01 -6.4487488e-04 
1.0758094e-01 1.0671155e-01 -1.5178076e-03 
1.0658674e-01 1.0529894e-01 -1.1398876e-03 
1.0778448e-01 1.0652371e-01 -8.0309261e-04 
1.0689448e-01 1.0571266e-01 -1.2182099e-03 
1.0809264e-01 1.0727061e-01 -1.4325748e-03 
1.0819525e-01 1.0718255e-01 -1.0826021e-03 
1.0699388e-01 1.0607339e-01 -1.6203938e-03 
1.0725915e-01 1.0581950e-01 -6.7423523e-04 
1.0643104e-01 1.0528183e-01 -1.4197887e-03 
1.0658016e-01 1.0508572e-01 -7.9985586e-04 
1.0650922e-01 1.0548288e-01 -1.5992881e-03 
1.0677066e-01 1.0521603e-01 -6.3925848e-04 
1.0609329e-01 1.0471032e-01 -1.1389874e-03 
1.0837291e-01 1.0772705e-01 -1.6358139e-03 
1.0698389e-01 1.0598884e-01 -1.5015722e-03 
1.0717472e-01 1.0581470e-01 -8.3303911e-04 
1.0614973e-01 1.0455346e-01 -7.6742453e-04 
1.0593528e-01 1.0469372e-01 -1.4248592e-03 
1.0639685e-01 1.0536665e-01 -1.6302046e-03 
1.0666571e-01 1.0511009e-01 -6.6990923e-04 
1.0559606e-01 1.0411705e-01 -1.1378916e-03 
1.0590175e-01 1.0476466e-01 -1.6103394e-03 
1.0616709e-01 1.0449425e-01 -6.3363428e-04 
1.0639937e-01 1.0530778e-01 -1.5286598e-03 
1.0703390e-01 1.0601176e-01 -1.4417699e-03 
1.0660618e-01 1.0511902e-01 -8.0211950e-04 
1.0712457e-01 1.0593047e-01 -1.1250335e-03 
1.0543501e-01 1.0410073e-01 -1.4302450e-03 
1.0558746e-01 1.0390010e-01 -7.9348055e-04 
1.0754269e-01 1.0674003e-01 -1.6438407e-03 
1.0578610e-01 1.0464375e-01 -1.6400393e-03 
1.0605886e-01 1.0438529e-01 -6.6575030e-04 
1.0509446e-01 1.0351946e-01 -1.1368790e-03 
1.0528000e-01 1.0402999e-01 -1.6212438e-03 
1.0554980e-01 1.0375673e-01 -6.2796683e-04 
1.0493080e-01 1.0350314e-01 -1.4352901e-03 
1.0508462e-01 1.0330041e-01 -7.9055747e-04 
1.0577409e-01 1.0455144e-01 -1.5113844e-03 
1.0596822e-01 1.0437864e-01 -8.3413266e-04 
1.0458831e-01 1.0291748e-01 -1.1358594e-03 
1.0516100e-01 1.0390431e-01 -1.6496085e-03 
1.0543796e-01 1.0364427e-01 -6.6134060e-04 
1.0670816e-01 1.0574769e-01 -1.6515467e-03 
1.0464353e-01 1.0327852e-01 -1.6320486e-03 
1.0442206e-01 1.0290106e-01 -1.4401800e-03 
1.0457733e-01 1.0269587e-01 -7.8706699e-04 
1.0491842e-01 1.0300261e-01 -6.2185206e-04 
1.0582307e-01 1.0457358e-01 -1.4520393e-03 
1.0516249e-01 1.0383899e-01 -1.5391347e-03 
1.0591339e-01 1.0449830e-01 -1.1440285e-03 
1.0537378e-01 1.0365192e-01 -8.0139830e-04 
1.0407823e-01 1.0230990e-01 -1.1347467e-03 
1.0452115e-01 1.0314777e-01 -1.6592359e-03 
1.0480232e-01 1.0288650e-01 -6.5694348e-04 
1.0390899e-01 1.0229349e-01 -1.4453699e-03 
1.0406591e-01 1.0208630e-01 -7.8380510e-04 
1.0399193e-01 1.0250913e-01 -1.6433506e-03 
1.0427179e-01 1.0223161e-01 -6.1571220e-04 
1.0586886e-01 1.0475072e-01 -1.6595353e-03 
1.0356320e-01 1.0169806e-01 -1.1335356e-03 
1.0450657e-01 1.0304674e-01 -1.5205269e-03 
1.0470478e-01 1.0287724e-01 -8.3644997e-04 
1.0339119e-01 1.0168116e-01 -1.4504862e-03 
1.0354970e-01 1.0147188e-01 -7.8012364e-04 
1.0386555e-01 1.0237271e-01 -1.6687836e-03 
1.0415173e-01 1.0211159e-01 -6.5247947e-04 
1.0304398e-01 1.0108051e-01 -1.1322642e-03 
1.0332421e-01 1.0172152e-01 -1.6539729e-03 
1.0360945e-01 1.0144241e-01 -6.0934108e-04 
1.0455393e-01 1.0306819e-01 -1.4630428e-03 
1.0464501e-01 1.0300106e-01 -1.1652996e-03 
1.0384960e-01 1.0226731e-01 -1.5246378e-03 
1.0502529e-01 1.0374991e-01 -1.6673979e-03 
1.0286918e-01 1.0106372e-01 -1.4552639e-03 
1.0302900e-01 1.0085253e-01 -7.7686633e-04 
1.0405007e-01 1.0210104e-01 -8.3760457e-04 
1.0319398e-01 1.0157961e-01 -1.6778866e-03 
1.0348503e-01 1.0131839e-01 -6.4815767e-04 
1.0251956e-01 1.0045873e-01 -1.1308879e-03 
1.0263944e-01 1.0091455e-01 -1.6649642e-03 
1.0293140e-01 1.0063507e-01 -6.0293608e-04 
1.0234211e-01 1.0044181e-01 -1.4598219e-03 
1.0250329e-01 1.0022813e-01 -7.7292969e-04 
1.0317628e-01 1.0146921e-01 -1.5286453e-03 
1.0261817e-01 1.0046584e-01 -9.4595010e-04 
1.0337950e-01 1.0130674e-01 -8.3954917e-04 
1.0199063e-01 9.9830940e-02 -1.1293632e-03 
1.0417674e-01 1.0274278e-01 -1.6750231e-03 
1.0348254e-01 1.0179704e-01 -1.4692828e-03 
1.0250558e-01 1.0076702e-01 -1.6866997e-03 
1.0358448e-01 1.0172288e-01 -1.1353396e-03 
1.0280212e-01 1.0050732e-01 -6.4359675e-04 
1.0180997e-01 9.9813692e-02 -1.4642284e-03 
1.0197261e-01 9.9598154e-02 -7.6918874e-04 
1.0193850e-01 1.0008868e-01 -1.6752582e-03 
1.0223601e-01 9.9809088e-02 -5.9665518e-04 
1.0145660e-01 9.9198692e-02 -1.1278860e-03 
1.0248627e-01 1.0065190e-01 -1.5325556e-03 
1.0269240e-01 1.0049360e-01 -8.4140705e-04 
1.0179981e-01 9.9934727e-02 -1.6956584e-03 
1.0127351e-01 9.9180840e-02 -1.4687318e-03 
1.0143766e-01 9.8963439e-02 -7.6521916e-04 
1.0210186e-01 9.9676631e-02 -6.3879538e-04 
1.0332227e-01 1.0173172e-01 -1.6829590e-03 
1.0121854e-01 9.9241979e-02 -1.6861048e-03 
1.0091785e-01 9.8560996e-02 -1.1261484e-03 
1.0270374e-01 1.0073864e-01 -1.2391774e-03 
1.0262483e-01 1.0079153e-01 -1.4914413e-03 
1.0152311e-01 9.8963037e-02 -5.8955944e-04 
1.0177842e-01 9.9814638e-02 -1.5357413e-03 
1.0198765e-01 9.9661119e-02 -8.4393314e-04 
1.0073169e-01 9.8542519e-02 -1.4732907e-03 
1.0089716e-01 9.8323345e-02 -7.6113758e-04 
1.0107542e-01 9.9081382e-02 -1.7044315e-03 
1.0138396e-01 9.8825887e-02 -6.3403917e-04 
1.0037356e-01 9.7917765e-02 -1.1242847e-03 
1.0246336e-01 1.0071511e-01 -1.6903399e-03 
1.0047940e-01 9.8373599e-02 -1.6968627e-03 
1.0079174e-01 9.8096065e-02 -5.8230018e-04 
1.0018448e-01 9.7898975e-02 -1.4772485e-03 
1.0035121e-01 9.7677968e-02 -7.5719226e-04 
1.0184321e-01 9.9721722e-02 -1.2438163e-03 
1.0176483e-01 9.9775538e-02 -1.4978651e-03 
1.0103827e-01 9.8940864e-02 -1.5398305e-03 
1.0124435e-01 9.8782673e-02 -8.4301387e-04 
1.0029442e-01 9.7799219e-02 -1.0819698e-03 
9.9825129e-02 9.7269803e-02 -1.1224244e-03 
1.0033369e-01 9.8209754e-02 -1.7144921e-03 
1.0065159e-01 9.7957723e-02 -6.2607962e-04 
9.9635571e-02 9.7250812e-02 -1.4766331e-03 
9.9801779e-02 9.7030886e-02 -7.5623137e-04 
9.9734291e-02 9.7498573e-02 -1.7065825e-03 
1.0159986e-01 9.9695094e-02 -1.6974610e-03 
1.0006135e-01 9.7232535e-02 -5.7542691e-04 
9.9280059e-02 9.6628018e-02 -1.1206699e-03 
1.0026933e-01 9.8038405e-02 -1.5514222e-03 
1.0049962e-01 9.7895235e-02 -8.2737789e-04 
1.0098078e-01 9.8705046e-02 -1.2492466e-03 
1.0090311e-01 9.8759279e-02 -1.5040552e-03 
9.9562466e-02 9.6936740e-02 -1.0817128e-03 
9.9090867e-02 9.6608527e-02 -1.4755352e-03 
9.9588566e-02 9.7336367e-02 -1.7263356e-03 
9.9256314e-02 9.6388958e-02 -7.5473968e-04 
9.9922843e-02 9.7094327e-02 -6.1642856e-04 
9.8739304e-02 9.5990248e-02 -1.1185533e-03 
9.9001952e-02 9.6639767e-02 -1.7159912e-03 
9.9341847e-02 9.6383788e-02 -5.6846160e-04 
1.0073464e-01 9.8674290e-02 -1.7047797e-03 
9.9523276e-02 9.7166643e-02 -1.5656741e-03 
9.9773064e-02 9.7030632e-02 -8.1126299e-04 
9.8548941e-02 9.5970348e-02 -1.4750503e-03 
9.8714061e-02 9.5751874e-02 -7.5332774e-04 
9.9924833e-02 9.7596928e-02 -1.4923390e-03 
1.0004220e-01 9.7537614e-02 -1.1443389e-03 
9.8856099e-02 9.6478835e-02 -1.7377997e-03 
9.9204876e-02 9.6244939e-02 -6.0674531e-04 
9.8660052e-02 9.5874362e-02 -1.0790676e-03 
9.8201394e-02 9.5357776e-02 -1.1166343e-03 
9.8632954e-02 9.5548227e-02 -5.6115951e-04 
9.8280974e-02 9.5795259e-02 -1.7248391e-03 
9.8010965e-02 9.5337123e-02 -1.4740640e-03 
9.8175108e-02 9.5119737e-02 -7.5174146e-04 
9.9057227e-02 9.6179843e-02 -7.9539180e-04 
9.8789811e-02 9.6310258e-02 -1.5799442e-03 
9.9869147e-02 9.7655408e-02 -1.7117215e-03 
9.7666040e-02 9.4729707e-02 -1.1146939e-03 
9.8496906e-02 9.5409326e-02 -5.9711706e-04 
9.8135203e-02 9.5636465e-02 -1.7487281e-03 
9.9177860e-02 9.6730575e-02 -1.5174543e-03 
9.9129885e-02 9.6475117e-02 -1.1643040e-03 
9.7475410e-02 9.4708137e-02 -1.4726069e-03 
9.7619593e-02 9.4473384e-02 -7.5906713e-04 
9.7934529e-02 9.4725631e-02 -5.5347756e-04 
9.7571246e-02 9.4966486e-02 -1.7334105e-03 
9.7484380e-02 9.4514452e-02 -1.1125475e-03 
9.7134262e-02 9.4105035e-02 -1.1124016e-03 
9.8350748e-02 9.5342882e-02 -7.8059727e-04 
9.8090515e-02 9.5464058e-02 -1.5401375e-03 
9.7798556e-02 9.4587229e-02 -5.8812846e-04 
9.7425655e-02 9.4808020e-02 -1.7591519e-03 
9.6943267e-02 9.4083190e-02 -1.4709634e-03 
9.9004157e-02 9.6639574e-02 -1.7188997e-03 
9.7106166e-02 9.3867272e-02 -7.4818404e-04 
9.7220130e-02 9.4162442e-02 -1.0366442e-03 
9.8337203e-02 9.5544174e-02 -1.1651597e-03 
9.6605375e-02 9.3485460e-02 -1.1102324e-03 
9.7244173e-02 9.3916319e-02 -5.4670137e-04 
9.6872218e-02 9.4150133e-02 -1.7411371e-03 
9.8314516e-02 9.5717944e-02 -1.5231689e-03 
9.7654179e-02 9.4519034e-02 -7.6536793e-04 
9.7357199e-02 9.4641060e-02 -1.6069271e-03 
9.6414104e-02 9.3463011e-02 -1.4696603e-03 
9.6576594e-02 9.3248054e-02 -7.4654765e-04 
9.7109973e-02 9.3777634e-02 -5.7865877e-04 
9.6726969e-02 9.3993180e-02 -1.7686299e-03 
9.6480928e-02 9.3265086e-02 -9.7656506e-04 
9.6079335e-02 9.2870153e-02 -1.1081563e-03 
9.8138951e-02 9.5625482e-02 -1.7265369e-03 
9.6563853e-02 9.3118466e-02 -5.3917023e-04 
9.6183404e-02 9.3347609e-02 -1.7482726e-03 
9.7503133e-02 9.4519340e-02 -1.0830822e-03 
9.7307973e-02 9.4523787e-02 -1.5019152e-03 
9.5887914e-02 9.2846826e-02 -1.4678614e-03 
9.6967280e-02 9.3707934e-02 -7.5083150e-04 
9.6050397e-02 9.2606284e-02 -6.9449528e-04 
9.6657909e-02 9.3828388e-02 -1.6200346e-03 
9.5555700e-02 9.2258736e-02 -1.1058379e-03 
9.6430391e-02 9.2980035e-02 -5.6947127e-04 
9.6038364e-02 9.3192324e-02 -1.7774482e-03 
9.5525116e-02 9.2021942e-02 -7.4290199e-04 
9.5344603e-02 9.2193842e-02 -1.4325866e-03 
9.5892437e-02 9.2332758e-02 -5.3203589e-04 
9.5504768e-02 9.2557877e-02 -1.7550603e-03 
9.7273357e-02 9.4612248e-02 -1.7323231e-03 
9.5441371e-02 9.2166260e-02 -1.1800965e-03 
9.6289434e-02 9.2909373e-02 -7.3670852e-04 
9.5968157e-02 9.3028508e-02 -1.6326584e-03 
9.5034860e-02 9.1652215e-02 -1.1036593e-03 
9.5759019e-02 9.2194863e-02 -5.6067476e-04 
9.6587442e-02 9.3697138e-02 -1.5348148e-03 
9.6661218e-02 9.3642354e-02 -1.2783138e-03 
9.5131636e-02 9.1535054e-02 -6.8849395e-04 
9.5359661e-02 9.2403837e-02 -1.7856497e-03 
9.4905987e-02 9.1723122e-02 -1.5069691e-03 
9.6281447e-02 9.3018420e-02 -9.5151062e-04 
9.6030138e-02 9.3036264e-02 -1.5180496e-03 
9.5228486e-02 9.1558851e-02 -5.2529061e-04 
9.4836667e-02 9.1780394e-02 -1.7607627e-03 
9.4517432e-02 9.1049694e-02 -1.1009055e-03 
9.5620081e-02 9.2122808e-02 -7.2238280e-04 
9.5289126e-02 9.2242263e-02 -1.6442693e-03 
9.6404694e-02 9.3596004e-02 -1.7389054e-03 
9.4580419e-02 9.0883695e-02 -6.6520146e-04 
9.4336174e-02 9.1063283e-02 -1.5119382e-03 
9.5096618e-02 9.1420554e-02 -5.5170670e-04 
9.4691150e-02 9.1627948e-02 -1.7937444e-03 
9.4002590e-02 9.0450391e-02 -1.0984131e-03 
9.5721230e-02 9.2686981e-02 -1.5398146e-03 
9.5793925e-02 9.2632428e-02 -1.2833975e-03 
9.4573349e-02 9.0795211e-02 -5.1793153e-04 
9.4177514e-02 9.1016069e-02 -1.7662493e-03 
9.4958417e-02 9.1347061e-02 -7.0892618e-04 
9.3779653e-02 9.0411447e-02 -1.5016067e-03 
9.4509542e-02 9.1355734e-02 -1.6838997e-03 
9.5087372e-02 9.1620140e-02 -9.3485456e-04 
9.3924426e-02 9.0121873e-02 -6.6141534e-04 
9.4441548e-02 9.0657502e-02 -5.4323731e-04 
9.4032213e-02 9.0863839e-02 -1.8012354e-03 
9.3489461e-02 8.9855306e-02 -1.0957525e-03 
9.5536284e-02 9.2582509e-02 -1.7446640e-03 
9.3622208e-02 9.0041794e-02 -1.1583028e-03 
9.3926109e-02 9.0043224e-02 -5.1032187e-04 
9.4576269e-02 9.1341130e-02 -1.5178376e-03 
9.3298033e-02 8.9814052e-02 -1.4290916e-03 
9.3526691e-02 9.0261862e-02 -1.7715873e-03 
9.3455337e-02 8.9620113e-02 -7.3455181e-04 
9.4305165e-02 9.0582751e-02 -6.9539988e-04 
9.4854929e-02 9.1679350e-02 -1.5437515e-03 
9.4926804e-02 9.1624983e-02 -1.2872036e-03 
9.3958870e-02 9.0704590e-02 -1.6667416e-03 
9.3386337e-02 8.9474127e-02 -6.1088504e-04 
9.2979036e-02 8.9264229e-02 -1.0931835e-03 
9.3794987e-02 8.9905448e-02 -5.3423742e-04 
9.3381502e-02 9.0111375e-02 -1.8080168e-03 
9.3014710e-02 8.9114957e-02 -7.4102759e-04 
9.2787735e-02 8.9235470e-02 -1.4521912e-03 
9.3286224e-02 8.9300700e-02 -5.0323090e-04 
9.2884660e-02 8.9520290e-02 -1.7755060e-03 
9.4666906e-02 9.1571636e-02 -1.7500981e-03 
9.3658924e-02 8.9829057e-02 -6.8222563e-04 
9.2471376e-02 8.8676535e-02 -1.0905799e-03 
9.3201473e-02 8.9845456e-02 -1.7034989e-03 
9.2682242e-02 8.8678554e-02 -6.4191024e-04 
9.3813375e-02 9.0152040e-02 -9.5257448e-04 
9.3155108e-02 8.9163095e-02 -5.2555237e-04 
9.2842914e-02 8.9047700e-02 -9.8483986e-04 
9.2333339e-02 8.8743806e-02 -1.5160999e-03 
9.3988083e-02 9.0673141e-02 -1.5483111e-03 
9.2739701e-02 8.9369990e-02 -1.8144391e-03 
9.4059147e-02 9.0619013e-02 -1.2916707e-03 
9.2653237e-02 8.8569060e-02 -4.9650506e-04 
9.3265258e-02 8.9823760e-02 -1.5274913e-03 
9.1965452e-02 8.8092677e-02 -1.0877284e-03 
9.2251271e-02 8.8788018e-02 -1.7796180e-03 
9.3020208e-02 8.9085065e-02 -6.6945137e-04 
9.2663907e-02 8.9212835e-02 -1.6863402e-03 
9.1789894e-02 8.8121712e-02 -1.5250999e-03 
9.2179023e-02 8.8456482e-02 -1.3136135e-03 
9.3796052e-02 9.0560384e-02 -1.7551671e-03 
9.2522621e-02 8.8430852e-02 -5.1688479e-04 
9.2105940e-02 8.8639252e-02 -1.8203579e-03 
9.1924287e-02 8.7809712e-02 -6.4535526e-04 
9.1462210e-02 8.7511972e-02 -1.0846548e-03 
9.2027068e-02 8.7846398e-02 -4.8899685e-04 
9.3118384e-02 8.9665353e-02 -1.5519429e-03 
9.3188554e-02 8.9611717e-02 -1.2953132e-03 
9.1625847e-02 8.8066995e-02 -1.7834501e-03 
9.2388675e-02 8.8351734e-02 -6.5655535e-04 
9.1424078e-02 8.7278083e-02 -7.2532881e-04 
9.1926932e-02 8.8378862e-02 -1.7204516e-03 
9.1243595e-02 8.7479912e-02 -1.5010515e-03 
9.2467859e-02 8.8564701e-02 -8.8748767e-04 
9.1897123e-02 8.7707825e-02 -5.0852797e-04 
9.1436632e-02 8.7217204e-02 -5.8241130e-04 
9.1479801e-02 8.7919466e-02 -1.8255080e-03 
9.0960927e-02 8.6934775e-02 -1.0817511e-03 
9.2923284e-02 8.9548595e-02 -1.7599449e-03 
9.1399387e-02 8.7486818e-02 -1.1775459e-03 
9.1987669e-02 8.8351429e-02 -1.5377324e-03 
9.1408022e-02 8.7133087e-02 -4.8166362e-04 
9.1007695e-02 8.7355733e-02 -1.7866972e-03 
9.0773493e-02 8.6897798e-02 -1.4215237e-03 
9.0921469e-02 8.6701438e-02 -7.2309957e-04 
9.1015488e-02 8.7076746e-02 -1.2357584e-03 
9.1763780e-02 8.7627418e-02 -6.4432522e-04 
9.1402605e-02 8.7763086e-02 -1.7035085e-03 
9.2246838e-02 8.8658765e-02 -1.5543167e-03 
9.2316002e-02 8.8605352e-02 -1.2983731e-03 
9.0461835e-02 8.6361274e-02 -1.0789669e-03 
9.0883948e-02 8.6573087e-02 -5.5983278e-04 
9.1277525e-02 8.6994648e-02 -4.9935334e-04 
9.0861946e-02 8.7208308e-02 -1.8303520e-03 
9.0270869e-02 8.6327098e-02 -1.4344169e-03 
9.0421021e-02 8.6127989e-02 -7.2067278e-04 
9.0534262e-02 8.6499192e-02 -1.1868379e-03 
9.0795040e-02 8.6428434e-02 -4.7438481e-04 
9.0397246e-02 8.6653836e-02 -1.7890539e-03 
9.0680934e-02 8.6606607e-02 -1.0704885e-03 
9.1057219e-02 8.6797222e-02 -6.0394849e-04 
8.9964256e-02 8.5791528e-02 -1.0759089e-03 
9.0684332e-02 8.6953059e-02 -1.7344052e-03 
9.0381891e-02 8.5999437e-02 -5.5732782e-04 
9.2049807e-02 8.8541076e-02 -1.7639808e-03 
9.0664521e-02 8.6289823e-02 -4.9125956e-04 
9.0251371e-02 8.6507618e-02 -1.8348080e-03 
8.9842878e-02 8.5877806e-02 -1.5145374e-03 
8.9922518e-02 8.5558139e-02 -7.1813556e-04 
8.9994945e-02 8.5890196e-02 -1.2035089e-03 
9.1375805e-02 8.7656505e-02 -1.5565915e-03 
9.1444194e-02 8.7603323e-02 -1.3006188e-03 
9.1013521e-02 8.6886749e-02 -8.7526831e-04 
9.0740405e-02 8.6919449e-02 -1.5482634e-03 
9.0188339e-02 8.5732572e-02 -4.6666112e-04 
8.9793339e-02 8.5961178e-02 -1.7913918e-03 
9.0219133e-02 8.6155392e-02 -1.2223312e-03 
8.9468971e-02 8.5223526e-02 -1.0730976e-03 
8.9882828e-02 8.5428439e-02 -5.5464706e-04 
9.0533577e-02 8.6207405e-02 -6.1984872e-04 
9.0171486e-02 8.6354464e-02 -1.7177053e-03 
8.9318216e-02 8.5283644e-02 -1.5272637e-03 
8.9425787e-02 8.4990665e-02 -7.1564224e-04 
9.0058379e-02 8.5593559e-02 -4.8313389e-04 
8.9647315e-02 8.5816853e-02 -1.8377975e-03 
9.1174170e-02 8.7532341e-02 -1.7670321e-03 
8.8974983e-02 8.4658861e-02 -1.0701071e-03 
8.9384943e-02 8.4860429e-02 -5.5203174e-04 
8.9587905e-02 8.5044906e-02 -4.5954963e-04 
8.9650601e-02 8.5468352e-02 -1.1504968e-03 
8.9196108e-02 8.5278444e-02 -1.7932844e-03 
8.9123711e-02 8.4912442e-02 -1.2374853e-03 
8.9841165e-02 8.5397132e-02 -5.8072677e-04 
8.9470536e-02 8.5565276e-02 -1.7467899e-03 
9.0501048e-02 8.6649835e-02 -1.5584957e-03 
8.8930860e-02 8.4426463e-02 -7.1313069e-04 
9.0568386e-02 8.6597204e-02 -1.3029675e-03 
8.8775493e-02 8.4655523e-02 -1.5104985e-03 
8.9147039e-02 8.4851138e-02 -1.0650870e-03 
8.9457616e-02 8.4906518e-02 -4.7443336e-04 
8.9050390e-02 8.5133396e-02 -1.8411686e-03 
8.8482574e-02 8.4097944e-02 -1.0670413e-03 
8.8888772e-02 8.4296130e-02 -5.4923433e-04 
8.9799084e-02 8.5481033e-02 -8.3970337e-04 
8.9523740e-02 8.5529700e-02 -1.5582872e-03 
8.8992402e-02 8.4365621e-02 -4.5220568e-04 
8.8606350e-02 8.4603466e-02 -1.7941772e-03 
8.8600211e-02 8.4306419e-02 -1.2187188e-03 
8.8437773e-02 8.3865456e-02 -7.1035197e-04 
8.9327939e-02 8.4820449e-02 -5.9560605e-04 
8.8968933e-02 8.4982090e-02 -1.7296483e-03 
9.0295933e-02 8.6521640e-02 -1.7700876e-03 
8.8257849e-02 8.4058270e-02 -1.4961854e-03 
8.8863283e-02 8.4226318e-02 -4.6628961e-04 
8.7992258e-02 8.3538711e-02 -1.0642243e-03 
8.8458978e-02 8.4459983e-02 -1.8437608e-03 
8.8394873e-02 8.3734222e-02 -5.4604863e-04 
8.9624539e-02 8.5644558e-02 -1.5595178e-03 
8.9690566e-02 8.5592665e-02 -1.3045367e-03 
8.8402204e-02 8.3693370e-02 -4.4473002e-04 
8.7802157e-02 8.3498478e-02 -1.4139795e-03 
8.7945946e-02 8.3306961e-02 -7.0763880e-04 
8.8075809e-02 8.3707541e-02 -1.2135432e-03 
8.8021658e-02 8.3937183e-02 -1.7951494e-03 
8.8323839e-02 8.3923876e-02 -1.0841966e-03 
8.8649675e-02 8.4031738e-02 -5.5769266e-04 
8.8283993e-02 8.4213816e-02 -1.7562057e-03 
8.7503091e-02 8.2983561e-02 -1.0610056e-03 
8.7902069e-02 8.3175346e-02 -5.4295908e-04 
8.8273428e-02 8.3554797e-02 -4.5776222e-04 
8.7875687e-02 8.3794281e-02 -1.8461563e-03 
8.9415751e-02 8.5511431e-02 -1.7725411e-03 
8.7368354e-02 8.3053544e-02 -1.5114071e-03 
8.7455735e-02 8.2751341e-02 -7.0483255e-04 
8.8606887e-02 8.4107004e-02 -8.0569444e-04 
8.8333532e-02 8.4173851e-02 -1.5683296e-03 
8.7552026e-02 8.3116062e-02 -1.2198022e-03 
8.7818488e-02 8.3029091e-02 -4.3712978e-04 
8.7443203e-02 8.3278731e-02 -1.7956081e-03 
8.8145196e-02 8.3467215e-02 -5.7167240e-04 
8.7792002e-02 8.3644420e-02 -1.7388943e-03 
8.7015703e-02 8.2430288e-02 -1.0578849e-03 
8.7410629e-02 8.2618847e-02 -5.3965847e-04 
8.8746756e-02 8.4640078e-02 -1.5595951e-03 
8.8811472e-02 8.4588952e-02 -1.3051168e-03 
8.7452501e-02 8.3026059e-02 -1.2664240e-03 
8.7689288e-02 8.2890011e-02 -4.4917196e-04 
8.7297238e-02 8.3137065e-02 -1.8481010e-03 
8.6966947e-02 8.2198218e-02 -7.0207386e-04 
8.6765222e-02 8.2375944e-02 -1.5251813e-03 
8.7238669e-02 8.2370967e-02 -4.3013165e-04 
8.6870939e-02 8.2627974e-02 -1.7955417e-03 
8.6529240e-02 8.1879482e-02 -1.0549497e-03 
8.7389246e-02 8.2845412e-02 -1.0457629e-03 
8.8532619e-02 8.4502369e-02 -1.7753309e-03 
8.6996585e-02 8.2359500e-02 -9.6267939e-04 
8.6613245e-02 8.2066528e-02 -1.2489430e-03 
8.6044438e-02 8.1330769e-02 -1.0521185e-03 
8.6094335e-02 8.1551529e-02 -1.3911598e-03 
8.6268499e-02 8.1393436e-02 -6.6534081e-04 
8.6179741e-02 8.1763804e-02 -1.6310808e-03 
8.6461388e-02 8.1539705e-02 -5.2002486e-04 
8.6304568e-02 8.1984282e-02 -1.7951877e-03 
8.6662330e-02 8.1718534e-02 -4.2204172e-04 
8.6510867e-02 8.2231879e-02 -1.8269989e-03 
8.6873800e-02 8.1973203e-02 -4.5528117e-04 
8.6787723e-02 8.2469799e-02 -1.6759816e-03 
8.7076887e-02 8.2282245e-02 -6.1819347e-04 
8.7100402e-02 8.2746349e-02 -1.5158096e-03 
8.7281987e-02 8.2647748e-02 -8.8817050e-04 
8.7395974e-02 8.3092734e-02 -1.5372441e-03 
8.7485738e-02 8.3052777e-02 -1.2424992e-03 
8.5555337e-02 8.0777831e-02 -1.0488497e-03 
8.6211190e-02 8.1540927e-02 -1.1034478e-03 
8.7646507e-02 8.3494261e-02 -1.7758884e-03 
8.5735247e-02 8.1339128e-02 -1.7941160e-03 
8.5642897e-02 8.0688439e-02 -6.6213607e-04 
8.6074069e-02 8.1053063e-02 -4.1518346e-04 
8.5497804e-02 8.0941275e-02 -1.5220984e-03 
8.6117588e-02 8.1115663e-02 -4.4054090e-04 
8.5603893e-02 8.0569521e-02 -5.0700828e-04 
8.5582241e-02 8.1190877e-02 -1.8491283e-03 
8.5048132e-02 8.0205917e-02 -1.0454936e-03 
8.5154049e-02 8.0681778e-02 -1.7930135e-03 
8.5432470e-02 8.0659606e-02 -1.0948062e-03 
8.5172042e-02 8.0448732e-02 -1.2643156e-03 
8.5472800e-02 8.0376185e-02 -4.0713479e-04 
8.4988602e-02 7.9959020e-02 -6.7085121e-04 
8.5512266e-02 8.1057906e-02 -1.7386388e-03 
8.4860459e-02 8.0215506e-02 -1.5056629e-03 
8.5819013e-02 8.0831282e-02 -5.4487382e-04 
8.6754128e-02 8.2477406e-02 -1.7754245e-03 
8.6326189e-02 8.1874959e-02 -1.5321200e-03 
8.4522225e-02 7.9614609e-02 -1.0419001e-03 
8.4998153e-02 8.0529138e-02 -1.8472770e-03 
8.5309163e-02 8.0491506e-02 -1.0325586e-03 
8.4952123e-02 7.9836532e-02 -4.9948436e-04 
8.5330077e-02 8.0223881e-02 -4.1912735e-04 
8.5516676e-02 8.0976106e-02 -1.5635573e-03 
8.5431300e-02 8.0672942e-02 -1.1259259e-03 
8.5735798e-02 8.0850534e-02 -7.7751710e-04 
8.6145468e-02 8.1561625e-02 -1.3020163e-03 
8.4560767e-02 8.0011375e-02 -1.7914814e-03 
8.4315903e-02 7.9563163e-02 -1.4202100e-03 
8.4458075e-02 7.9360515e-02 -6.5857481e-04 
8.4947720e-02 8.0427743e-02 -1.7556229e-03 
8.4584244e-02 7.9753809e-02 -1.1916348e-03 
8.4859073e-02 7.9685621e-02 -3.9855955e-04 
8.5242011e-02 8.0172248e-02 -5.1513762e-04 
8.3976701e-02 7.9002358e-02 -1.0383017e-03 
8.4410042e-02 7.9226889e-02 -4.8986741e-04 
8.4399864e-02 7.9853691e-02 -1.8452670e-03 
8.4405854e-02 7.9557039e-02 -1.2017044e-03 
8.4711000e-02 7.9527825e-02 -4.1135744e-04 
8.5860066e-02 8.1463739e-02 -1.7753473e-03 
8.3759271e-02 7.8938521e-02 -1.4209346e-03 
8.3906889e-02 7.8739710e-02 -6.4566429e-04 
8.3954364e-02 7.9327784e-02 -1.7893692e-03 
8.4230371e-02 7.8980736e-02 -3.8954779e-04 
8.5223719e-02 8.0621444e-02 -1.5163079e-03 
8.4323578e-02 7.9711005e-02 -1.7277085e-03 
8.3948001e-02 7.9030968e-02 -1.1715741e-03 
8.4585316e-02 7.9446189e-02 -5.3633953e-04 
8.3409578e-02 7.8366853e-02 -1.0344493e-03 
8.3846055e-02 7.8594781e-02 -4.7948555e-04 
8.5250512e-02 8.0550887e-02 -1.2997793e-03 
8.3788455e-02 7.9165131e-02 -1.8421232e-03 
8.4090285e-02 7.9122730e-02 -1.0299990e-03 
8.4078118e-02 7.8817599e-02 -4.0332833e-04 
8.4324315e-02 7.9624668e-02 -1.5458832e-03 
8.3184324e-02 7.8297563e-02 -1.4270844e-03 
8.3333947e-02 7.8095280e-02 -6.3249655e-04 
8.4495775e-02 7.9463281e-02 -7.8248914e-04 
8.3334453e-02 7.8630425e-02 -1.7868624e-03 
8.3734110e-02 7.9056896e-02 -1.7442935e-03 
8.3639205e-02 7.8673333e-02 -1.1457014e-03 
8.3587483e-02 7.8260645e-02 -3.8118073e-04 
8.3982877e-02 7.8760616e-02 -5.0524960e-04 
8.3310544e-02 7.8311443e-02 -1.1572446e-03 
8.4961563e-02 8.0447376e-02 -1.7753993e-03 
8.2819134e-02 7.7707656e-02 -1.0301283e-03 
8.3260030e-02 7.7938072e-02 -4.6891920e-04 
8.3164573e-02 7.8461833e-02 -1.8392539e-03 
8.3350100e-02 7.8207716e-02 -8.3712168e-04 
8.3429553e-02 7.8092538e-02 -3.9480755e-04 
8.2585856e-02 7.7631734e-02 -1.4334883e-03 
8.2737930e-02 7.7426441e-02 -6.1863067e-04 
8.4191978e-02 7.9462484e-02 -1.5200430e-03 
8.4350601e-02 7.9538979e-02 -1.2972266e-03 
8.2699813e-02 7.7918462e-02 -1.7841234e-03 
8.3080538e-02 7.8310341e-02 -1.7146618e-03 
8.2929246e-02 7.7525742e-02 -3.7176241e-04 
8.2204841e-02 7.7022955e-02 -1.0256927e-03 
8.2649738e-02 7.7255882e-02 -4.5796091e-04 
8.3294570e-02 7.8003518e-02 -5.2760431e-04 
8.2620330e-02 7.7465944e-02 -9.9193619e-04 
8.2853533e-02 7.7704273e-02 -9.4648584e-04 
8.2524106e-02 7.7744260e-02 -1.8358573e-03 
8.4055938e-02 7.9426371e-02 -1.7750862e-03 
8.3076753e-02 7.8217402e-02 -1.5263604e-03 
8.2765438e-02 7.7351607e-02 -3.8583085e-04 
8.1962660e-02 7.6938726e-02 -1.4381339e-03 
8.2116865e-02 7.6732151e-02 -6.0392596e-04 
8.3196156e-02 7.8016363e-02 -7.8777544e-04 
8.2050525e-02 7.7190295e-02 -1.7811737e-03 
8.2464062e-02 7.7628009e-02 -1.7316670e-03 
8.2254477e-02 7.6774403e-02 -3.6175011e-04 
8.2662523e-02 7.7287808e-02 -4.9474661e-04 
8.3384715e-02 7.8568771e-02 -1.5480755e-03 
8.3443172e-02 7.8521490e-02 -1.2964136e-03 
8.1565544e-02 7.6309800e-02 -1.0214351e-03 
8.1869155e-02 7.7010334e-02 -1.8323943e-03 
8.1710041e-02 7.6213948e-02 -4.5110838e-04 
8.1762619e-02 7.6625027e-02 -1.2410753e-03 
8.1308931e-02 7.6208517e-02 -1.4318115e-03 
8.1462331e-02 7.6004319e-02 -5.9605471e-04 
8.2084499e-02 7.6593846e-02 -3.7591875e-04 
8.1384696e-02 7.6446548e-02 -1.7776430e-03 
8.3148248e-02 7.8405924e-02 -1.7733651e-03 
8.1777647e-02 7.6847129e-02 -1.7000813e-03 
8.1561774e-02 7.6005712e-02 -3.5108821e-04 
8.0896348e-02 7.5568080e-02 -1.0159296e-03 
8.1937596e-02 7.6496176e-02 -5.1836524e-04 
8.1536181e-02 7.6219723e-02 -8.9571910e-04 
8.1198312e-02 7.6259807e-02 -1.8277992e-03 
8.2538180e-02 7.7511691e-02 -1.2918219e-03 
8.0759346e-02 7.5632654e-02 -1.5067181e-03 
8.2443878e-02 7.7518232e-02 -1.5431184e-03 
8.1767149e-02 7.6746285e-02 -1.5062240e-03 
8.1010826e-02 7.5436324e-02 -4.4105094e-04 
8.0776908e-02 7.5245254e-02 -5.8912026e-04 
8.1385858e-02 7.5818889e-02 -3.6744357e-04 
8.0702461e-02 7.5687446e-02 -1.7734303e-03 
8.1131220e-02 7.6134726e-02 -1.7170942e-03 
8.1006333e-02 7.5657345e-02 -9.5059670e-04 
8.1648096e-02 7.6295368e-02 -7.8330690e-04 
8.0852918e-02 7.5219028e-02 -3.4062692e-04 
8.0197841e-02 7.4795581e-02 -1.0104798e-03 
8.1273913e-02 7.5747661e-02 -4.8388453e-04 
8.2238063e-02 7.7390417e-02 -1.7713372e-03 
8.0198765e-02 7.5044639e-02 -1.5784509e-03 
8.0509856e-02 7.5492993e-02 -1.8227767e-03 
8.0137849e-02 7.4499786e-02 -4.9263838e-04 
8.0669701e-02 7.5025789e-02 -3.5758439e-04 
8.1626870e-02 7.6496527e-02 -1.2881767e-03 
8.1468008e-02 7.6416880e-02 -1.5117056e-03 
8.0002673e-02 7.4909545e-02 -1.7692008e-03 
8.0310360e-02 7.4878328e-02 -9.2455011e-04 
8.0409534e-02 7.5317658e-02 -1.6826640e-03 
8.0123909e-02 7.4414417e-02 -3.2933120e-04 
7.9470061e-02 7.3990881e-02 -1.0047914e-03 
8.0509491e-02 7.4917927e-02 -5.0941895e-04 
7.9491861e-02 7.4261345e-02 -1.5767131e-03 
7.9804279e-02 7.4708313e-02 -1.8169740e-03 
8.1323139e-02 7.6368734e-02 -1.7697258e-03 
7.9556391e-02 7.3831089e-02 -4.1711441e-04 
7.9933099e-02 7.4213639e-02 -3.4813207e-04 
7.9284959e-02 7.4113302e-02 -1.7654785e-03 
8.0245830e-02 7.5035580e-02 -1.4604668e-03 
8.0394432e-02 7.4919589e-02 -8.0451183e-04 
7.9700820e-02 7.4537419e-02 -1.6900012e-03 
8.0654010e-02 7.5522840e-02 -1.5348006e-03 
8.0708951e-02 7.5477757e-02 -1.2856321e-03 
7.8997262e-02 7.3282823e-02 -5.6601904e-04 
7.9375185e-02 7.3590368e-02 -3.1765550e-04 
7.9811119e-02 7.4134752e-02 -4.7269164e-04 
7.8707099e-02 7.3152214e-02 -9.9835219e-04 
7.8779846e-02 7.3475853e-02 -1.5733168e-03 
7.9079166e-02 7.3904723e-02 -1.8117726e-03 
7.8830488e-02 7.3033765e-02 -4.0727874e-04 
7.9176717e-02 7.3382288e-02 -3.3695105e-04 
8.0401801e-02 7.5344004e-02 -1.7678540e-03 
7.8547694e-02 7.3298864e-02 -1.7602871e-03 
7.8862563e-02 7.3264897e-02 -8.6837221e-04 
7.8967847e-02 7.3716477e-02 -1.6628350e-03 
7.8273475e-02 7.2489023e-02 -5.5651081e-04 
7.8605734e-02 7.2746120e-02 -3.0635734e-04 
7.7908911e-02 7.2276957e-02 -9.9179684e-04 
7.8059703e-02 7.2680958e-02 -1.5642822e-03 
7.9733104e-02 7.4501641e-02 -1.5305978e-03 
7.9787180e-02 7.4457362e-02 -1.2827094e-03 
7.9003066e-02 7.3263496e-02 -4.9978471e-04 
7.8335203e-02 7.3082015e-02 -1.8057739e-03 
7.8941956e-02 7.3601022e-02 -1.4616804e-03 
7.8103416e-02 7.2238237e-02 -3.9744645e-04 
7.8398630e-02 7.2529748e-02 -3.2666317e-04 
7.7790201e-02 7.2464205e-02 -1.7555662e-03 
7.8251235e-02 7.2936356e-02 -1.6807191e-03 
7.8875385e-02 7.3257342e-02 -8.1368641e-04 
7.9476327e-02 7.4319698e-02 -1.7669295e-03 
7.7547312e-02 7.1695276e-02 -5.4697139e-04 
7.7814586e-02 7.1880698e-02 -2.9344065e-04 
7.8264020e-02 7.2441645e-02 -4.6086521e-04 
7.7251337e-02 7.1797945e-02 -1.5692972e-03 
7.7072747e-02 7.1362682e-02 -9.8494580e-04 
7.7570029e-02 7.2238982e-02 -1.7990833e-03 
7.8942977e-02 7.3541649e-02 -1.3158639e-03 
7.8808345e-02 7.3480964e-02 -1.5275208e-03 
7.7374279e-02 7.1441747e-02 -3.8730708e-04 
7.7598639e-02 7.1656175e-02 -3.1546148e-04 
7.7011682e-02 7.1609221e-02 -1.7504739e-03 
7.7446550e-02 7.2035886e-02 -1.6413559e-03 
7.6817974e-02 7.0899263e-02 -5.3775514e-04 
7.8551181e-02 7.3298611e-02 -1.7639817e-03 
7.6525606e-02 7.1001261e-02 -1.5588757e-03 
7.7000737e-02 7.0992865e-02 -2.8087676e-04 
7.6783516e-02 7.1375370e-02 -1.7918173e-03 
7.7409461e-02 7.1523421e-02 -4.9114099e-04 
7.6642878e-02 7.0645146e-02 -3.7729318e-04 
7.6194160e-02 7.0405811e-02 -9.7758533e-04 
7.7409796e-02 7.1910821e-02 -1.4403466e-03 
7.7882551e-02 7.2465032e-02 -1.5207819e-03 
7.7934824e-02 7.2421707e-02 -1.2755021e-03 
7.6211207e-02 7.0732638e-02 -1.7449454e-03 
7.6775827e-02 7.0759282e-02 -3.0437115e-04 
7.6690458e-02 7.1217373e-02 -1.6604041e-03 
7.6087080e-02 7.0104629e-02 -5.2791048e-04 
7.7224523e-02 7.1489006e-02 -8.9720014e-04 
7.5778238e-02 7.0178792e-02 -1.5374607e-03 
7.6163098e-02 7.0082106e-02 -2.6772817e-04 
7.7620268e-02 7.2277859e-02 -1.7621455e-03 
7.5909048e-02 6.9848746e-02 -3.6698274e-04 
7.5974673e-02 7.0489958e-02 -1.7849053e-03 
7.6578297e-02 7.0621483e-02 -4.8653217e-04 
7.5271860e-02 6.9404274e-02 -9.6963812e-04 
7.6951265e-02 7.1444385e-02 -1.5178816e-03 
7.7002473e-02 7.1401805e-02 -1.2728039e-03 
7.5387836e-02 6.9833532e-02 -1.7396825e-03 
7.5928934e-02 6.9839440e-02 -2.9252848e-04 
7.5237729e-02 6.9185637e-02 -5.2090036e-04 
7.5838178e-02 7.0271492e-02 -1.6170534e-03 
7.5172611e-02 6.9051102e-02 -3.5703633e-04 
7.6099686e-02 7.0473142e-02 -1.4142606e-03 
7.6292284e-02 7.0475712e-02 -8.9385128e-04 
7.5299874e-02 6.9147639e-02 -2.5315399e-04 
7.4809551e-02 6.9131233e-02 -1.5459141e-03 
7.5142056e-02 6.9581129e-02 -1.7795252e-03 
7.6683514e-02 7.1251869e-02 -1.7614720e-03 
7.5722739e-02 6.9694780e-02 -4.8271666e-04 
7.4627675e-02 6.8511024e-02 -4.6824769e-04 
7.4300714e-02 6.8355404e-02 -9.6098904e-04 
7.4538596e-02 6.8911441e-02 -1.7352370e-03 
7.5131141e-02 6.9484979e-02 -1.5717751e-03 
7.6013692e-02 7.0421621e-02 -1.5146054e-03 
7.6063663e-02 7.0379660e-02 -1.2700956e-03 
7.5054646e-02 6.8894893e-02 -2.7888245e-04 
7.4433416e-02 6.8253994e-02 -3.4664635e-04 
7.4065022e-02 6.8325497e-02 -1.5406960e-03 
7.5257443e-02 6.9557674e-02 -1.4109986e-03 
7.5353317e-02 6.9458947e-02 -8.9031033e-04 
7.4409440e-02 6.8186864e-02 -2.3798396e-04 
7.4283488e-02 6.8647400e-02 -1.7740160e-03 
7.3953353e-02 6.7800015e-02 -4.9427385e-04 
7.4049532e-02 6.8159908e-02 -1.1608369e-03 
7.4838683e-02 6.8742625e-02 -4.7775789e-04 
7.5741552e-02 7.0224255e-02 -1.7603991e-03 
7.3663592e-02 6.7963839e-02 -1.7302014e-03 
7.3762968e-02 6.7531891e-02 -3.3046366e-04 
7.3279053e-02 6.7255057e-02 -9.5172407e-04 
7.4152350e-02 6.7924477e-02 -2.6543194e-04 
7.5072020e-02 6.9397606e-02 -1.5110034e-03 
7.4130639e-02 6.8411171e-02 -1.5943219e-03 
7.5120933e-02 6.9356292e-02 -1.2669691e-03 
7.3287152e-02 6.7477278e-02 -1.5116154e-03 
7.3262192e-02 6.7322478e-02 -1.1810552e-03 
7.3125221e-02 6.6912144e-02 -4.8638368e-04 
7.4315898e-02 6.8538107e-02 -1.4039557e-03 
7.3490217e-02 6.7199059e-02 -2.2310225e-04 
7.3397569e-02 6.7688979e-02 -1.7672534e-03 
7.4409738e-02 6.8440832e-02 -8.8500825e-04 
7.3925085e-02 6.7762025e-02 -4.7468022e-04 
7.4794836e-02 6.9196008e-02 -1.7600062e-03 
7.3002674e-02 6.6715203e-02 -3.1376764e-04 
7.2761133e-02 6.6990718e-02 -1.7244699e-03 
7.3236547e-02 6.7442685e-02 -1.5811668e-03 
7.3220722e-02 6.6925675e-02 -2.5241304e-04 
7.4124612e-02 6.8373062e-02 -1.5077951e-03 
7.4172527e-02 6.8332344e-02 -1.2639812e-03 
7.2464801e-02 6.6191390e-02 -4.4162507e-04 
7.2197400e-02 6.6097178e-02 -9.4294519e-04 
7.2135136e-02 6.6242397e-02 -1.5154574e-03 
7.2484531e-02 6.6704519e-02 -1.7596469e-03 
7.2541617e-02 6.6184141e-02 -2.0815629e-04 
7.3369160e-02 6.7517094e-02 -1.3983236e-03 
7.3460929e-02 6.7421332e-02 -8.8082766e-04 
7.2229035e-02 6.5895416e-02 -3.2003573e-04 
7.2982460e-02 6.6754594e-02 -4.7170016e-04 
7.3842861e-02 6.8166718e-02 -1.7595792e-03 
7.1618021e-02 6.5586351e-02 -1.2300861e-03 
7.1730986e-02 6.5431878e-02 -4.9390714e-04 
7.1830489e-02 6.5990053e-02 -1.7199119e-03 
7.2308622e-02 6.6442423e-02 -1.5692218e-03 
7.2259873e-02 6.5898851e-02 -2.3966766e-04 
7.3172592e-02 6.7347169e-02 -1.5049618e-03 
7.3219530e-02 6.7307010e-02 -1.2613373e-03 
7.1347758e-02 6.5402441e-02 -1.5174524e-03 
7.1462527e-02 6.5085083e-02 -3.2445064e-04 
7.1060017e-02 6.4884856e-02 -9.3187753e-04 
7.1543463e-02 6.5693267e-02 -1.7536194e-03 
7.2418451e-02 6.6495284e-02 -1.3932145e-03 
7.2508126e-02 6.6400930e-02 -8.7679364e-04 
7.1562164e-02 6.5141357e-02 -1.9162390e-04 
7.1983911e-02 6.5689087e-02 -4.6478680e-04 
7.2886266e-02 6.7136459e-02 -1.7596527e-03 
7.0868254e-02 6.4722076e-02 -1.0517690e-03 
7.1099162e-02 6.4836778e-02 -6.9908099e-04 
7.0817634e-02 6.4464770e-02 -4.8985262e-04 
7.0875764e-02 6.4968318e-02 -1.7146420e-03 
7.1329407e-02 6.5393604e-02 -1.5623122e-03 
7.1274765e-02 6.4850442e-02 -2.2372590e-04 
7.2216235e-02 6.6320919e-02 -1.5028195e-03 
7.2262190e-02 6.6281319e-02 -1.2593652e-03 
7.0696913e-02 6.4277522e-02 -3.2842721e-04 
7.0240274e-02 6.4219221e-02 -1.5062976e-03 
7.0586227e-02 6.4670704e-02 -1.7514913e-03 
7.1463570e-02 6.5474249e-02 -1.3887993e-03 
7.1551234e-02 6.5381251e-02 -8.7302621e-04 
7.0577703e-02 6.4097442e-02 -1.7617314e-04 
6.9926307e-02 6.3679315e-02 -9.2234852e-04 
7.0125245e-02 6.3711852e-02 -4.2829904e-04 
7.1925364e-02 6.6105895e-02 -1.7604281e-03 
7.0986032e-02 6.4625032e-02 -4.4405277e-04 
6.9923781e-02 6.3954644e-02 -1.7107161e-03 
6.9887228e-02 6.3406877e-02 -2.7774295e-04 
7.0367448e-02 6.4370640e-02 -1.5642520e-03 
7.1255781e-02 6.5294951e-02 -1.5013465e-03 
7.1300715e-02 6.5255910e-02 -1.2578827e-03 
7.0288643e-02 6.3805059e-02 -2.0694348e-04 
6.9631346e-02 6.3656040e-02 -1.7505264e-03 
6.9263540e-02 6.2817283e-02 -4.6023409e-04 
7.0504978e-02 6.4453833e-02 -1.3850759e-03 
7.0590578e-02 6.4362124e-02 -8.6925464e-04 
6.9149122e-02 6.3065879e-02 -1.5112783e-03 
6.9598153e-02 6.3062720e-02 -1.6013386e-04 
7.0960134e-02 6.5075152e-02 -1.7619852e-03 
6.9998302e-02 6.3576005e-02 -4.2280095e-04 
6.8822727e-02 6.2516011e-02 -9.1069244e-04 
6.8975285e-02 6.2948510e-02 -1.7074369e-03 
6.9408812e-02 6.3355222e-02 -1.5670084e-03 
7.0290826e-02 6.4268626e-02 -1.5009220e-03 
7.0334733e-02 6.4230241e-02 -1.2568495e-03 
6.9306493e-02 6.2768415e-02 -1.8992636e-04 
6.8439469e-02 6.1966453e-02 -4.9269391e-04 
6.8348616e-02 6.2221419e-02 -1.5058444e-03 
6.8680093e-02 6.2649563e-02 -1.7510072e-03 
6.8466887e-02 6.1915945e-02 -2.6657360e-04 
6.9626376e-02 6.3343070e-02 -8.6496322e-04 
6.9425836e-02 6.3306920e-02 -1.3739780e-03 
6.8622984e-02 6.2037297e-02 -1.4391881e-04 
6.9989748e-02 6.4043239e-02 -1.7644645e-03 
6.9013655e-02 6.2535562e-02 -4.0224724e-04 
6.7746833e-02 6.1383769e-02 -9.0029713e-04 
6.8202704e-02 6.1769970e-02 -6.4526143e-04 
6.8030149e-02 6.1950687e-02 -1.7050835e-03 
6.7920320e-02 6.1631054e-02 -1.0971479e-03 
6.7911133e-02 6.1378978e-02 -3.8745080e-04 
6.8553559e-02 6.2440023e-02 -1.5331667e-03 
6.9320984e-02 6.3241951e-02 -1.5013018e-03 
6.9363795e-02 6.3204132e-02 -1.2566943e-03 
6.8328023e-02 6.1740179e-02 -1.7237119e-04 
6.7723863e-02 6.1135653e-02 -2.4644024e-04 
6.7732997e-02 6.1651405e-02 -1.7521888e-03 
6.8656988e-02 6.2323499e-02 -8.6224277e-04 
6.8462580e-02 6.2290616e-02 -1.3720823e-03 
6.7373179e-02 6.1088569e-02 -1.1921938e-03 
6.7649961e-02 6.1020188e-02 -1.2737130e-04 
6.9014966e-02 6.3011207e-02 -1.7674373e-03 
6.7142092e-02 6.0580570e-02 -3.9032588e-04 
6.6989884e-02 6.0723912e-02 -1.2895867e-03 
6.8032585e-02 6.1505008e-02 -3.8282349e-04 
6.7088448e-02 6.0961138e-02 -1.7041618e-03 
6.6697381e-02 6.0286760e-02 -8.8991737e-04 
6.7585394e-02 6.1423969e-02 -1.5412574e-03 
6.6978320e-02 6.0355328e-02 -2.2460290e-04 
6.8347506e-02 6.2215518e-02 -1.5025005e-03 
6.8389282e-02 6.2178217e-02 -1.2573254e-03 
6.7353569e-02 6.0721722e-02 -1.5434966e-04 
6.6303104e-02 5.9964627e-02 -1.1535427e-03 
6.6787988e-02 6.0660366e-02 -1.7539129e-03 
6.6391110e-02 5.9795231e-02 -3.6665544e-04 
6.7498706e-02 6.1278097e-02 -1.3714363e-03 
6.7684494e-02 6.1304785e-02 -8.5991906e-04 
6.6681825e-02 6.0010724e-02 -1.1074854e-04 
6.8036802e-02 6.1979719e-02 -1.7712800e-03 
6.6140026e-02 5.9909549e-02 -1.5112630e-03 
6.7055024e-02 6.0482107e-02 -3.6322800e-04 
6.6148631e-02 5.9978120e-02 -1.7034959e-03 
6.6161096e-02 5.9504982e-02 -2.0722792e-04 
6.6551864e-02 6.0354855e-02 -1.5813439e-03 
6.5670848e-02 5.9219867e-02 -8.7984273e-04 
6.5647587e-02 5.9310809e-02 -1.2377119e-03 
6.7371033e-02 6.1190147e-02 -1.5046984e-03 
6.7411743e-02 6.1153356e-02 -1.2587612e-03 
6.6382565e-02 5.9711631e-02 -1.3699928e-04 
6.5623991e-02 5.9012655e-02 -3.9700107e-04 
6.5845549e-02 5.9676450e-02 -1.7567042e-03 
6.5392427e-02 5.9134226e-02 -1.5154056e-03 
6.6534519e-02 6.0270071e-02 -1.3715661e-03 
6.6709325e-02 6.0287803e-02 -8.5756689e-04 
6.5716773e-02 5.9010495e-02 -9.4326198e-05 
6.7054927e-02 6.0949206e-02 -1.7764703e-03 
6.6075027e-02 5.9483781e-02 -4.1412559e-04 
6.5211922e-02 5.9003305e-02 -1.7032952e-03 
6.5179676e-02 5.8507293e-02 -2.5020493e-04 
6.4898565e-02 5.8535151e-02 -1.2385843e-03 
6.5695770e-02 5.9449431e-02 -1.5412235e-03 
6.5166116e-02 5.8644779e-02 -7.2929519e-04 
6.4669907e-02 5.8183618e-02 -8.7019667e-04 
6.6390544e-02 6.0165774e-02 -1.5084462e-03 
6.6430181e-02 6.0129460e-02 -1.2614159e-03 
6.5415218e-02 5.8709156e-02 -1.2022874e-04 
6.4603038e-02 5.8314290e-02 -1.5119307e-03 
6.4906478e-02 5.8701903e-02 -1.7617508e-03 
6.5764420e-02 5.9290715e-02 -8.0542680e-04 
6.4693712e-02 5.7979342e-02 -1.6052769e-04 
6.5568991e-02 5.9265491e-02 -1.3739119e-03 
6.4784840e-02 5.8356151e-02 -1.0631342e-03 
6.4755596e-02 5.8018129e-02 -7.9242731e-05 
6.6069394e-02 5.9919700e-02 -1.7824705e-03 
6.4263694e-02 5.7586648e-02 -3.1002608e-04 
6.4364411e-02 5.7892244e-02 -9.6019654e-04 
6.4071201e-02 5.7711765e-02 -1.3408052e-03 
6.4279526e-02 5.8035512e-02 -1.7047581e-03 
6.5103933e-02 5.8478810e-02 -3.9943654e-04 
6.4745530e-02 5.8465067e-02 -1.5460133e-03 
6.3695185e-02 5.7176434e-02 -8.5878908e-04 
6.5406404e-02 5.9143081e-02 -1.5125992e-03 
6.4451106e-02 5.7716385e-02 -1.0415224e-04 
6.5445088e-02 5.9107155e-02 -1.2645073e-03 
6.4005308e-02 5.7274126e-02 -1.5580360e-04 
6.3738629e-02 5.7440564e-02 -1.5774585e-03 
6.3971117e-02 5.7734266e-02 -1.7672236e-03 
6.4786993e-02 5.8278847e-02 -7.9548376e-04 
6.4603783e-02 5.8266632e-02 -1.3773320e-03 
6.3312061e-02 5.6921631e-02 -1.3096475e-03 
6.3798793e-02 5.7034913e-02 -6.3179403e-05 
6.3507959e-02 5.6967285e-02 -8.1449864e-04 
6.3390136e-02 5.6686286e-02 -2.8102059e-04 
6.5080948e-02 5.8892787e-02 -1.7889204e-03 
6.3350357e-02 5.7077352e-02 -1.7080558e-03 
6.3586399e-02 5.7059254e-02 -8.5623085e-04 
6.4140245e-02 5.7482809e-02 -3.7528723e-04 
6.3790627e-02 5.7481311e-02 -1.5575612e-03 
6.3007504e-02 5.6682598e-02 -1.5621344e-03 
6.2741451e-02 5.6198485e-02 -8.4852357e-04 
6.3115075e-02 5.6363817e-02 -1.4286517e-04 
6.3492231e-02 5.6732669e-02 -8.8049681e-05 
6.4419977e-02 5.8123332e-02 -1.5176783e-03 
6.4457767e-02 5.8087785e-02 -1.2685553e-03 
6.3040525e-02 5.6774218e-02 -1.7735494e-03 
6.2557213e-02 5.6142237e-02 -1.2947458e-03 
6.2845059e-02 5.6374907e-02 -1.1002576e-03 
6.2617980e-02 5.5900980e-02 -2.8152607e-04 
6.3810691e-02 5.7269756e-02 -7.7634613e-04 
6.3643940e-02 5.7278126e-02 -1.3835937e-03 
6.2845975e-02 5.6062881e-02 -4.6563266e-05 
6.2424686e-02 5.6126751e-02 -1.7126441e-03 
6.4092040e-02 5.7869669e-02 -1.7956968e-03 
6.2248647e-02 5.5902176e-02 -1.5539285e-03 
6.3173406e-02 5.6491494e-02 -3.6204347e-04 
6.2789962e-02 5.6468956e-02 -1.6137506e-03 
6.2339656e-02 5.5576280e-02 -1.3776030e-04 
6.1809149e-02 5.5246372e-02 -8.3762867e-04 
6.2537700e-02 5.5756453e-02 -7.1588387e-05 
6.1800018e-02 5.5365331e-02 -1.2805018e-03 
6.3434765e-02 5.7108045e-02 -1.5231087e-03 
6.3471667e-02 5.7072639e-02 -1.2729376e-03 
6.2112030e-02 5.5826187e-02 -1.7809721e-03 
6.1843891e-02 5.5117402e-02 -2.8267523e-04 
6.2834382e-02 5.6269400e-02 -7.7066076e-04 
6.1898693e-02 5.5095922e-02 -3.0411715e-05 
6.1487835e-02 5.5123013e-02 -1.5456990e-03 
6.2708184e-02 5.6324638e-02 -1.4034455e-03 
6.1502222e-02 5.5184603e-02 -1.7190914e-03 
6.1565157e-02 5.4790918e-02 -1.3237435e-04 
6.1762385e-02 5.5141479e-02 -6.5891509e-04 
6.3102752e-02 5.6851808e-02 -1.8045881e-03 
6.1915152e-02 5.5414379e-02 -1.0628097e-03 
6.2206514e-02 5.5505265e-02 -3.4941212e-04 
6.1392576e-02 5.4776300e-02 -6.8727019e-04 
6.1918896e-02 5.5553485e-02 -1.5352874e-03 
6.1041795e-02 5.4590240e-02 -1.2663134e-03 
6.0894571e-02 5.4316409e-02 -8.2877651e-04 
6.1069880e-02 5.4335810e-02 -2.8448229e-04 
6.1587173e-02 5.4790895e-02 -5.5717621e-05 
6.2446907e-02 5.6097068e-02 -1.5311084e-03 
6.2483195e-02 5.6062229e-02 -1.2784537e-03 
6.1186932e-02 5.4881528e-02 -1.7910514e-03 
6.0727436e-02 5.4346181e-02 -1.5368864e-03 
6.1857633e-02 5.5271626e-02 -7.6236151e-04 
6.0789801e-02 5.4007251e-02 -1.2711553e-04 
6.0953680e-02 5.4139238e-02 -1.3874833e-05 
6.1712645e-02 5.5305071e-02 -1.4001712e-03 
6.0583755e-02 5.4251205e-02 -1.7261999e-03 
6.0834348e-02 5.4207068e-02 -6.7456276e-04 
6.0984083e-02 5.4472186e-02 -1.0802451e-03 
6.0282506e-02 5.3816658e-02 -1.2523290e-03 
6.1241921e-02 5.4524720e-02 -3.3621182e-04 
6.2109333e-02 5.5835828e-02 -1.8156616e-03 
6.0295358e-02 5.3555645e-02 -2.8721220e-04 
6.0946226e-02 5.4564517e-02 -1.5436269e-03 
6.0001336e-02 5.3411480e-02 -8.1848400e-04 
6.0639247e-02 5.3832747e-02 -4.0105893e-05 
5.9965350e-02 5.3572524e-02 -1.5293692e-03 
6.0266629e-02 5.3947236e-02 -1.8017980e-03 
6.1455492e-02 5.5086758e-02 -1.5415095e-03 
6.1490882e-02 5.5051934e-02 -1.2865203e-03 
6.0013220e-02 5.3226180e-02 -1.2362162e-04 
6.0875192e-02 5.4274332e-02 -7.5455167e-04 
5.9522569e-02 5.3045619e-02 -1.2382279e-03 
6.0014591e-02 5.3191442e-02 3.2213734e-06 
5.9764177e-02 5.3125568e-02 -6.6081824e-04 
6.0711950e-02 5.4290537e-02 -1.4125647e-03 
5.9666704e-02 5.3323820e-02 -1.7360199e-03 
5.9911799e-02 5.3280883e-02 -6.9102593e-04 
5.9519295e-02 5.2779209e-02 -2.9146887e-04 
6.0057942e-02 5.3539656e-02 -1.0972340e-03 
6.0275909e-02 5.3546228e-02 -3.1962185e-04 
6.1114818e-02 5.4821618e-02 -1.8272734e-03 
5.9125915e-02 5.2529510e-02 -8.0920925e-04 
5.9202548e-02 5.2800175e-02 -1.5216413e-03 
5.9860609e-02 5.3464405e-02 -1.5507732e-03 
5.9698183e-02 5.2884325e-02 -2.4130077e-05 
5.9236791e-02 5.2447811e-02 -1.1946152e-04 
5.9348460e-02 5.3021520e-02 -1.8145475e-03 
6.0462907e-02 5.4079629e-02 -1.5522295e-03 
6.0497664e-02 5.4044943e-02 -1.2948823e-03 
5.8752395e-02 5.2268106e-02 -1.2275942e-03 
5.8745425e-02 5.2005816e-02 -2.9560341e-04 
5.9078876e-02 5.2251223e-02 1.9058656e-05 
5.9874877e-02 5.3259607e-02 -7.3630741e-04 
5.8754448e-02 5.2407946e-02 -1.7464230e-03 
5.8992594e-02 5.2363526e-02 -7.0934376e-04 
5.9136495e-02 5.2615855e-02 -1.1165509e-03 
5.9746351e-02 5.3318284e-02 -1.4354432e-03 
5.9086081e-02 5.2713525e-02 -1.6678862e-03 
5.8440559e-02 5.2032545e-02 -1.5173982e-03 
5.9309959e-02 5.2568782e-02 -2.8814294e-04 
5.8268305e-02 5.1669639e-02 -8.0037036e-04 
6.0119454e-02 5.3812124e-02 -1.8403608e-03 
5.8462720e-02 5.1674005e-02 -1.1853783e-04 
5.8761600e-02 5.1946148e-02 -7.7375898e-06 
5.8434963e-02 5.2104566e-02 -1.8289919e-03 
5.8018327e-02 5.1440727e-02 -8.9056179e-04 
5.9471220e-02 5.3078499e-02 -1.5649267e-03 
5.9505332e-02 5.3044014e-02 -1.3054002e-03 
5.7952113e-02 5.1215753e-02 -3.0106422e-04 
5.7803452e-02 5.1348031e-02 -1.3423353e-03 
5.8722347e-02 5.2295413e-02 -1.4791440e-03 
5.8148365e-02 5.1321387e-02 3.5435718e-05 
5.7950821e-02 5.1324341e-02 -7.1625476e-04 
5.7846367e-02 5.1498182e-02 -1.7590579e-03 
5.8077246e-02 5.1453650e-02 -7.2943146e-04 
5.8445621e-02 5.1682919e-02 -2.0366715e-04 
5.8768358e-02 5.2129433e-02 -6.6797523e-04 
5.8169112e-02 5.1795561e-02 -1.6845262e-03 
5.7430018e-02 5.0829947e-02 -7.9068885e-04 
5.8759440e-02 5.2326955e-02 -1.4495184e-03 
5.7689577e-02 5.0904650e-02 -1.1231352e-04 
5.9124321e-02 5.2809630e-02 -1.8558960e-03 
5.7289332e-02 5.0560281e-02 -3.1102344e-04 
5.7261761e-02 5.0857916e-02 -1.5449984e-03 
5.7830557e-02 5.1014788e-02 8.1335584e-06 
5.7527315e-02 5.1197156e-02 -1.8437746e-03 
5.7069499e-02 5.0581280e-02 -1.2125371e-03 
5.8479581e-02 5.2085932e-02 -1.5806430e-03 
5.8513008e-02 5.2051846e-02 -1.3185764e-03 
5.7567369e-02 5.1162507e-02 -1.5703693e-03 
5.7222456e-02 5.0398543e-02 5.0295064e-05 
5.6941554e-02 5.0595939e-02 -1.7737268e-03 
5.7730556e-02 5.1010378e-02 -3.4959722e-04 
5.7810869e-02 5.1376119e-02 -1.4491085e-03 
5.6609977e-02 5.0012711e-02 -7.8226952e-04 
5.6830410e-02 5.0063230e-02 -1.5099871e-04 
5.6552287e-02 5.0116450e-02 -1.4080489e-03 
5.7743482e-02 5.1121298e-02 -7.1771484e-04 
5.6658164e-02 5.0157495e-02 -1.1698328e-03 
5.8131024e-02 5.1813141e-02 -1.8721264e-03 
5.6780625e-02 5.0202433e-02 -8.8653748e-04 
5.6256041e-02 4.9612574e-02 -6.0404919e-04 
5.5804159e-02 4.9213618e-02 -7.7358482e-04 
5.5856653e-02 4.9381837e-02 -1.2348269e-03 
5.5984359e-02 4.9250830e-02 -2.3925750e-04 
5.5937078e-02 4.9544271e-02 -1.5657429e-03 
5.6143492e-02 4.9356509e-02 -4.4657649e-05 
5.6042530e-02 4.9703483e-02 -1.7900763e-03 
5.6302842e-02 4.9486727e-02 6.6930457e-05 
5.6209005e-02 4.9881078e-02 -1.8548769e-03 
5.6473274e-02 4.9670059e-02 1.3275599e-05 
5.6409661e-02 5.0039530e-02 -1.6946631e-03 
5.6627434e-02 4.9877189e-02 -2.0290897e-04 
5.6618519e-02 5.0199941e-02 -1.5094685e-03 
5.6775242e-02 5.0104622e-02 -5.1001867e-04 
5.5930149e-02 4.9328949e-02 -7.5828139e-04 
5.6816868e-02 5.0390203e-02 -1.4767165e-03 
5.6918338e-02 5.0334841e-02 -8.5563475e-04 
5.6993771e-02 5.0597057e-02 -1.5811190e-03 
5.7046492e-02 5.0572816e-02 -1.2742798e-03 
5.7137433e-02 5.0822765e-02 -1.8893915e-03 
5.5238001e-02 4.8814073e-02 -1.4105084e-03 
5.5401433e-02 4.8644889e-02 -1.1751951e-04 
5.4968875e-02 4.8387732e-02 -7.6461345e-04 
5.5147648e-02 4.8819482e-02 -1.8077417e-03 
5.5351019e-02 4.8544828e-02 8.3823397e-05 
5.4952022e-02 4.8327137e-02 -6.0667505e-04 
5.5127200e-02 4.8807390e-02 -1.8580853e-03 
5.5463735e-02 4.9079843e-02 -1.6131890e-03 
5.5649504e-02 4.8949301e-02 -3.4084919e-04 
5.4574706e-02 4.8113480e-02 -1.2236370e-03 
5.4686140e-02 4.7978308e-02 -2.5078843e-04 
5.5311557e-02 4.8532065e-02 -7.8473358e-06 
5.5630185e-02 4.9214356e-02 -1.4933775e-03 
5.4628473e-02 4.8252489e-02 -1.5795783e-03 
5.5742163e-02 4.9131393e-02 -6.9731090e-04 
5.4746103e-02 4.7983937e-02 -4.2536474e-05 
5.6142692e-02 4.9833789e-02 -1.9082346e-03 
5.5732846e-02 4.9340062e-02 -1.5779248e-03 
5.5793397e-02 4.9306601e-02 -1.1942391e-03 
5.4463189e-02 4.7903042e-02 -8.3385612e-04 
5.4087140e-02 4.7518298e-02 -7.5503561e-04 
5.4247707e-02 4.7936570e-02 -1.8274534e-03 
5.4557934e-02 4.8221737e-02 -1.7648616e-03 
5.4164559e-02 4.7411446e-02 -2.8377830e-05 
5.4347575e-02 4.7558628e-02 1.0119610e-04 
5.3801656e-02 4.7353789e-02 -1.2262432e-03 
5.3909127e-02 4.7214471e-02 -2.3635355e-04 
5.4697312e-02 4.7979310e-02 -2.0245802e-04 
5.3686533e-02 4.7337376e-02 -1.6271324e-03 
5.4808035e-02 4.8410635e-02 -1.5266914e-03 
5.3921189e-02 4.7635220e-02 -1.9242438e-03 
5.4875411e-02 4.8325963e-02 -8.9283852e-04 
5.3649038e-02 4.7115080e-02 -8.7446754e-04 
5.5149190e-02 4.8851199e-02 -1.9278553e-03 
5.4429833e-02 4.7787562e-02 -4.8809912e-04 
5.3661954e-02 4.7115605e-02 -8.2898664e-04 
5.3681925e-02 4.6918243e-02 6.6739420e-05 
5.3972989e-02 4.7204997e-02 5.4479875e-05 
5.4163262e-02 4.7787301e-02 -1.5869556e-03 
5.3151652e-02 4.6602596e-02 -7.4630918e-04 
5.3214319e-02 4.6801653e-02 -1.3269798e-03 
5.3370770e-02 4.6647981e-02 -7.0039307e-05 
5.3714469e-02 4.7402412e-02 -1.8144812e-03 
5.3345527e-02 4.7052436e-02 -1.8481291e-03 
5.3647336e-02 4.7093786e-02 -8.0333679e-04 
5.4513838e-02 4.8153479e-02 -1.6528588e-03 
5.4545574e-02 4.8118979e-02 -1.3753526e-03 
5.3795401e-02 4.7086213e-02 -1.6075844e-04 
5.3291127e-02 4.6525560e-02 1.1792104e-04 
5.2910592e-02 4.6578370e-02 -1.6425303e-03 
5.2849904e-02 4.6344634e-02 -9.1504271e-04 
5.3015780e-02 4.6749230e-02 -1.9468669e-03 
5.3821478e-02 4.7443621e-02 -1.5492053e-03 
5.3888883e-02 4.7358923e-02 -9.0246246e-04 
5.2633680e-02 4.5953836e-02 -1.6157163e-04 
5.2783128e-02 4.6054032e-02 2.1886444e-05 
5.4156482e-02 4.7873575e-02 -1.9486179e-03 
5.2901492e-02 4.6601433e-02 -1.8077369e-03 
5.2439358e-02 4.6170671e-02 -1.8707411e-03 
5.2283756e-02 4.5935094e-02 -1.5064316e-03 
5.2891344e-02 4.6152372e-02 6.1051571e-05 
5.2159786e-02 4.5632821e-02 -7.3476019e-04 
5.2640680e-02 4.6122789e-02 -8.5156068e-04 
5.3526945e-02 4.7186434e-02 -1.6736132e-03 
5.3558350e-02 4.7151871e-02 -1.3927883e-03 
5.2967768e-02 4.6330556e-02 -3.6868086e-04 
5.1894873e-02 4.5274049e-02 -3.1433153e-04 
5.2049235e-02 4.5359600e-02 -4.9211747e-05 
5.2076653e-02 4.5483250e-02 -4.6070560e-04 
5.2107975e-02 4.5865096e-02 -1.9716758e-03 
5.2179430e-02 4.5441784e-02 1.3752819e-04 
5.1620234e-02 4.5236845e-02 -1.2814580e-03 
5.2839544e-02 4.6485953e-02 -1.5721351e-03 
5.2518632e-02 4.6176553e-02 -1.6083084e-03 
5.2907493e-02 4.6399698e-02 -9.1195223e-04 
5.1636979e-02 4.5340791e-02 -1.6657261e-03 
5.3168587e-02 4.6906784e-02 -1.9704942e-03 
5.1531650e-02 4.5056589e-02 -8.9061138e-04 
5.1895861e-02 4.5631580e-02 -1.8636554e-03 
5.1531177e-02 4.5289431e-02 -1.8955820e-03 
5.1728319e-02 4.5241538e-02 -8.7374501e-04 
5.1316082e-02 4.4672724e-02 -1.4087220e-04 
5.1461384e-02 4.4769868e-02 4.2398457e-05 
5.1105618e-02 4.4608969e-02 -7.2402845e-04 
5.1752754e-02 4.5048241e-02 6.8821195e-05 
5.2544042e-02 4.6229389e-02 -1.6954143e-03 
5.2574962e-02 4.6194617e-02 -1.4110417e-03 
5.0909664e-02 4.4579890e-02 -1.4229642e-03 
5.1141214e-02 4.4707235e-02 -1.0223757e-03 
5.0961170e-02 4.4706047e-02 -1.7665011e-03 
5.1196881e-02 4.4983551e-02 -1.9979232e-03 
5.1861048e-02 4.5538981e-02 -1.5967069e-03 
5.0820824e-02 4.4345371e-02 -7.9351763e-04 
5.1002163e-02 4.4301741e-02 1.5648863e-04 
5.0580200e-02 4.4000387e-02 -2.9409988e-04 
5.0731402e-02 4.4083420e-02 -2.9903616e-05 
5.1857039e-02 4.5398500e-02 -9.8895188e-04 
5.2184261e-02 4.5948844e-02 -1.9929288e-03 
5.0620284e-02 4.4407558e-02 -1.9191215e-03 
5.0878130e-02 4.4374254e-02 -6.8808120e-04 
5.0916433e-02 4.4677582e-02 -1.8637851e-03 
5.0238259e-02 4.3881528e-02 -1.2062662e-03 
5.0279938e-02 4.4009544e-02 -1.6066548e-03 
5.1230468e-02 4.4664815e-02 -4.5097861e-04 
5.1562421e-02 4.5278296e-02 -1.7179606e-03 
5.1593114e-02 4.5243572e-02 -1.4284248e-03 
5.0185077e-02 4.3724813e-02 -7.5447792e-04 
4.9985435e-02 4.3526236e-02 -7.1300042e-04 
5.0224986e-02 4.3846563e-02 -1.1332299e-03 
5.0282691e-02 4.4101752e-02 -2.0243519e-03 
5.0504245e-02 4.4045381e-02 -8.2593475e-04 
5.0545178e-02 4.3884262e-02 7.1740651e-05 
5.0002534e-02 4.3404844e-02 -1.2157473e-04 
5.0144605e-02 4.3498561e-02 6.3235748e-05 
5.0534032e-02 4.4109594e-02 -9.7864633e-04 
5.1058967e-02 4.4630613e-02 -1.0117346e-03 
5.0881084e-02 4.4593610e-02 -1.6223915e-03 
5.0512969e-02 4.4241942e-02 -1.6690558e-03 
4.9607381e-02 4.3317474e-02 -1.4032321e-03 
4.9653489e-02 4.3440711e-02 -1.7687009e-03 
5.0065573e-02 4.3865036e-02 -1.9152786e-03 
4.9708072e-02 4.3530669e-02 -1.9428540e-03 
5.1199943e-02 4.4995513e-02 -2.0158712e-03 
4.9895760e-02 4.3481354e-02 -9.2163647e-04 
4.9515180e-02 4.3090146e-02 -7.9708523e-04 
4.9759928e-02 4.3106005e-02 1.7547257e-04 
4.9271911e-02 4.2740259e-02 -2.7467904e-04 
4.9419411e-02 4.2821173e-02 -1.0952467e-05 
5.0580706e-02 4.4330876e-02 -1.7407843e-03 
5.0611179e-02 4.4295907e-02 -1.4466350e-03 
4.9368195e-02 4.3223102e-02 -2.0510769e-03 
4.8975922e-02 4.2662617e-02 -1.1876222e-03 
4.8977785e-02 4.2753257e-02 -1.5970478e-03 
4.9525362e-02 4.3073881e-02 -6.9063000e-04 
4.8794102e-02 4.2380359e-02 -7.0039631e-04 
4.9904216e-02 4.3652713e-02 -1.6484149e-03 
4.9973082e-02 4.3565337e-02 -9.4194524e-04 
4.8812825e-02 4.2419914e-02 -8.1308262e-04 
4.8792403e-02 4.2654127e-02 -1.9710178e-03 
4.9272891e-02 4.2666297e-02 7.3405376e-05 
4.8978548e-02 4.2606942e-02 -9.4702578e-04 
4.8695065e-02 4.2150803e-02 -1.0130858e-04 
4.8833597e-02 4.2242166e-02 8.2603787e-05 
5.0218381e-02 4.4047382e-02 -2.0377326e-03 
4.9084213e-02 4.2916007e-02 -1.9115728e-03 
4.8310231e-02 4.2068202e-02 -1.3846254e-03 
4.8233356e-02 4.1926056e-02 -1.0663019e-03 
4.9285810e-02 4.2797554e-02 -4.6164190e-04 
4.8351243e-02 4.2189930e-02 -1.7702654e-03 
4.8256896e-02 4.1894186e-02 -8.2883739e-04 
4.9603418e-02 4.3390401e-02 -1.7634789e-03 
4.9633730e-02 4.3355383e-02 -1.4654401e-03 
4.8451327e-02 4.2347390e-02 -2.0786419e-03 
4.8108310e-02 4.1614737e-02 -2.0034105e-04 
4.8446506e-02 4.1849259e-02 1.9878683e-04 
4.8845731e-02 4.2643327e-02 -1.7165622e-03 
4.8175607e-02 4.1775096e-02 -6.4305629e-04 
4.8112217e-02 4.1572668e-02 7.8329958e-06 
4.9122196e-02 4.2765994e-02 -1.0224676e-03 
4.8931476e-02 4.2721748e-02 -1.6741108e-03 
4.8163559e-02 4.1815087e-02 -8.8523846e-04 
4.8229747e-02 4.2108603e-02 -1.9713170e-03 
4.7875844e-02 4.1782115e-02 -1.9986890e-03 
4.7648679e-02 4.1386236e-02 -1.1507783e-03 
4.7680460e-02 4.1510522e-02 -1.5869755e-03 
4.9240440e-02 4.3106847e-02 -2.0598879e-03 
4.7522046e-02 4.1165274e-02 -6.8862148e-04 
4.7592450e-02 4.1382428e-02 -1.4023503e-03 
4.8200309e-02 4.1858122e-02 -9.2121382e-04 
4.7392167e-02 4.0908527e-02 -8.1557460e-05 
4.7527868e-02 4.0996257e-02 1.0387403e-04 
4.7923956e-02 4.1379560e-02 7.7307064e-05 
4.7531780e-02 4.1471738e-02 -2.1087064e-03 
4.7356229e-02 4.1044075e-02 -8.7414024e-04 
4.8629027e-02 4.2457964e-02 -1.7856578e-03 
4.8659027e-02 4.2422976e-02 -1.4840181e-03 
4.7533784e-02 4.1074134e-02 -2.2991963e-04 
4.7074895e-02 4.0813059e-02 -1.0246993e-03 
4.7014382e-02 4.0826380e-02 -1.3612346e-03 
4.7059912e-02 4.0957503e-02 -1.7777553e-03 
4.6973541e-02 4.0703688e-02 -9.7734667e-04 
4.7214959e-02 4.0983945e-02 -1.2321287e-03 
4.7962829e-02 4.1798059e-02 -1.6992455e-03 
4.6956901e-02 4.0908836e-02 -2.0248683e-03 
4.8031498e-02 4.1709740e-02 -9.6461480e-04 
4.6801452e-02 4.0370960e-02 -1.8212535e-04 
4.7244143e-02 4.1164245e-02 -1.9670741e-03 
4.6888452e-02 4.0657111e-02 -1.1443769e-03 
4.8266746e-02 4.2174928e-02 -2.0810764e-03 
4.7054816e-02 4.0523130e-02 2.2236345e-04 
4.6811868e-02 4.0334694e-02 2.8085711e-05 
4.7355615e-02 4.0959153e-02 -4.6977529e-04 
4.6422280e-02 4.0376138e-02 -1.9053364e-03 
4.6331115e-02 4.0216152e-02 -1.5422483e-03 
4.6610944e-02 4.0599108e-02 -2.1369606e-03 
4.6819005e-02 4.0542889e-02 -9.2379632e-04 
4.7660448e-02 4.1534446e-02 -1.8071864e-03 
4.7690205e-02 4.1499421e-02 -1.5020462e-03 
4.6161111e-02 3.9872028e-02 -6.7555986e-04 
4.7000375e-02 4.0889703e-02 -1.7710178e-03 
4.6841655e-02 4.0594924e-02 -1.0737302e-03 
4.6229921e-02 3.9964691e-02 -8.2095002e-04 
4.6338081e-02 4.0044531e-02 -7.1903504e-04 
4.6094187e-02 3.9675821e-02 -6.1276784e-05 
4.6228856e-02 3.9763052e-02 1.2532657e-04 
4.7187779e-02 4.0924098e-02 -1.0472959e-03 
4.6385583e-02 4.0359922e-02 -2.0224717e-03 
4.6034958e-02 4.0036585e-02 -2.0531290e-03 
4.6998627e-02 4.0883560e-02 -1.7238541e-03 
4.6494052e-02 4.0030096e-02 7.3998359e-05 
4.5733631e-02 3.9692931e-02 -1.7586490e-03 
4.7297519e-02 4.1251149e-02 -2.1020093e-03 
4.5652390e-02 3.9529711e-02 -1.3336346e-03 
4.5459181e-02 3.9099887e-02 -1.6330053e-04 
4.5684081e-02 3.9725903e-02 -2.1698619e-03 
4.5514688e-02 3.9107166e-02 4.7916474e-05 
4.6695035e-02 4.0618286e-02 -1.8281434e-03 
4.6724346e-02 4.0583342e-02 -1.5193371e-03 
4.5177743e-02 3.9048657e-02 -1.1711058e-03 
4.5306355e-02 3.9051250e-02 -6.1539881e-04 
4.5574155e-02 3.9123431e-02 2.4696917e-04 
4.5281786e-02 3.9040543e-02 -6.7966088e-04 
4.5051761e-02 3.9012101e-02 -1.5730800e-03 
4.5105949e-02 3.9166689e-02 -2.0852562e-03 
4.5282658e-02 3.9117265e-02 -1.0508280e-03 
4.6039529e-02 3.9976031e-02 -1.7477802e-03 
4.6107970e-02 3.9886508e-02 -9.8548678e-04 
4.5392290e-02 3.9419904e-02 -2.0226040e-03 
4.4701934e-02 3.8494721e-02 -6.6295220e-04 
4.6331499e-02 4.0334191e-02 -2.1219330e-03 
4.4800784e-02 3.8456369e-02 -4.3309574e-05 
4.4932753e-02 3.8540937e-02 1.4434506e-04 
4.4949576e-02 3.8640365e-02 -2.5829329e-04 
4.4731490e-02 3.8671769e-02 -1.4039367e-03 
4.4757258e-02 3.8856465e-02 -2.1955692e-03 
4.4961754e-02 3.8799200e-02 -9.7557902e-04 
4.4453345e-02 3.8493674e-02 -1.7951151e-03 
4.4375949e-02 3.8333006e-02 -1.3617250e-03 
4.4548437e-02 3.8360238e-02 -7.2368496e-04 
4.5733165e-02 3.9708529e-02 -1.8483150e-03 
4.5146283e-02 3.9146844e-02 -1.8296652e-03 
4.5762073e-02 3.9673690e-02 -1.5359207e-03 
4.4972491e-02 3.8593907e-02 7.4216856e-05 
4.4982459e-02 3.8850341e-02 -1.1230807e-03 
4.4476990e-02 3.8102280e-02 2.0416295e-04 
4.4596199e-02 3.8328938e-02 -3.5758220e-04 
4.4085968e-02 3.7820250e-02 -2.0054057e-04 
4.4530924e-02 3.8617995e-02 -2.0805958e-03 
4.4223431e-02 3.7893116e-02 6.4619599e-05 
4.4180162e-02 3.8297694e-02 -2.1112389e-03 
4.4092726e-02 3.7933413e-02 -7.2040741e-04 
4.5080781e-02 3.9073858e-02 -1.7711993e-03 
4.4188634e-02 3.7983730e-02 -5.3551130e-04 
4.3809548e-02 3.7766226e-02 -1.1851249e-03 
4.5075383e-02 3.8930852e-02 -1.0717355e-03 
4.3948486e-02 3.7892029e-02 -1.1832489e-03 
4.5368973e-02 3.9423544e-02 -2.1408533e-03 
4.3778088e-02 3.7820831e-02 -1.6050559e-03 
4.4000581e-02 3.7643299e-02 2.7133280e-04 
4.3829184e-02 3.7987106e-02 -2.2254032e-03 
4.4490140e-02 3.8257811e-02 -4.7930147e-04 
4.3515217e-02 3.7250966e-02 -2.5757679e-05 
4.3645423e-02 3.7332922e-02 1.6384032e-04 
4.4774026e-02 3.8804773e-02 -1.8670907e-03 
4.4802669e-02 3.8770176e-02 -1.5514796e-03 
4.3948255e-02 3.7821092e-02 -8.4861729e-04 
4.3139290e-02 3.7029427e-02 -6.4945995e-04 
4.3540597e-02 3.7429355e-02 -7.9253287e-04 
4.3183766e-02 3.7308395e-02 -1.8290185e-03 
4.3107919e-02 3.7150916e-02 -1.3900211e-03 
4.3250646e-02 3.7431493e-02 -2.1380053e-03 
4.4296898e-02 3.8202520e-02 -1.0969398e-03 
4.3534786e-02 3.7677247e-02 -2.0733892e-03 
4.4125985e-02 3.8175989e-02 -1.7935361e-03 
4.3140173e-02 3.6971129e-02 -3.7446755e-04 
4.4409264e-02 3.8520459e-02 -2.1587224e-03 
4.2805307e-02 3.6621917e-02 -1.8330110e-04 
4.2940889e-02 3.6693435e-02 8.2328537e-05 
4.3058161e-02 3.6773369e-02 2.2767379e-04 
4.3354541e-02 3.7083294e-02 7.1723756e-05 
4.2681538e-02 3.6635168e-02 -8.1733358e-04 
4.2899460e-02 3.7120782e-02 -2.2520113e-03 
4.2512294e-02 3.6642723e-02 -1.6373709e-03 
4.2443827e-02 3.6484163e-02 -1.1552809e-03 
4.3285720e-02 3.7402611e-02 -1.8755967e-03 
4.3818519e-02 3.7908625e-02 -1.8846489e-03 
4.3846846e-02 3.7873872e-02 -1.5667737e-03 
4.2412080e-02 3.6280118e-02 -2.9558298e-04 
4.2685095e-02 3.6559220e-02 -4.3643176e-04 
4.2965006e-02 3.6902986e-02 -8.5319713e-04 
4.2671394e-02 3.6880165e-02 -2.1310668e-03 
4.2319458e-02 3.6564849e-02 -2.1673765e-03 
4.2583011e-02 3.6595974e-02 -1.0985801e-03 
4.2237002e-02 3.6058109e-02 -7.3395677e-06 
4.3269821e-02 3.7378076e-02 -1.8169852e-03 
4.2365815e-02 3.6139075e-02 1.8285622e-04 
4.3243915e-02 3.7199643e-02 -1.0171729e-03 
4.2326842e-02 3.6080431e-02 2.9898153e-04 
4.3456253e-02 3.7625596e-02 -2.1734505e-03 
4.1919619e-02 3.6135040e-02 -1.8657786e-03 
4.1846089e-02 3.5980351e-02 -1.4199574e-03 
4.1986804e-02 3.6041304e-02 -1.0905268e-03 
4.1874468e-02 3.5846442e-02 -6.3044543e-04 
4.1967824e-02 3.6254432e-02 -2.2769999e-03 
4.2394880e-02 3.6430068e-02 -1.1456071e-03 
4.1460104e-02 3.5465311e-02 -6.3499185e-04 
4.2871203e-02 3.7022617e-02 -1.8996447e-03 
4.1532289e-02 3.5620034e-02 -1.0780139e-03 
4.2899288e-02 3.6988251e-02 -1.5807032e-03 
4.1665558e-02 3.5506763e-02 1.0146498e-04 
4.1790552e-02 3.5590004e-02 2.6638800e-04 
4.2298026e-02 3.6217198e-02 -5.0459843e-04 
4.1388545e-02 3.5702482e-02 -2.1922768e-03 
4.1252445e-02 3.5478398e-02 -1.6709488e-03 
4.1185617e-02 3.5320800e-02 -1.1799709e-03 
4.1634362e-02 3.5694089e-02 -9.9512679e-04 
4.1672021e-02 3.5944264e-02 -2.1176029e-03 
4.2235315e-02 3.6414474e-02 -1.8284731e-03 
4.1439321e-02 3.5260338e-02 2.9361492e-04 
4.2302877e-02 3.6325857e-02 -1.0229474e-03 
4.1320283e-02 3.5333131e-02 -6.3054013e-04 
4.1150056e-02 3.5106469e-02 -2.7927823e-04 
4.2509742e-02 3.6742169e-02 -2.1880353e-03 
4.1285273e-02 3.5293009e-02 -5.9892971e-04 
4.1534066e-02 3.5386980e-02 1.0910947e-04 
4.0965512e-02 3.4878477e-02 9.7502998e-06 
4.1092865e-02 3.4957930e-02 2.0212722e-04 
4.0873453e-02 3.4919400e-02 -6.2275940e-04 
4.1034661e-02 3.5391446e-02 -2.3051763e-03 
4.0836144e-02 3.5008766e-02 -1.2588886e-03 
4.1363899e-02 3.5376344e-02 -6.4909627e-04 
4.0663410e-02 3.4975074e-02 -1.8998437e-03 
4.0591486e-02 3.4822714e-02 -1.4480230e-03 
4.0554449e-02 3.4714196e-02 -1.0660685e-03 
4.1412108e-02 3.5664555e-02 -1.9225538e-03 
4.0905695e-02 3.4840375e-02 -7.5101641e-05 
4.1928392e-02 3.6146961e-02 -1.9136459e-03 
4.1956138e-02 3.6112823e-02 -1.5928269e-03 
4.0439378e-02 3.4415737e-02 -9.9525278e-05 
4.0543914e-02 3.4559052e-02 -3.4463897e-04 
4.0560212e-02 3.4644902e-02 -7.0831989e-04 
4.0452041e-02 3.4839239e-02 -2.2198500e-03 
4.0623106e-02 3.4792192e-02 -1.1741887e-03 
4.0731076e-02 3.5074346e-02 -2.1403756e-03 
4.0396232e-02 3.4332331e-02 1.1773145e-04 
4.1294124e-02 3.5543401e-02 -1.8461556e-03 
4.1364320e-02 3.5455599e-02 -1.0304018e-03 
4.0540464e-02 3.4424338e-02 3.2929014e-04 
4.1566398e-02 3.5867903e-02 -2.2010822e-03 
3.9999459e-02 3.4324776e-02 -1.7021266e-03 
3.9935462e-02 3.4170300e-02 -1.2063950e-03 
4.0250957e-02 3.4266360e-02 -2.2884272e-04 
4.0120989e-02 3.4295309e-02 -9.9455973e-04 
4.0100738e-02 3.4531269e-02 -2.3288690e-03 
3.9969776e-02 3.4091707e-02 -6.5739348e-04 
3.9651975e-02 3.3794612e-02 -6.2125811e-04 
4.0987730e-02 3.5277847e-02 -1.9272519e-03 
4.1015569e-02 3.5243720e-02 -1.6046745e-03 
3.9701074e-02 3.3711452e-02 2.7993381e-05 
3.9826903e-02 3.3789039e-02 2.2109234e-04 
4.0208146e-02 3.4399267e-02 -1.1242013e-03 
3.9520796e-02 3.3983149e-02 -2.2436886e-03 
3.9412785e-02 3.3827253e-02 -1.9332026e-03 
3.9342858e-02 3.3676814e-02 -1.4779391e-03 
3.9649218e-02 3.3781707e-02 -5.7863310e-04 
3.9776996e-02 3.4015872e-02 -1.1891056e-03 
3.9873756e-02 3.4271445e-02 -2.0833176e-03 
3.9603494e-02 3.3565070e-02 3.2485055e-04 
3.9497335e-02 3.3596788e-02 -3.4544556e-04 
4.0248934e-02 3.4580197e-02 -1.8676789e-03 
4.0426802e-02 3.4590464e-02 -1.0393717e-03 
3.9843015e-02 3.3827998e-02 1.2001715e-04 
4.0629305e-02 3.4999937e-02 -2.2105149e-03 
3.9134607e-02 3.3170551e-02 1.3706417e-04 
3.9257225e-02 3.3250667e-02 3.0770732e-04 
3.8979158e-02 3.3070769e-02 -8.0329250e-05 
3.9868660e-02 3.3967178e-02 -4.8271715e-04 
3.9170213e-02 3.3678282e-02 -2.3555702e-03 
3.9001845e-02 3.3309169e-02 -1.2127875e-03 
3.8690723e-02 3.3032198e-02 -1.2327607e-03 
3.8780082e-02 3.3008151e-02 -6.9741608e-04 
4.0054873e-02 3.4416161e-02 -1.9360100e-03 
3.8711652e-02 3.3153407e-02 -1.7732304e-03 
4.0082641e-02 3.4382217e-02 -1.6126903e-03 
3.8784113e-02 3.2950148e-02 -3.7957070e-04 
3.8594026e-02 3.3135314e-02 -2.2671504e-03 
3.8761333e-02 3.3090007e-02 -1.2332905e-03 
3.8782865e-02 3.2807484e-02 3.5810209e-04 
3.9609998e-02 3.3855129e-02 -1.1230098e-03 
3.8866188e-02 3.3364668e-02 -2.1881061e-03 
3.9428122e-02 3.3825081e-02 -1.8750356e-03 
3.8442813e-02 3.2556206e-02 4.5310015e-05 
3.8567584e-02 3.2632563e-02 2.4059915e-04 
3.8432121e-02 3.2759238e-02 -1.0622615e-03 
3.9696157e-02 3.4139853e-02 -2.2189238e-03 
3.8169097e-02 3.2691631e-02 -1.9649251e-03 
3.8100090e-02 3.2543153e-02 -1.5058668e-03 
3.7944380e-02 3.2228522e-02 -6.0641934e-04 
3.8244888e-02 3.2832433e-02 -2.3768533e-03 
3.8068861e-02 3.2324772e-02 -5.3215935e-04 
3.8646765e-02 3.3118814e-02 -1.9626620e-03 
3.9124168e-02 3.3560429e-02 -1.9437257e-03 
3.9151587e-02 3.3526566e-02 -1.6189655e-03 
3.7793908e-02 3.2144628e-02 -8.9590304e-04 
3.7750084e-02 3.1956270e-02 -1.1739456e-04 
3.7879679e-02 3.2021906e-02 1.5322551e-04 
3.7942462e-02 3.2049395e-02 3.1349348e-04 
3.7639324e-02 3.1992160e-02 -8.2823361e-04 
3.7692267e-02 3.2194342e-02 -1.6537092e-03 
3.7672568e-02 3.2295190e-02 -2.2895138e-03 
3.7514497e-02 3.2055493e-02 -1.7608845e-03 
3.7469443e-02 3.1935629e-02 -1.3354445e-03 
3.8145054e-02 3.2268535e-02 1.4793195e-04 
3.8597330e-02 3.3064030e-02 -1.8866981e-03 
3.7944522e-02 3.2522034e-02 -2.2080867e-03 
3.7738323e-02 3.2184839e-02 -1.3953797e-03 
3.8568709e-02 3.2883991e-02 -1.0454414e-03 
3.7313819e-02 3.1584933e-02 -2.4286252e-04 
3.7564453e-02 3.1835906e-02 -3.7383565e-04 
3.8765416e-02 3.3283602e-02 -2.2244037e-03 
3.7239496e-02 3.1673208e-02 -1.0736311e-03 
3.7193011e-02 3.1415369e-02 6.2988220e-05 
3.7315726e-02 3.1489298e-02 2.5842711e-04 
3.7326768e-02 3.1995077e-02 -2.3956883e-03 
3.6959141e-02 3.1427085e-02 -1.1044698e-03 
3.7023552e-02 3.1651430e-02 -2.0004015e-03 
3.6865685e-02 3.1422149e-02 -1.5323133e-03 
3.8195867e-02 3.2708518e-02 -1.9492967e-03 
3.8223166e-02 3.2675169e-02 -1.6244873e-03 
3.6984865e-02 3.1498823e-02 -1.3897435e-03 
3.7152905e-02 3.1319022e-02 3.8587811e-04 
3.7139513e-02 3.1507112e-02 -6.8396027e-04 
3.6780179e-02 3.1177890e-02 -6.5895624e-04 
3.6757309e-02 3.1462602e-02 -2.3074402e-03 
3.7529688e-02 3.1829238e-02 -4.8895041e-04 
3.7574440e-02 3.2126822e-02 -1.8933730e-03 
3.6910322e-02 3.1589128e-02 -2.2689430e-03 
3.6632668e-02 3.0886976e-02 1.6990994e-04 
3.7644282e-02 3.2039780e-02 -1.0491733e-03 
3.6753260e-02 3.0963073e-02 3.4770652e-04 
3.6365494e-02 3.0791081e-02 -5.9551868e-04 
3.6696970e-02 3.1033032e-02 -2.9633989e-04 
3.6347479e-02 3.1004764e-02 -1.8253400e-03 
3.7838664e-02 3.2434482e-02 -2.2277075e-03 
3.6223650e-02 3.0791834e-02 -1.2816937e-03 
3.6414947e-02 3.0988054e-02 -1.4255675e-03 
3.6642529e-02 3.1022621e-02 -5.0459668e-04 
3.6412876e-02 3.1164607e-02 -2.4134400e-03 
3.6777567e-02 3.1265993e-02 -1.1608317e-03 
3.6165562e-02 3.0652825e-02 -8.3252089e-04 
3.6406592e-02 3.0644245e-02 3.7858129e-04 
3.6755811e-02 3.1400234e-02 -2.0167110e-03 
3.7272427e-02 3.1865206e-02 -1.9525466e-03 
3.6561415e-02 3.0823939e-02 1.9176802e-04 
3.7299491e-02 3.1832092e-02 -1.6283322e-03 
3.6324747e-02 3.0912416e-02 -1.4803768e-03 
3.5950210e-02 3.0287379e-02 7.8505240e-05 
3.6072467e-02 3.0360535e-02 2.7566720e-04 
3.5849176e-02 3.0640243e-02 -2.3224440e-03 
3.6012616e-02 3.0597920e-02 -1.3059763e-03 
3.5615031e-02 3.0210994e-02 -1.1150162e-03 
3.5706799e-02 3.0457759e-02 -2.0178368e-03 
3.5640422e-02 3.0314399e-02 -1.5570851e-03 
3.6858600e-02 3.1404536e-02 -1.4926420e-03 
3.6114413e-02 3.0857736e-02 -2.2383204e-03 
3.6744401e-02 3.1371623e-02 -1.8971242e-03 
3.5921901e-02 3.0323293e-02 -2.5167744e-04 
3.6725007e-02 3.1204276e-02 -1.0521243e-03 
3.5509296e-02 3.0039243e-02 -7.2015903e-04 
3.6917631e-02 3.1592883e-02 -2.2272307e-03 
3.5469800e-02 2.9875755e-02 -3.9571081e-05 
3.5639096e-02 2.9947763e-02 4.0740456e-04 
3.5507545e-02 3.0344807e-02 -2.4260851e-03 
3.5423242e-02 2.9910367e-02 -4.5334606e-04 
3.5395198e-02 2.9766427e-02 1.8604049e-04 
3.5002869e-02 2.9693244e-02 -1.3054376e-03 
3.6355779e-02 3.1030808e-02 -1.9515589e-03 
3.5028365e-02 2.9814776e-02 -1.8492456e-03 
3.6382496e-02 3.0998316e-02 -1.6289518e-03 
3.5602968e-02 3.0166710e-02 -9.6905290e-04 
3.4900635e-02 2.9466672e-02 -5.8384862e-04 
3.5140395e-02 2.9784614e-02 -1.1556081e-03 
3.4947872e-02 2.9826242e-02 -2.3379945e-03 
3.4908172e-02 2.9528828e-02 -8.9015963e-04 
3.5102218e-02 2.9581016e-02 -2.3170593e-04 
3.5136145e-02 2.9805627e-02 -1.2945988e-03 
3.5743117e-02 3.0462185e-02 -1.8998355e-03 
3.5097677e-02 2.9947458e-02 -2.2932841e-03 
3.4718156e-02 2.9174848e-02 9.3934359e-05 
3.4839217e-02 2.9247345e-02 2.9236954e-04 
3.5760790e-02 3.0346954e-02 -1.1491195e-03 
3.6001664e-02 3.0758521e-02 -2.2237035e-03 
3.5087265e-02 2.9485216e-02 2.3591945e-04 
3.4489244e-02 2.9362492e-02 -2.0407790e-03 
3.4423564e-02 2.9222200e-02 -1.5794622e-03 
3.4749970e-02 2.9148007e-02 4.0453649e-04 
3.4319419e-02 2.9045871e-02 -1.1251381e-03 
3.4608360e-02 2.9534619e-02 -2.4382824e-03 
3.4321036e-02 2.8948192e-02 -6.0624990e-04 
3.5198685e-02 2.9719552e-02 -4.9008714e-04 
3.4339819e-02 2.9061239e-02 -1.1325727e-03 
3.4945175e-02 2.9761827e-02 -2.0363827e-03 
3.5443030e-02 3.0201489e-02 -1.9472456e-03 
3.5468977e-02 3.0169379e-02 -1.6265545e-03 
3.4167968e-02 2.8703401e-02 -2.5530970e-05 
3.4368556e-02 2.8920550e-02 -2.2390507e-04 
3.4356251e-02 2.9125091e-02 -1.4151848e-03 
3.4166403e-02 2.8660377e-02 2.0200785e-04 
3.4283858e-02 2.8733587e-02 3.8429527e-04 
3.4050811e-02 2.9022302e-02 -2.3519206e-03 
3.4334302e-02 2.8894123e-02 -2.5066893e-04 
3.4615725e-02 2.9222393e-02 -6.4958271e-04 
3.4091953e-02 2.8693713e-02 -3.4086109e-04 
3.3850182e-02 2.8751181e-02 -1.8301059e-03 
3.4314781e-02 2.9234527e-02 -2.2577224e-03 
3.3791572e-02 2.8608490e-02 -1.3282244e-03 
3.4230411e-02 2.8678142e-02 4.3037452e-04 
3.4922857e-02 2.9720657e-02 -1.8958529e-03 
3.5011306e-02 2.9667852e-02 -1.1320428e-03 
3.4610551e-02 2.9310700e-02 -1.1733093e-03 
3.3934988e-02 2.8493145e-02 -8.1200578e-06 
3.3844315e-02 2.8582420e-02 -9.5037883e-04 
3.3707488e-02 2.8457876e-02 -9.2690403e-04 
3.3752538e-02 2.8652530e-02 -1.7916609e-03 
3.5090603e-02 2.9930577e-02 -2.2162553e-03 
3.3538841e-02 2.8243667e-02 -5.7438714e-04 
3.3714924e-02 2.8731639e-02 -2.4473029e-03 
3.3494689e-02 2.8077150e-02 1.0879838e-04 
3.3846986e-02 2.8637242e-02 -1.2551196e-03 
3.3614736e-02 2.8148202e-02 3.0852383e-04 
3.3216584e-02 2.8142352e-02 -1.5997848e-03 
3.3273563e-02 2.8280618e-02 -2.0940281e-03 
3.4536123e-02 2.9380269e-02 -1.9386902e-03 
3.4561757e-02 2.9349109e-02 -1.6211390e-03 
3.3529140e-02 2.8161721e-02 -1.7977305e-04 
3.3068795e-02 2.7927294e-02 -1.1349495e-03 
3.3458412e-02 2.7989427e-02 4.2391749e-04 
3.3716001e-02 2.8248990e-02 2.7452916e-04 
3.3375464e-02 2.8286243e-02 -1.6495093e-03 
3.3317100e-02 2.7984319e-02 -2.4893301e-04 
3.3163570e-02 2.8225819e-02 -2.3587106e-03 
3.3040848e-02 2.7836887e-02 -7.9089869e-04 
3.3099499e-02 2.8021846e-02 -1.5360017e-03 
3.3310510e-02 2.8341120e-02 -2.3071114e-03 
3.3932317e-02 2.8826039e-02 -1.8904469e-03 
3.3999354e-02 2.8742680e-02 -1.0459848e-03 
3.2822371e-02 2.7508868e-02 -6.1473933e-05 
3.2947075e-02 2.7569197e-02 2.1733256e-04 
3.3064548e-02 2.7641362e-02 4.0159121e-04 
3.4185469e-02 2.9112436e-02 -2.2063579e-03 
3.3284906e-02 2.8151924e-02 -1.3622704e-03 
3.2646887e-02 2.7677270e-02 -1.8484242e-03 
3.2589644e-02 2.7537499e-02 -1.3490429e-03 
3.2684490e-02 2.7768658e-02 -2.1863459e-03 
3.2829143e-02 2.7937964e-02 -2.4516757e-03 
3.2977212e-02 2.7858103e-02 -1.2503557e-03 
3.2917202e-02 2.7502188e-02 4.5139319e-04 
3.3396751e-02 2.8104605e-02 -4.8531697e-04 
3.3160616e-02 2.8157838e-02 -2.0403429e-03 
3.2545269e-02 2.7505947e-02 -1.4149600e-03 
3.2702535e-02 2.7386602e-02 2.8294142e-05 
3.2541078e-02 2.7345393e-02 -5.4273487e-04 
3.3635199e-02 2.8568560e-02 -1.9284765e-03 
3.2269683e-02 2.7110627e-02 -5.6620868e-04 
3.3660445e-02 2.8538138e-02 -1.6144243e-03 
3.2484498e-02 2.7359942e-02 -9.0914685e-04 
3.2280657e-02 2.6993388e-02 1.2346062e-04 
3.2280955e-02 2.7437279e-02 -2.3661929e-03 
3.2400094e-02 2.7063187e-02 3.2457634e-04 
3.2541294e-02 2.7644033e-02 -2.2629222e-03 
3.2082994e-02 2.7212748e-02 -2.0740507e-03 
3.2019176e-02 2.7077323e-02 -1.6182984e-03 
3.3126481e-02 2.8102133e-02 -1.8803048e-03 
3.2320049e-02 2.7258176e-02 -1.1702165e-03 
3.3101987e-02 2.7938211e-02 -1.0410338e-03 
3.2283291e-02 2.7047599e-02 -1.5787181e-04 
3.1859722e-02 2.6851337e-02 -1.1418754e-03 
3.2215975e-02 2.6880793e-02 4.4287441e-04 
3.2435209e-02 2.7103204e-02 3.1215805e-04 
3.2095477e-02 2.6891815e-02 -2.2406680e-04 
3.2744162e-02 2.7678523e-02 -1.4045681e-03 
3.3286523e-02 2.8302375e-02 -2.1932167e-03 
3.1839732e-02 2.6771124e-02 -8.0941676e-04 
3.2240141e-02 2.7189597e-02 -1.1867466e-03 
3.1950593e-02 2.7153250e-02 -2.4545807e-03 
3.1769618e-02 2.6790354e-02 -1.2696087e-03 
3.1614259e-02 2.6433853e-02 -4.9581471e-05 
3.1738058e-02 2.6493371e-02 2.3202086e-04 
3.1854544e-02 2.6564153e-02 4.1888491e-04 
3.2740314e-02 2.7764481e-02 -1.9147344e-03 
3.1398136e-02 2.6481532e-02 -1.3669624e-03 
3.2765016e-02 2.7734913e-02 -1.6049915e-03 
3.1432431e-02 2.6604393e-02 -1.8985014e-03 
3.1619605e-02 2.6606334e-02 -9.9325087e-04 
3.1513840e-02 2.6426652e-02 -5.0487102e-04 
3.1685494e-02 2.6406756e-02 4.6862237e-04 
3.1406496e-02 2.6660010e-02 -2.3708672e-03 
3.1564564e-02 2.6784442e-02 -2.3191255e-03 
3.1084755e-02 2.6058709e-02 -5.5753265e-04 
3.1887401e-02 2.6688550e-02 -9.0538488e-05 
3.2146454e-02 2.7224140e-02 -1.8688224e-03 
3.1150851e-02 2.6232446e-02 -1.2215439e-03 
3.1277541e-02 2.6134020e-02 -3.2001841e-05 
3.1077622e-02 2.5926106e-02 1.3650049e-04 
3.1194737e-02 2.5993742e-02 3.4111447e-04 
3.2140154e-02 2.7094271e-02 -1.1138667e-03 
3.2393221e-02 2.7500670e-02 -2.1769574e-03 
3.0895401e-02 2.6158845e-02 -2.0832398e-03 
3.1042930e-02 2.6169535e-02 -1.4145495e-03 
3.0832596e-02 2.6026666e-02 -1.6316083e-03 
3.1078275e-02 2.6379192e-02 -2.4552071e-03 
3.1402074e-02 2.6494907e-02 -1.4816505e-03 
3.1233016e-02 2.6330419e-02 -1.3938524e-03 
3.0688800e-02 2.5815656e-02 -1.1504636e-03 
3.1405296e-02 2.6591083e-02 -2.0342031e-03 
3.1233884e-02 2.6033189e-02 3.4628104e-04 
3.1619269e-02 2.6520537e-02 -4.7261216e-04 
3.1054607e-02 2.5966633e-02 -1.9973802e-04 
3.0791499e-02 2.5762161e-02 -3.5460031e-04 
3.0659860e-02 2.5728583e-02 -8.1928418e-04 
3.1850990e-02 2.6969409e-02 -1.8975248e-03 
3.1874865e-02 2.6940620e-02 -1.5920692e-03 
3.0792115e-02 2.5626170e-02 4.1856474e-04 
3.0856702e-02 2.6152635e-02 -2.3057300e-03 
3.0537771e-02 2.5889207e-02 -2.3719205e-03 
3.0416090e-02 2.5373977e-02 -3.6561261e-05 
3.0538026e-02 2.5431499e-02 2.4618336e-04 
3.1354435e-02 2.6518868e-02 -1.8521176e-03 
3.0272141e-02 2.5571300e-02 -1.8717472e-03 
3.0549986e-02 2.5537133e-02 -2.9029450e-04 
3.0216498e-02 2.5438670e-02 -1.3844740e-03 
3.1324733e-02 2.6355762e-02 -1.0232247e-03 
3.0531457e-02 2.5385773e-02 4.8481274e-04 
3.0970216e-02 2.6088700e-02 -1.3256515e-03 
3.1504266e-02 2.6704699e-02 -2.1565272e-03 
2.9975170e-02 2.5078420e-02 -5.4960995e-04 
3.0145753e-02 2.5400210e-02 -1.5516988e-03 
3.0211814e-02 2.5609856e-02 -2.4512089e-03 
3.0454475e-02 2.5597731e-02 -1.1393549e-03 
2.9929148e-02 2.5075238e-02 -7.6979731e-04 
2.9884588e-02 2.4873571e-02 1.4898542e-04 
3.0000705e-02 2.4939530e-02 3.5674885e-04 
3.0057549e-02 2.5055075e-02 -1.0541781e-05 
3.0965853e-02 2.6178241e-02 -1.8760531e-03 
2.9656528e-02 2.4990715e-02 -1.6425386e-03 
2.9706279e-02 2.5109874e-02 -2.0955531e-03 
2.9606111e-02 2.4855925e-02 -1.1207103e-03 
3.0988747e-02 2.6150266e-02 -1.5759682e-03 
3.0373108e-02 2.5547642e-02 -1.2558297e-03 
2.9675573e-02 2.5125943e-02 -2.3679330e-03 
3.0108532e-02 2.5037283e-02 3.7392045e-04 
2.9898105e-02 2.5165329e-02 -1.4743191e-03 
2.9929318e-02 2.5321921e-02 -2.2507138e-03 
2.9661834e-02 2.4946461e-02 -1.4007722e-03 
2.9567916e-02 2.4688063e-02 -3.7772246e-04 
3.0380674e-02 2.5650868e-02 -1.8327021e-03 
2.9407931e-02 2.4735656e-02 -1.4581305e-03 
2.9366128e-02 2.4623215e-02 -1.0127848e-03 
2.9507341e-02 2.4493193e-02 4.4381726e-04 
2.9228598e-02 2.4329482e-02 -2.4670120e-05 
2.9350191e-02 2.4385300e-02 2.6097859e-04 
2.9546205e-02 2.4661962e-02 -3.3210529e-04 
3.0620648e-02 2.5915867e-02 -2.1321424e-03 
2.9165698e-02 2.4650738e-02 -2.1945208e-03 
2.9352915e-02 2.4850864e-02 -2.4437080e-03 
2.9801406e-02 2.4822965e-02 6.3482010e-05 
2.9097831e-02 2.4537386e-02 -1.8679434e-03 
2.9047953e-02 2.4413930e-02 -1.4004497e-03 
2.9447766e-02 2.4432588e-02 5.0044956e-04 
2.9975949e-02 2.5083428e-02 -5.4484612e-04 
2.8934147e-02 2.4164079e-02 -5.4239685e-04 
2.9205462e-02 2.4345495e-02 -2.2937049e-04 
3.0003000e-02 2.5192752e-02 -1.0524772e-03 
3.0086014e-02 2.5395000e-02 -1.8505942e-03 
2.8938623e-02 2.4338970e-02 -1.5460597e-03 
3.0108450e-02 2.5368031e-02 -1.5566052e-03 
2.9439643e-02 2.4843283e-02 -1.9826230e-03 
2.8821519e-02 2.4375429e-02 -2.3632790e-03 
2.9075099e-02 2.4567395e-02 -2.2399074e-03 
2.8865989e-02 2.4293272e-02 -1.6640786e-03 
2.8702764e-02 2.3836087e-02 1.6297698e-04 
2.8817531e-02 2.3901535e-02 3.7126298e-04 
2.8890116e-02 2.3946937e-02 4.8533903e-04 
2.8620061e-02 2.3917768e-02 -7.1561389e-04 
2.8550554e-02 2.4094101e-02 -2.0852168e-03 
2.9048957e-02 2.4102582e-02 4.0260245e-04 
2.8450184e-02 2.3844082e-02 -1.1265640e-03 
2.8484926e-02 2.3963120e-02 -1.6438881e-03 
2.8742814e-02 2.4079207e-02 -1.0382567e-03 
2.8866982e-02 2.4002578e-02 4.5577046e-05 
2.9354313e-02 2.4652248e-02 -1.2609388e-03 
2.9104723e-02 2.4340669e-02 -7.0792163e-04 
2.9505625e-02 2.4874469e-02 -1.8071035e-03 
2.8890297e-02 2.4260154e-02 -1.3549941e-03 
2.8605642e-02 2.3818223e-02 -2.1348748e-04 
2.9743565e-02 2.5136448e-02 -2.1040225e-03 
2.8372394e-02 2.3775138e-02 -1.1445833e-03 
2.8467609e-02 2.4070457e-02 -2.4298299e-03 
2.8295403e-02 2.3820322e-02 -1.8102659e-03 
2.8429165e-02 2.3540681e-02 5.1505247e-04 
2.7956285e-02 2.3310790e-02 -5.3608936e-04 
2.8052071e-02 2.3300944e-02 -1.4627355e-05 
2.8172607e-02 2.3355275e-02 2.7497803e-04 
2.8285267e-02 2.3422124e-02 4.6642558e-04 
2.8019663e-02 2.3457427e-02 -1.0801828e-03 
2.7934309e-02 2.3520960e-02 -1.8801331e-03 
2.7881000e-02 2.3391536e-02 -1.3849552e-03 
2.9169049e-02 2.4582889e-02 -1.8142188e-03 
2.8540861e-02 2.3693245e-02 2.1595613e-04 
2.7974555e-02 2.3631768e-02 -2.3520701e-03 
2.8716430e-02 2.3947058e-02 -3.5426268e-04 
2.9142605e-02 2.4528874e-02 -1.6142895e-03 
2.8106021e-02 2.3569057e-02 -1.3206903e-03 
2.8998423e-02 2.4329320e-02 -1.1718145e-03 
2.8337836e-02 2.3890559e-02 -2.0731825e-03 
2.8783901e-02 2.4063341e-02 -6.9138070e-04 
2.8126759e-02 2.3743981e-02 -2.2844202e-03 
2.8464301e-02 2.3672232e-02 -3.5993289e-05 
2.8591977e-02 2.4072545e-02 -1.8205371e-03 
2.7811643e-02 2.3146996e-02 -3.3590250e-04 
2.7921855e-02 2.3223398e-02 -2.1812636e-04 
2.8083967e-02 2.3335719e-02 -4.3477517e-05 
2.8692864e-02 2.4154091e-02 -1.7689804e-03 
2.8308610e-02 2.3845831e-02 -1.9496811e-03 
2.8073145e-02 2.3469707e-02 -9.0046803e-04 
2.8874148e-02 2.4366025e-02 -2.0711129e-03 
2.7530992e-02 2.2815220e-02 1.7383670e-04 
2.7645767e-02 2.2879537e-02 3.8428925e-04 
2.7438564e-02 2.3120303e-02 -2.0759318e-03 
2.7340952e-02 2.2964600e-02 -1.6408307e-03 
2.7275393e-02 2.2823326e-02 -1.1396752e-03 
2.7789326e-02 2.3006311e-02 4.0342237e-04 
2.7287072e-02 2.2846106e-02 -1.2413523e-03 
2.7216686e-02 2.2715472e-02 -8.2635914e-04 
2.7431408e-02 2.3159103e-02 -2.4015631e-03 
2.7035292e-02 2.2508435e-02 -5.3052802e-04 
2.7468730e-02 2.2704469e-02 5.2776834e-04 
2.7134676e-02 2.2896862e-02 -2.3429224e-03 
2.7196009e-02 2.2609681e-02 -3.2448804e-04 
2.7597483e-02 2.2896979e-02 9.0009693e-05 
2.7341707e-02 2.3034876e-02 -2.1419825e-03 
2.8136211e-02 2.3611665e-02 -1.3971741e-03 
2.7681464e-02 2.3015918e-02 -1.8508753e-04 
2.8075444e-02 2.3614163e-02 -1.7575038e-03 
2.6887443e-02 2.2290483e-02 -1.5808719e-05 
2.6805181e-02 2.2452649e-02 -1.3703475e-03 
2.7005585e-02 2.2340665e-02 2.8891466e-04 
2.6842616e-02 2.2569090e-02 -1.8796120e-03 
2.7469760e-02 2.3118561e-02 -1.9845504e-03 
2.7299136e-02 2.2707777e-02 -3.6033356e-04 
2.7758798e-02 2.3134697e-02 -4.8850110e-04 
2.7587807e-02 2.3200765e-02 -1.8512333e-03 
2.7823647e-02 2.3251398e-02 -8.4797194e-04 
2.7110491e-02 2.2704214e-02 -1.3411670e-03 
2.7696824e-02 2.3280416e-02 -1.7536494e-03 
2.6973259e-02 2.2461893e-02 -5.8892503e-04 
2.7236728e-02 2.2773940e-02 -1.0954554e-03 
2.8012063e-02 2.3604883e-02 -2.0339214e-03 
2.6628383e-02 2.2313569e-02 -1.4875854e-03 
2.6490794e-02 2.2082377e-02 -8.0535858e-04 
2.7018333e-02 2.2590479e-02 -1.1375478e-03 
2.6176412e-02 2.1764945e-02 -5.2366266e-04 
2.6176993e-02 2.1879010e-02 -1.1838480e-03 
2.6321212e-02 2.1770591e-02 1.6103225e-04 
2.6203854e-02 2.1974109e-02 -1.6208893e-03 
2.6451556e-02 2.1841271e-02 4.1668856e-04 
2.6240144e-02 2.2069588e-02 -2.0181974e-03 
2.6571022e-02 2.1926455e-02 5.3982460e-04 
2.6303027e-02 2.2170519e-02 -2.3246631e-03 
2.6405474e-02 2.2264078e-02 -2.3841697e-03 
2.6670098e-02 2.2028340e-02 4.5914060e-04 
2.6521971e-02 2.2338891e-02 -2.2481056e-03 
2.6753956e-02 2.2140199e-02 2.3969435e-04 
2.6644522e-02 2.2405373e-02 -2.0150787e-03 
2.6833834e-02 2.2255514e-02 -3.4451896e-05 
2.6760135e-02 2.2485554e-02 -1.8936486e-03 
2.6910100e-02 2.2369582e-02 -3.1239013e-04 
2.6103945e-02 2.1814451e-02 -1.2086359e-03 
2.6872078e-02 2.2563012e-02 -1.7599018e-03 
2.6983675e-02 2.2486689e-02 -6.3413772e-04 
2.6979024e-02 2.2647887e-02 -1.6998427e-03 
2.7048485e-02 2.2604201e-02 -1.0173783e-03 
2.6321717e-02 2.1899501e-02 -5.9427571e-04 
2.6064053e-02 2.1702934e-02 -7.5587974e-04 
2.7077040e-02 2.2741051e-02 -1.7332394e-03 
2.7108291e-02 2.2725591e-02 -1.4563345e-03 
2.5852224e-02 2.1696091e-02 -1.8087095e-03 
2.7158100e-02 2.2854663e-02 -1.9936718e-03 
2.6093524e-02 2.1814991e-02 -1.2993903e-03 
2.5576355e-02 2.1388482e-02 -1.3520665e-03 
2.5620040e-02 2.1508481e-02 -1.8590015e-03 
2.6197605e-02 2.1868071e-02 -1.0653634e-03 
2.5914356e-02 2.1513589e-02 -3.8662236e-04 
2.5689039e-02 2.1211062e-02 2.5024326e-04 
2.5787039e-02 2.1263065e-02 4.5460221e-04 
2.5504889e-02 2.1261862e-02 -9.8307966e-04 
2.5720533e-02 2.1658735e-02 -2.3240498e-03 
2.5345905e-02 2.1048598e-02 -5.1926164e-04 
2.5834881e-02 2.1714687e-02 -2.0865377e-03 
2.5473019e-02 2.1450326e-02 -2.3029216e-03 
2.5919460e-02 2.1396685e-02 3.7241718e-04 
2.5723606e-02 2.1194372e-02 5.5035629e-04 
2.5490873e-02 2.1148423e-02 -3.8832135e-04 
2.5996741e-02 2.1509187e-02 1.1560597e-04 
2.5939064e-02 2.1778610e-02 -1.9233261e-03 
2.6070721e-02 2.1618420e-02 -1.5366996e-04 
2.6048034e-02 2.1853570e-02 -1.7898893e-03 
2.6143674e-02 2.1728603e-02 -4.3999657e-04 
2.6161348e-02 2.1935303e-02 -1.6850887e-03 
2.6215609e-02 2.1846410e-02 -7.8803499e-04 
2.6266554e-02 2.2025030e-02 -1.6567154e-03 
2.5078529e-02 2.0998683e-02 -1.5897922e-03 
2.6281290e-02 2.1966176e-02 -1.1879234e-03 
2.5820354e-02 2.1517942e-02 -9.0022985e-04 
2.4987256e-02 2.0842141e-02 -1.1117387e-03 
2.5064431e-02 2.1054918e-02 -2.0222710e-03 
2.5211873e-02 2.1067172e-02 -1.3533297e-03 
2.5065737e-02 2.0697687e-02 1.1569057e-04 
2.5165787e-02 2.0744905e-02 3.5555047e-04 
2.5260434e-02 2.0797536e-02 5.3173368e-04 
2.5219997e-02 2.0881904e-02 -1.8526803e-04 
2.5347002e-02 2.0939358e-02 1.4708994e-04 
2.5194515e-02 2.1069368e-02 -1.4682683e-03 
2.4936659e-02 2.0741792e-02 -7.9155533e-04 
2.6307490e-02 2.2108288e-02 -1.9485491e-03 
2.4973072e-02 2.0838307e-02 -1.1950838e-03 
2.4956740e-02 2.0674285e-02 -2.9328885e-04 
2.5239708e-02 2.1046842e-02 -1.0931608e-03 
2.4518533e-02 2.0474089e-02 -1.3234605e-03 
2.4482168e-02 2.0307200e-02 -5.1459309e-04 
2.4647888e-02 2.0733666e-02 -2.2781349e-03 
2.5243483e-02 2.1162922e-02 -1.8267011e-03 
2.5814572e-02 2.1598730e-02 -1.4123062e-03 
2.4538953e-02 2.0571182e-02 -1.8216870e-03 
2.4883091e-02 2.0472983e-02 5.5832940e-04 
2.4875185e-02 2.0906916e-02 -2.1850804e-03 
2.4906216e-02 2.0658497e-02 -4.5252155e-04 
2.4976958e-02 2.0952137e-02 -1.9498600e-03 
2.4548085e-02 2.0232126e-02 2.5233859e-04 
2.4644852e-02 2.0282457e-02 4.6014215e-04 
2.4517886e-02 2.0461986e-02 -1.2871551e-03 
2.4993857e-02 2.0623475e-02 2.6264615e-04 
2.5065033e-02 2.0728247e-02 3.3400825e-06 
2.5180414e-02 2.1085778e-02 -1.6780935e-03 
2.4610898e-02 2.0389711e-02 -3.6692992e-04 
2.5134465e-02 2.0831011e-02 -2.6625424e-04 
2.5292352e-02 2.1174831e-02 -1.6121430e-03 
2.4352875e-02 2.0171797e-02 -3.7824333e-04 
2.5283379e-02 2.1066455e-02 -9.3808380e-04 
2.4341350e-02 2.0471802e-02 -2.3149725e-03 
2.4556233e-02 2.0209827e-02 4.8786518e-04 
2.5467098e-02 2.1375077e-02 -1.8985600e-03 
2.3943748e-02 1.9940998e-02 -1.0690630e-03 
2.3970107e-02 2.0040629e-02 -1.5440100e-03 
2.3986610e-02 2.0118076e-02 -1.9523771e-03 
2.4204144e-02 2.0202093e-02 -1.3571982e-03 
2.4490438e-02 2.0376286e-02 -9.2889694e-04 
2.3929210e-02 1.9727012e-02 1.1053211e-04 
2.4030676e-02 1.9773129e-02 3.5965128e-04 
2.4063725e-02 1.9860744e-02 1.5020185e-05 
2.3851801e-02 1.9803435e-02 -7.3278847e-04 
2.4770049e-02 2.0557739e-02 -5.0941057e-04 
2.3873078e-02 1.9886613e-02 -1.1352232e-03 
2.4956837e-02 2.0887805e-02 -1.6109770e-03 
2.3828596e-02 2.0027135e-02 -2.2524784e-03 
2.4975015e-02 2.0868065e-02 -1.3725496e-03 
2.4050055e-02 1.9761082e-02 5.6763401e-04 
2.3804029e-02 1.9875735e-02 -1.4406077e-03 
2.4078825e-02 2.0202721e-02 -2.0675254e-03 
2.3579266e-02 1.9534690e-02 -5.0749932e-04 
2.3604233e-02 1.9532045e-02 -3.7270953e-04 
2.3870988e-02 1.9798178e-02 -6.1689975e-04 
2.3401367e-02 1.9515112e-02 -1.2994608e-03 
2.3422332e-02 1.9600475e-02 -1.7233788e-03 
2.3460805e-02 1.9689988e-02 -2.0919889e-03 
2.4408396e-02 2.0407986e-02 -1.5701980e-03 
2.4078770e-02 2.0153316e-02 -1.7739307e-03 
2.3418805e-02 1.9268677e-02 2.5488849e-04 
2.3526786e-02 1.9768087e-02 -2.2794730e-03 
2.3515388e-02 1.9319432e-02 4.6288437e-04 
2.3568291e-02 1.9508559e-02 -4.1662765e-04 
2.3727274e-02 1.9499036e-02 5.0211803e-04 
2.4631202e-02 2.0646246e-02 -1.8450523e-03 
2.3951447e-02 1.9803181e-02 -1.5247385e-04 
2.3342112e-02 1.9441638e-02 -1.2071051e-03 
2.3128659e-02 1.9183721e-02 -7.1371021e-04 
2.3147060e-02 1.9263281e-02 -1.1092385e-03 
2.3660615e-02 1.9494522e-02 2.1569456e-04 
2.2848589e-02 1.9001301e-02 -1.0350860e-03 
2.3015896e-02 1.9327801e-02 -2.2237864e-03 
2.4126960e-02 2.0167826e-02 -1.5580930e-03 
2.2859806e-02 1.9085040e-02 -1.4939962e-03 
2.4144473e-02 2.0149494e-02 -1.3303440e-03 
2.2889733e-02 1.9172251e-02 -1.8943959e-03 
2.3226142e-02 1.9058393e-02 5.8196689e-04 
2.3261975e-02 1.9495986e-02 -2.0303908e-03 
2.2807684e-02 1.8773848e-02 1.1004581e-04 
2.2909623e-02 1.8819673e-02 3.6129719e-04 
2.2638755e-02 1.8734965e-02 -5.0136185e-04 
2.3145009e-02 1.9162580e-02 -4.9310573e-04 
2.2770740e-02 1.8820969e-02 -3.6314945e-04 
2.2636510e-02 1.8859727e-02 -1.2990414e-03 
2.3630729e-02 1.9635400e-02 -8.3566958e-04 
2.2581795e-02 1.8747389e-02 -8.8584638e-04 
2.3154063e-02 1.9192928e-02 -6.3163019e-04 
2.3458956e-02 1.9587941e-02 -1.5309674e-03 
2.2713929e-02 1.9067436e-02 -2.2450709e-03 
2.2745647e-02 1.8806372e-02 -3.9878380e-04 
2.2905082e-02 1.8801874e-02 5.1175378e-04 
2.3804137e-02 1.9927638e-02 -1.7884498e-03 
2.2364080e-02 1.8623089e-02 -1.2285525e-03 
2.2442495e-02 1.8812014e-02 -2.0242168e-03 
2.2444511e-02 1.8518832e-02 -2.0467227e-04 
2.2326976e-02 1.8661272e-02 -1.6757436e-03 
2.2338975e-02 1.8356511e-02 2.4105438e-04 
2.2238484e-02 1.8321725e-02 -5.9577684e-05 
2.3088815e-02 1.9099722e-02 -3.4793292e-04 
2.2384739e-02 1.8362459e-02 4.5193508e-04 
2.2243153e-02 1.8535700e-02 -1.3669353e-03 
2.2212077e-02 1.8637672e-02 -2.1897801e-03 
2.3303386e-02 1.9455159e-02 -1.5007628e-03 
2.3320079e-02 1.9438136e-02 -1.2843588e-03 
2.2406556e-02 1.8363178e-02 5.9020781e-04 
2.2452151e-02 1.8800527e-02 -1.9860009e-03 
2.2583172e-02 1.8571438e-02 2.6582921e-04 
2.1987222e-02 1.8262096e-02 -1.0033628e-03 
2.1971747e-02 1.8121056e-02 -2.1094865e-04 
2.1782016e-02 1.8094447e-02 -1.0108619e-03 
2.1768486e-02 1.8154096e-02 -1.4515390e-03 
2.2764755e-02 1.8986022e-02 -1.4623653e-03 
2.1793664e-02 1.8245829e-02 -1.9181841e-03 
2.1963596e-02 1.8149590e-02 -4.3547701e-04 
2.1754986e-02 1.7898172e-02 3.2376120e-05 
2.2811221e-02 1.8931882e-02 -8.0277625e-04 
2.1654977e-02 1.7902026e-02 -4.9437088e-04 
2.2345949e-02 1.8660776e-02 -1.6960001e-03 
2.2085944e-02 1.8348752e-02 -1.0622881e-03 
2.1914262e-02 1.8381238e-02 -2.2051409e-03 
2.2411041e-02 1.8470898e-02 -7.1796230e-06 
2.1807063e-02 1.7892348e-02 3.3622610e-04 
2.2086490e-02 1.8108131e-02 5.2278663e-04 
2.2982663e-02 1.9217690e-02 -1.7290517e-03 
2.1607151e-02 1.7861092e-02 -4.9644063e-04 
2.2130629e-02 1.8351672e-02 -8.2371815e-04 
2.1849753e-02 1.7900029e-02 5.3151522e-04 
2.1692535e-02 1.8060142e-02 -1.3274308e-03 
2.1517010e-02 1.7848039e-02 -8.8863831e-04 
2.1526102e-02 1.7910516e-02 -1.2457237e-03 
2.1460332e-02 1.7661398e-02 -3.5591223e-05 
2.1713156e-02 1.8174104e-02 -1.9942189e-03 
2.1315278e-02 1.7555756e-02 -1.3532424e-04 
2.1413233e-02 1.7956002e-02 -2.1543989e-03 
2.2486567e-02 1.8751033e-02 -1.4421289e-03 
2.1419426e-02 1.7677400e-02 -3.4460149e-04 
2.1216812e-02 1.7651808e-02 -1.2167422e-03 
2.2502415e-02 1.8735403e-02 -1.2374588e-03 
2.1243602e-02 1.7736558e-02 -1.6248723e-03 
2.1170799e-02 1.7559927e-02 -8.9268427e-04 
2.1594873e-02 1.7678011e-02 5.9765013e-04 
2.1278257e-02 1.7817685e-02 -1.9780733e-03 
2.1556400e-02 1.7801572e-02 -3.9557629e-04 
2.1770494e-02 1.7883414e-02 2.7930347e-04 
2.1229595e-02 1.7427191e-02 2.0167250e-04 
2.1276433e-02 1.7432218e-02 4.2684845e-04 
2.1292932e-02 1.7501729e-02 8.8947279e-05 
2.1028321e-02 1.7392926e-02 -6.1771617e-04 
2.1953853e-02 1.8289233e-02 -1.4055190e-03 
2.1116734e-02 1.7698305e-02 -2.1603615e-03 
2.1933770e-02 1.8192736e-02 -8.3100284e-04 
2.1280579e-02 1.7428979e-02 5.3210795e-04 
2.2169927e-02 1.8517213e-02 -1.6667384e-03 
2.1396820e-02 1.7701795e-02 -6.0626213e-04 
2.0670276e-02 1.7151857e-02 -9.7715843e-04 
2.0692667e-02 1.7238894e-02 -1.4059230e-03 
2.0863757e-02 1.7201886e-02 -2.9843382e-04 
2.0728821e-02 1.7327784e-02 -1.7992951e-03 
2.0626467e-02 1.7035384e-02 -4.8943580e-04 
2.0968223e-02 1.7326709e-02 -5.3396059e-04 
2.1468036e-02 1.7719869e-02 -3.0505311e-04 
2.0705687e-02 1.6970465e-02 3.0582599e-04 
2.0631859e-02 1.7127285e-02 -1.0493919e-03 
2.0582061e-02 1.7021228e-02 -6.4022158e-04 
2.0696396e-02 1.7211905e-02 -1.2594102e-03 
2.0620855e-02 1.7280256e-02 -2.1188331e-03 
2.0749131e-02 1.6978744e-02 5.0996133e-04 
2.1679591e-02 1.8058125e-02 -1.3806265e-03 
2.1694554e-02 1.8043920e-02 -1.1879886e-03 
2.0861801e-02 1.7436197e-02 -1.8875352e-03 
2.0794205e-02 1.7004980e-02 6.0438312e-04 
2.0770336e-02 1.7149687e-02 -4.6586699e-04 
2.0505302e-02 1.6910683e-02 -3.5978793e-04 
2.0872906e-02 1.7121013e-02 3.4048222e-04 
2.0264583e-02 1.6904669e-02 -1.5712895e-03 
2.0296063e-02 1.6982460e-02 -1.9151348e-03 
2.0150883e-02 1.6748415e-02 -1.1775349e-03 
2.0109406e-02 1.6667413e-02 -8.8129775e-04 
2.1196263e-02 1.7557986e-02 -7.3548895e-04 
2.1101253e-02 1.7560882e-02 -1.3347942e-03 
2.0191558e-02 1.6780933e-02 -1.1962363e-03 
2.0332143e-02 1.7030761e-02 -2.1155241e-03 
2.0134868e-02 1.6518634e-02 1.4880653e-04 
2.0481188e-02 1.6756739e-02 5.4190477e-04 
2.0026661e-02 1.6542826e-02 -5.5392669e-04 
2.1365250e-02 1.7827427e-02 -1.6030237e-03 
2.0182595e-02 1.6519807e-02 3.9754447e-04 
2.0275965e-02 1.6680568e-02 -1.1144009e-04 
2.0618446e-02 1.7176770e-02 -1.5438610e-03 
2.0224320e-02 1.6529884e-02 5.7570328e-04 
2.0662094e-02 1.7004034e-02 -4.3117616e-05 
2.0352216e-02 1.6839830e-02 -7.3647016e-04 
1.9803504e-02 1.6545357e-02 -1.7631091e-03 
2.0135140e-02 1.6826672e-02 -1.8983787e-03 
2.0073853e-02 1.6654870e-02 -1.0651981e-03 
1.9838054e-02 1.6617756e-02 -2.0755993e-03 
1.9691497e-02 1.6398421e-02 -1.4047849e-03 
2.0880556e-02 1.7375078e-02 -1.3180339e-03 
2.0894449e-02 1.7361877e-02 -1.1368180e-03 
1.9604674e-02 1.6262826e-02 -9.9905243e-04 
2.0003375e-02 1.6344182e-02 6.0800725e-04 
1.9553704e-02 1.6137451e-02 -4.8244282e-04 
2.0168202e-02 1.6536856e-02 3.0696968e-04 
1.9648300e-02 1.6298600e-02 -1.0206855e-03 
1.9778347e-02 1.6366802e-02 -7.7618257e-04 
1.9619247e-02 1.6069146e-02 2.7549607e-04 
1.9548871e-02 1.6162055e-02 -6.7423203e-04 
1.9663792e-02 1.6074432e-02 4.8683566e-04 
2.0433070e-02 1.6893461e-02 -5.6803017e-04 
2.0359784e-02 1.6929846e-02 -1.2820199e-03 
1.9732963e-02 1.6231582e-02 -1.3131401e-04 
1.9552756e-02 1.6369078e-02 -2.0681240e-03 
1.9325482e-02 1.6168196e-02 -1.9173918e-03 
1.9691870e-02 1.6100053e-02 5.4547272e-04 
2.0570233e-02 1.7147526e-02 -1.5357770e-03 
1.9222414e-02 1.6035782e-02 -1.5953962e-03 
1.9129481e-02 1.5902033e-02 -1.2264504e-03 
1.9047201e-02 1.5783131e-02 -9.0049091e-04 
1.9057970e-02 1.5631773e-02 7.7678727e-05 
1.9144686e-02 1.5923850e-02 -1.3302603e-03 
1.8989304e-02 1.5680239e-02 -5.7432859e-04 
1.9108517e-02 1.5628420e-02 3.7015940e-04 
1.9049099e-02 1.5753448e-02 -7.2941353e-04 
1.9065136e-02 1.5963197e-02 -2.0333619e-03 
2.0092085e-02 1.6703418e-02 -1.2536761e-03 
2.0105310e-02 1.6691461e-02 -1.0838029e-03 
1.9301090e-02 1.6108653e-02 -1.7821796e-03 
1.9105732e-02 1.5895566e-02 -1.3883726e-03 
1.9147500e-02 1.5634829e-02 5.6040002e-04 
1.9218089e-02 1.5688436e-02 6.1640347e-04 
1.9225873e-02 1.5947022e-02 -1.0829992e-03 
1.9392231e-02 1.6011400e-02 -5.4409064e-04 
1.8989865e-02 1.5642226e-02 -3.3960387e-04 
1.8790420e-02 1.5705464e-02 -1.8055907e-03 
1.8895864e-02 1.5547257e-02 -2.3369674e-04 
1.9349277e-02 1.5868952e-02 2.2213710e-04 
1.8665165e-02 1.5546060e-02 -1.4286045e-03 
1.8574893e-02 1.5411514e-02 -1.0426512e-03 
1.9617854e-02 1.6223308e-02 -6.5689161e-04 
1.9529000e-02 1.6223162e-02 -1.2097612e-03 
1.8600767e-02 1.5365640e-02 -6.2911771e-04 
1.8780151e-02 1.5715163e-02 -2.0163546e-03 
1.8432701e-02 1.5203270e-02 -4.7413030e-04 
1.8553693e-02 1.5188458e-02 2.3328607e-04 
1.8913455e-02 1.5449688e-02 5.5747345e-04 
1.9784758e-02 1.6478874e-02 -1.4682724e-03 
1.9072453e-02 1.5871195e-02 -1.4605277e-03 
1.8542642e-02 1.5346207e-02 -8.2466326e-04 
1.8667912e-02 1.5349139e-02 -1.6740736e-04 
1.8933577e-02 1.5674343e-02 -8.6771476e-04 
1.8598983e-02 1.5193893e-02 4.5827273e-04 
1.8511720e-02 1.5380165e-02 -1.2284964e-03 
1.9101689e-02 1.5730504e-02 -2.3283338e-04 
1.8379111e-02 1.5162209e-02 -5.1311741e-04 
1.8480392e-02 1.5318025e-02 -1.0026427e-03 
1.8589143e-02 1.5518235e-02 -1.7870882e-03 
1.8204924e-02 1.5189162e-02 -1.6019873e-03 
1.8299762e-02 1.5318016e-02 -1.9865518e-03 
1.9310400e-02 1.6039714e-02 -1.1886578e-03 
1.8111652e-02 1.5060466e-02 -1.2576464e-03 
1.9323083e-02 1.6028859e-02 -1.0293134e-03 
1.8446365e-02 1.5047716e-02 6.1948964e-04 
1.8409345e-02 1.5158377e-02 -3.2028224e-04 
1.8143287e-02 1.5006470e-02 -7.6687901e-04 
1.7977504e-02 1.4898038e-02 -9.1560191e-04 
1.8609580e-02 1.5235269e-02 3.3896079e-04 
1.8188801e-02 1.4941867e-02 -9.9167264e-05 
1.8001176e-02 1.4769376e-02 -9.7380862e-06 
1.7952837e-02 1.4825065e-02 -6.0252543e-04 
1.8052924e-02 1.4758106e-02 3.3662710e-04 
1.8932369e-02 1.5652673e-02 -6.7498157e-04 
1.8091341e-02 1.4764666e-02 5.3736340e-04 
1.8718990e-02 1.5537483e-02 -1.1574626e-03 
1.8020334e-02 1.5073620e-02 -1.9624755e-03 
1.7749179e-02 1.4832377e-02 -1.7573424e-03 
1.8145878e-02 1.4812910e-02 5.6230172e-04 
1.9007547e-02 1.5819125e-02 -1.3987160e-03 
1.8108297e-02 1.4933053e-02 -4.7927993e-04 
1.7654309e-02 1.4708357e-02 -1.4407494e-03 
1.7604841e-02 1.4508954e-02 -4.1674098e-04 
1.7565060e-02 1.4581960e-02 -1.0806466e-03 
1.8314544e-02 1.5035921e-02 3.3843331e-05 
1.7776977e-02 1.4625055e-02 -2.4999643e-04 
1.8082540e-02 1.4909501e-02 -4.4726115e-04 
1.7506238e-02 1.4331969e-02 1.8095726e-04 
1.7594399e-02 1.4595065e-02 -1.0576292e-03 
1.7546374e-02 1.4684881e-02 -1.9414810e-03 
1.8538691e-02 1.5388415e-02 -1.1200515e-03 
1.7409319e-02 1.4365688e-02 -5.3625467e-04 
1.7552780e-02 1.4332125e-02 4.2979125e-04 
1.7776040e-02 1.4821797e-02 -1.6663837e-03 
1.8550532e-02 1.5378390e-02 -9.7137911e-04 
1.7908890e-02 1.4649884e-02 3.8902124e-04 
1.7684033e-02 1.4420195e-02 6.2212115e-04 
1.7413525e-02 1.4423589e-02 -8.9253706e-04 
1.7262196e-02 1.4234885e-02 -4.6492016e-04 
1.7243501e-02 1.4394903e-02 -1.6287207e-03 
1.7377330e-02 1.4294677e-02 -2.5456122e-04 
1.7110631e-02 1.4236578e-02 -1.2751374e-03 
1.7818963e-02 1.4800005e-02 -1.2710753e-03 
1.8037112e-02 1.4963919e-02 -1.0901100e-03 
1.7023873e-02 1.4109635e-02 -9.1065507e-04 
1.8072942e-02 1.4926611e-02 -5.7392113e-04 
1.7271796e-02 1.4446739e-02 -1.9124058e-03 
1.6964113e-02 1.3976002e-02 -3.8731910e-04 
1.7384836e-02 1.4185769e-02 5.6877185e-04 
1.8239411e-02 1.5170749e-02 -1.3271096e-03 
1.7014973e-02 1.3908788e-02 3.0081705e-04 
1.6964238e-02 1.4074298e-02 -1.0397567e-03 
1.7058190e-02 1.3916073e-02 5.0665240e-04 
1.6860845e-02 1.3827574e-02 7.1625095e-06 
1.7451067e-02 1.4390645e-02 -4.7145563e-04 
1.7137511e-02 1.4161824e-02 -7.0303405e-04 
1.6685359e-02 1.3806031e-02 -7.4640464e-04 
1.6758380e-02 1.4009656e-02 -1.7393114e-03 
1.6819037e-02 1.3836696e-02 -2.7014301e-04 
1.6801067e-02 1.4062756e-02 -1.8968577e-03 
1.6720325e-02 1.3836109e-02 -7.8656618e-04 
1.6663296e-02 1.3892408e-02 -1.4444862e-03 
1.7776845e-02 1.4746796e-02 -1.0527738e-03 
1.7788196e-02 1.4737997e-02 -9.1411866e-04 
1.6937092e-02 1.3804519e-02 6.2876643e-04 
1.7015964e-02 1.4173225e-02 -1.5399031e-03 
1.7429573e-02 1.4345718e-02 -2.3607400e-04 
1.6522493e-02 1.3716691e-02 -1.0336746e-03 
1.7087784e-02 1.3975028e-02 3.6698184e-04 
1.6620195e-02 1.3795267e-02 -1.0897269e-03 
1.6482262e-02 1.3498674e-02 1.1656938e-04 
1.6529484e-02 1.3498196e-02 3.9256809e-04 
1.7267993e-02 1.4317014e-02 -1.0342831e-03 
1.7317295e-02 1.4294795e-02 -5.3138495e-04 
1.6566807e-02 1.3502792e-02 5.7395652e-04 
1.6530361e-02 1.3824245e-02 -1.8575795e-03 
1.6271558e-02 1.3431188e-02 -5.3459447e-04 
1.6505100e-02 1.3554120e-02 -9.5003001e-05 
1.6261499e-02 1.3406633e-02 -4.3944086e-04 
1.6638095e-02 1.3572905e-02 5.7451590e-04 
1.7481653e-02 1.4533699e-02 -1.2559226e-03 
1.6130775e-02 1.3431962e-02 -1.2877547e-03 
1.6178321e-02 1.3513935e-02 -1.6060133e-03 
1.6043199e-02 1.3232501e-02 -4.5553548e-04 
1.6043916e-02 1.3310204e-02 -9.4432081e-04 
1.6570965e-02 1.3687930e-02 -6.5244467e-04 
1.6154852e-02 1.3295641e-02 -2.8770152e-04 
1.6212303e-02 1.3434959e-02 -9.3322666e-04 
1.6066018e-02 1.3450440e-02 -1.8432142e-03 
1.6611975e-02 1.3622701e-02 1.3323245e-04 
1.7025640e-02 1.4117737e-02 -9.8559645e-04 
1.6002784e-02 1.3086278e-02 2.5642657e-04 
1.6287016e-02 1.3576657e-02 -1.5490899e-03 
1.7036146e-02 1.4109623e-02 -8.5610949e-04 
1.6195681e-02 1.3196531e-02 6.2640576e-04 
1.6046574e-02 1.3090353e-02 4.7878068e-04 
1.5882390e-02 1.3147360e-02 -7.7075802e-04 
1.6347405e-02 1.3366178e-02 3.7478781e-04 
1.6414989e-02 1.3629182e-02 -1.1916213e-03 
1.5777668e-02 1.3020171e-02 -4.9298850e-04 
1.5694655e-02 1.3097213e-02 -1.4404234e-03 
1.5706342e-02 1.3138473e-02 -1.6923852e-03 
1.6540106e-02 1.3710145e-02 -9.6240733e-04 
1.5606831e-02 1.2980785e-02 -1.1317290e-03 
1.5909612e-02 1.3055620e-02 -6.9991161e-06 
1.6572086e-02 1.3677143e-02 -4.8909901e-04 
1.5800567e-02 1.3217161e-02 -1.7996785e-03 
1.5500781e-02 1.2851199e-02 -8.4173924e-04 
1.5713949e-02 1.2905593e-02 -8.5189167e-05 
1.5612475e-02 1.2971830e-02 -1.0836732e-03 
1.5907336e-02 1.2975721e-02 5.7956693e-04 
1.6734837e-02 1.3907733e-02 -1.1830628e-03 
1.5478898e-02 1.2693532e-02 3.1354990e-05 
1.5525669e-02 1.2682111e-02 3.5677943e-04 
1.5758157e-02 1.3006535e-02 -5.2949955e-04 
1.5566988e-02 1.2690353e-02 5.4697279e-04 
1.5344943e-02 1.2852896e-02 -1.7974320e-03 
1.5265099e-02 1.2762347e-02 -1.5764841e-03 
1.5288083e-02 1.2625549e-02 -5.3129613e-04 
1.6286219e-02 1.3500313e-02 -9.1870187e-04 
1.5175245e-02 1.2651456e-02 -1.2937479e-03 
1.6296178e-02 1.3493050e-02 -7.9776329e-04 
1.5582923e-02 1.2978547e-02 -1.4305183e-03 
1.5470857e-02 1.2606879e-02 6.2726694e-04 
1.5087819e-02 1.2534010e-02 -9.7381318e-04 
1.5321581e-02 1.2682151e-02 -7.6313980e-04 
1.5927095e-02 1.3105093e-02 -1.8162742e-04 
1.5616143e-02 1.2773187e-02 3.8662608e-04 
1.5311929e-02 1.2565633e-02 -5.2567666e-06 
1.5828956e-02 1.3117673e-02 -9.1185293e-04 
1.5014392e-02 1.2287123e-02 2.0736325e-04 
1.5021124e-02 1.2487061e-02 -1.0720033e-03 
1.5055787e-02 1.2289008e-02 4.4337340e-04 
1.5204683e-02 1.2472164e-02 6.5021974e-05 
1.5839843e-02 1.3070005e-02 -4.4501951e-04 
1.5085866e-02 1.2623036e-02 -1.7472990e-03 
1.4779082e-02 1.2200311e-02 -4.4527615e-04 
1.5090902e-02 1.2297989e-02 5.9645646e-04 
1.4860644e-02 1.2442258e-02 -1.6548603e-03 
1.4977450e-02 1.2473145e-02 -1.2741521e-03 
1.5181547e-02 1.2388734e-02 5.7916372e-04 
1.6000360e-02 1.3294809e-02 -1.1105827e-03 
1.4749333e-02 1.2323688e-02 -1.4333532e-03 
1.4780710e-02 1.2178659e-02 -3.1436150e-04 
1.4659780e-02 1.2210993e-02 -1.1467980e-03 
1.5337935e-02 1.2581374e-02 1.2586548e-04 
1.4577634e-02 1.2097673e-02 -8.2885998e-04 
1.4941604e-02 1.2387279e-02 -8.8905083e-04 
1.4574593e-02 1.2014710e-02 -3.2306850e-04 
1.4680889e-02 1.2210870e-02 -1.0887195e-03 
1.4587468e-02 1.2101438e-02 -8.3317806e-04 
1.4635312e-02 1.2265558e-02 -1.7452554e-03 
1.5558694e-02 1.2895931e-02 -8.5217308e-04 
1.4727034e-02 1.2139937e-02 -3.4036563e-04 
1.5568190e-02 1.2889389e-02 -7.3906302e-04 
1.4853474e-02 1.2384762e-02 -1.4349129e-03 
1.4758679e-02 1.2028611e-02 6.2298286e-04 
1.4552060e-02 1.1896002e-02 3.1752931e-04 
1.5055069e-02 1.2499285e-02 -1.0739393e-03 
1.4552160e-02 1.1981936e-02 -2.3320093e-04 
1.4901021e-02 1.2187885e-02 4.0875981e-04 
1.4592170e-02 1.1902767e-02 5.1574764e-04 
1.4368555e-02 1.1791833e-02 2.9983683e-05 
1.4329654e-02 1.1997879e-02 -1.5540089e-03 
1.4208946e-02 1.1776892e-02 -6.8956759e-04 
1.4309485e-02 1.1808797e-02 -3.8640801e-04 
1.5127983e-02 1.2536949e-02 -8.2776556e-04 
1.4240608e-02 1.1892042e-02 -1.2914742e-03 
1.5118836e-02 1.2477145e-02 -4.0242955e-04 
1.4247450e-02 1.1822718e-02 -8.1705791e-04 
1.4377919e-02 1.2038712e-02 -1.6883392e-03 
1.4049616e-02 1.1685032e-02 -9.3359052e-04 
1.4477060e-02 1.1810268e-02 5.8799243e-04 
1.4256425e-02 1.1877148e-02 -1.1963446e-03 
1.5278867e-02 1.2695138e-02 -1.0378889e-03 
1.4427310e-02 1.1908808e-02 -4.3980317e-04 
1.4048560e-02 1.1514375e-02 1.4219322e-04 
1.4528952e-02 1.1989755e-02 -4.0743878e-04 
1.4095657e-02 1.1514560e-02 4.0484566e-04 
1.4654092e-02 1.2055092e-02 -7.6037053e-05 
1.3936907e-02 1.1692885e-02 -1.6951506e-03 
1.4845558e-02 1.2305035e-02 -7.8671693e-04 
1.3827748e-02 1.1572751e-02 -1.4199143e-03 
1.4854796e-02 1.2299064e-02 -6.8074529e-04 
1.4151978e-02 1.1805104e-02 -1.3745716e-03 
1.3786338e-02 1.1407800e-02 -5.3353672e-04 
1.4060024e-02 1.1460137e-02 6.2368868e-04 
1.3701603e-02 1.1432733e-02 -1.1356183e-03 
1.4198565e-02 1.1616843e-02 4.1928695e-04 
1.3886812e-02 1.1484672e-02 -5.4398295e-04 
1.3528450e-02 1.1253237e-02 -8.6320442e-04 
1.4500475e-02 1.1972891e-02 -4.0405232e-04 
1.4389874e-02 1.1926905e-02 -7.7342615e-04 
1.3464458e-02 1.1134166e-02 -4.3229834e-04 
1.3676474e-02 1.1391319e-02 -1.0655926e-03 
1.3600205e-02 1.1131039e-02 2.7212233e-04 
1.3589388e-02 1.1303241e-02 -9.1613957e-04 
1.3686408e-02 1.1470355e-02 -1.6356948e-03 
1.3461601e-02 1.1203432e-02 -9.1161911e-04 
1.4050846e-02 1.1527813e-02 2.0942967e-04 
1.3526306e-02 1.1168873e-02 -3.5217046e-04 
1.3791350e-02 1.1253961e-02 5.8843440e-04 
1.4573450e-02 1.2110538e-02 -9.6521282e-04 
1.3581548e-02 1.1084263e-02 5.1387993e-04 
1.3420936e-02 1.1257282e-02 -1.5273242e-03 
1.3734323e-02 1.1343586e-02 -4.1226143e-04 
1.3332309e-02 1.1155571e-02 -1.2854220e-03 
1.3247334e-02 1.1050097e-02 -1.0146331e-03 
1.3257262e-02 1.0983973e-02 -5.4624933e-04 
1.3149014e-02 1.0938704e-02 -8.0062100e-04 
1.3718087e-02 1.1407740e-02 -1.0109365e-03 
1.3253019e-02 1.1133218e-02 -1.6422145e-03 
1.3273880e-02 1.0928854e-02 -1.1066901e-04 
1.4149730e-02 1.1731556e-02 -7.2176475e-04 
1.3334587e-02 1.1001231e-02 -2.6417276e-04 
1.4158642e-02 1.1726144e-02 -6.2212249e-04 
1.3458095e-02 1.1236728e-02 -1.3183644e-03 
1.3379450e-02 1.0911068e-02 6.2128191e-04 
1.3155642e-02 1.0759015e-02 3.6647342e-04 
1.3511726e-02 1.1060166e-02 4.2539707e-04 
1.3227464e-02 1.1035552e-02 -1.1365796e-03 
1.3025135e-02 1.0695009e-02 9.8172866e-05 
1.3194388e-02 1.0768239e-02 5.4762588e-04 
1.2944997e-02 1.0715324e-02 -4.3530154e-04 
1.3047020e-02 1.0888678e-02 -1.0851658e-03 
1.2929962e-02 1.0846870e-02 -1.4019317e-03 
1.3699630e-02 1.1360241e-02 -7.1466767e-04 
1.2844152e-02 1.0744775e-02 -1.1541423e-03 
1.2776907e-02 1.0620892e-02 -6.8703841e-04 
1.3726380e-02 1.1333326e-02 -3.1340442e-04 
1.2762158e-02 1.0637012e-02 -8.7290246e-04 
1.3011471e-02 1.0916709e-02 -1.5745267e-03 
1.2820093e-02 1.0580499e-02 -2.2005428e-04 
1.2797268e-02 1.0648678e-02 -7.9911557e-04 
1.3108813e-02 1.0705944e-02 5.9604080e-04 
1.3883808e-02 1.1542198e-02 -8.9503004e-04 
1.2730067e-02 1.0564172e-02 -5.8261247e-04 
1.3057895e-02 1.0795216e-02 -3.8564092e-04 
1.3151285e-02 1.0867630e-02 -3.4364840e-04 
1.2679690e-02 1.0393240e-02 2.4591474e-04 
1.2531479e-02 1.0392461e-02 -4.9043703e-04 
1.2719141e-02 1.0398628e-02 4.4650654e-04 
1.3280607e-02 1.0935030e-02 -1.3613387e-05 
1.2537067e-02 1.0541556e-02 -1.4939005e-03 
1.2587304e-02 1.0590518e-02 -1.5917624e-03 
1.3467967e-02 1.1171939e-02 -6.5840560e-04 
1.2587121e-02 1.0384188e-02 -1.5843366e-04 
1.2449128e-02 1.0443986e-02 -1.2723230e-03 
1.3476705e-02 1.1167026e-02 -5.6415581e-04 
1.2793821e-02 1.0693325e-02 -1.2610443e-03 
1.2709358e-02 1.0373685e-02 6.2037091e-04 
1.2365495e-02 1.0341863e-02 -1.0203116e-03 
1.2676339e-02 1.0459945e-02 -1.6996283e-04 
1.2842026e-02 1.0520245e-02 4.3461961e-04 
1.2285219e-02 1.0237097e-02 -7.4678176e-04 
1.2402873e-02 1.0347286e-02 -9.0344029e-04 
1.2246706e-02 1.0154070e-02 -4.2092337e-04 
1.2318593e-02 1.0249541e-02 -6.8134407e-04 
1.2250776e-02 1.0126117e-02 -2.2553730e-04 
1.3137016e-02 1.0859055e-02 -3.1086986e-04 
1.2737281e-02 1.0461907e-02 2.4295830e-04 
1.2248425e-02 1.0037069e-02 3.2329225e-04 
1.2980816e-02 1.0772997e-02 -6.3419313e-04 
1.2348122e-02 1.0378157e-02 -1.5232876e-03 
1.2312246e-02 1.0064422e-02 5.1388989e-04 
1.2223645e-02 1.0251249e-02 -1.2635635e-03 
1.2246580e-02 1.0156718e-02 -4.7418804e-04 
1.2448533e-02 1.0174666e-02 5.9076829e-04 
1.3208348e-02 1.0988880e-02 -8.2656747e-04 
1.2426888e-02 1.0274605e-02 -2.7193292e-04 
1.2061185e-02 1.0146132e-02 -1.3766780e-03 
1.1976829e-02 1.0048331e-02 -1.1460873e-03 
1.2573100e-02 1.0459251e-02 -8.1737427e-04 
1.2087695e-02 9.9726859e-03 -9.2854432e-05 
1.1896855e-02 9.9480329e-03 -8.9087425e-04 
1.1792083e-02 9.8338788e-03 -6.9326506e-04 
1.2186388e-02 1.0203264e-02 -1.2384437e-03 
1.1933492e-02 1.0058638e-02 -1.5395690e-03 
1.1849175e-02 9.8581435e-03 -5.7059166e-04 
1.2802487e-02 1.0629284e-02 -5.9929199e-04 
1.2810719e-02 1.0624760e-02 -5.0887233e-04 
1.2056694e-02 9.8509435e-03 6.1833410e-04 
1.1756298e-02 9.7579136e-03 -3.9857955e-04 
1.1837250e-02 9.8936735e-03 -8.9251704e-04 
1.2029340e-02 9.9377176e-03 -1.5174507e-04 
1.1762113e-02 9.6767219e-03 1.4919642e-04 
1.2192014e-02 9.9956496e-03 4.3995873e-04 
1.1822562e-02 9.6855797e-03 4.0804542e-04 
1.1892909e-02 9.9041713e-03 -6.9931615e-04 
1.1680525e-02 9.8500215e-03 -1.4509097e-03 
1.2443300e-02 1.0335308e-02 -5.8733195e-04 
1.1594110e-02 9.7571928e-03 -1.2553240e-03 
1.1513570e-02 9.6613448e-03 -1.0246140e-03 
1.2396236e-02 1.0254621e-02 -2.2666113e-04 
1.1434277e-02 9.5597887e-03 -7.6594844e-04 
1.1707220e-02 9.8552080e-03 -1.4675107e-03 
1.1663113e-02 9.6259424e-03 -2.7249871e-05 
1.1801924e-02 9.6600438e-03 5.9291330e-04 
1.2546456e-02 1.0449221e-02 -7.6201296e-04 
1.1372512e-02 9.5094098e-03 -7.9420506e-04 
1.1292965e-02 9.3951896e-03 -4.5058475e-04 
1.1340091e-02 9.3197050e-03 2.5476181e-04 
1.1973890e-02 9.8810745e-03 3.9979339e-05 
1.1408956e-02 9.3471250e-03 4.7807768e-04 
1.1145374e-02 9.2735393e-03 -4.0773695e-04 
1.1567090e-02 9.6890563e-03 -1.0998854e-03 
1.1295981e-02 9.5451651e-03 -1.4915243e-03 
1.2148727e-02 1.0098240e-02 -5.4271158e-04 
1.1220966e-02 9.4706193e-03 -1.3458577e-03 
1.2156355e-02 1.0093755e-02 -4.5490736e-04 
1.1418503e-02 9.3440209e-03 6.0639123e-04 
1.1138567e-02 9.3800686e-03 -1.1369692e-03 
1.1390112e-02 9.4255870e-03 -1.3369863e-04 
1.1058843e-02 9.2833890e-03 -8.9853257e-04 
1.1552420e-02 9.4863297e-03 4.5926060e-04 
1.1014426e-02 9.1959164e-03 -5.8288139e-04 
1.1246418e-02 9.3796672e-03 -6.4588827e-04 
1.1087819e-02 9.1799432e-03 -1.0633887e-04 
1.1833264e-02 9.8030893e-03 -2.2238240e-04 
1.1733918e-02 9.7599672e-03 -5.4570811e-04 
1.1076204e-02 9.3203122e-03 -1.1546463e-03 
1.0914003e-02 9.0088928e-03 8.5984444e-05 
1.1420322e-02 9.4041498e-03 2.8151923e-04 
1.1071436e-02 9.3446448e-03 -1.4155712e-03 
1.0962007e-02 9.0026353e-03 3.6395594e-04 
1.1021502e-02 9.1766370e-03 -4.4291132e-04 
1.1172760e-02 9.1579081e-03 5.9086713e-04 
1.1898214e-02 9.9217482e-03 -6.9648889e-04 
1.0997300e-02 9.0136947e-03 5.3363742e-04 
1.0855337e-02 9.1869505e-03 -1.4079227e-03 
1.1123708e-02 9.2390236e-03 -2.9857355e-04 
1.0770876e-02 9.1006448e-03 -1.2359194e-03 
1.0690443e-02 9.0084691e-03 -1.0201507e-03 
1.0647824e-02 8.9363018e-03 -7.6511299e-04 
1.0703743e-02 8.9971516e-03 -9.4357668e-04 
1.0678264e-02 9.0456232e-03 -1.4356611e-03 
1.1514293e-02 9.5853647e-03 -4.8814347e-04 
1.1520729e-02 9.5807109e-03 -4.0205414e-04 
1.0804234e-02 8.8535463e-03 6.0274202e-04 
1.0871248e-02 9.1397222e-03 -1.1055925e-03 
1.0672797e-02 8.9705326e-03 -9.6329500e-04 
1.1036528e-02 9.2215044e-03 -7.3860405e-04 
1.0555464e-02 8.8608935e-03 -7.8800647e-04 
1.0929209e-02 8.9878673e-03 4.6502656e-04 
1.0622906e-02 8.8322973e-03 -2.5109272e-04 
1.0475759e-02 8.7590525e-03 -5.2452908e-04 
1.0586586e-02 8.6959358e-03 4.4684749e-04 
1.0671414e-02 8.8536628e-03 -1.1504465e-04 
1.0464496e-02 8.6296154e-03 2.2095011e-04 
1.0412584e-02 8.8245692e-03 -1.3137049e-03 
1.1112622e-02 9.2609245e-03 -5.0088059e-04 
1.0329573e-02 8.7374095e-03 -1.1230421e-03 
1.1132737e-02 9.2369961e-03 -1.4453474e-04 
1.0244587e-02 8.6359605e-03 -8.7678403e-04 
1.0464949e-02 8.8534635e-03 -1.3568928e-03 
1.0152673e-02 8.4860176e-03 -3.9295843e-04 
1.0560876e-02 8.6707706e-03 5.8443082e-04 
1.1267134e-02 9.4101233e-03 -6.3333724e-04 
1.0212746e-02 8.5033802e-03 -2.2544936e-04 
1.0215530e-02 8.5922806e-03 -8.1923330e-04 
1.0120752e-02 8.5016610e-03 -6.9093890e-04 
1.0725955e-02 8.8815168e-03 1.0195632e-04 
1.0058198e-02 8.3293673e-03 9.6461830e-05 
1.0131277e-02 8.3508538e-03 3.1891651e-04 
1.0166408e-02 8.3609289e-03 4.9618399e-04 
1.0892536e-02 9.0830931e-03 -4.3699742e-04 
1.0081994e-02 8.5630575e-03 -1.3871676e-03 
1.0898744e-02 9.0781953e-03 -3.5061059e-04 
9.9781761e-03 8.4689436e-03 -1.2083661e-03 
1.0198868e-02 8.3775697e-03 5.9920002e-04 
1.0292290e-02 8.6619966e-03 -1.0014510e-03 
9.8970998e-03 8.3805807e-03 -1.0137500e-03 
1.0202386e-02 8.4942644e-03 -2.1649117e-04 
1.0331985e-02 8.5127195e-03 4.7543857e-04 
9.8217111e-03 8.2889367e-03 -7.8888598e-04 
9.7961305e-03 8.1587145e-03 -1.1988001e-04 
9.9042654e-03 8.2595609e-03 -2.3323533e-04 
9.8056328e-03 8.2057817e-03 -3.6226612e-04 
1.0508610e-02 8.7753534e-03 -4.6683275e-04 
1.0590742e-02 8.8055702e-03 -1.3478406e-04 
9.6477075e-03 8.1245024e-03 -6.1025162e-04 
1.0217576e-02 8.4449118e-03 3.2203679e-04 
9.7041531e-03 8.0373622e-03 1.6634552e-04 
9.8689664e-03 8.3791129e-03 -1.3145939e-03 
9.6944226e-03 8.1513720e-03 -5.9471151e-04 
9.8627293e-03 8.2079349e-03 -8.6511769e-05 
9.9713430e-03 8.2069431e-03 5.8525091e-04 
1.0652584e-02 8.9120120e-03 -5.7060836e-04 
9.7200274e-03 8.0190469e-03 4.0923012e-04 
9.6320184e-03 8.2031488e-03 -1.2792135e-03 
9.5224464e-03 7.9699541e-03 -2.8253754e-04 
9.5511852e-03 8.1195766e-03 -1.1045679e-03 
9.6895015e-03 8.1540588e-03 -6.6916709e-04 
9.5703676e-03 7.9860464e-03 -1.5227564e-04 
9.4755879e-03 8.0331108e-03 -9.0502272e-04 
9.4016865e-03 7.9415925e-03 -6.8145787e-04 
9.5076906e-03 8.0291322e-03 -7.6989952e-04 
1.0286160e-02 8.5964948e-03 -3.8250713e-04 
9.4942851e-03 8.0989227e-03 -1.3451905e-03 
1.0292327e-02 8.5914331e-03 -2.9597819e-04 
9.6149575e-03 7.9151131e-03 5.8810686e-04 
9.6851466e-03 8.1871236e-03 -1.0158453e-03 
9.2586139e-03 7.7794688e-03 -3.8036390e-04 
9.8394249e-03 8.2588214e-03 -6.4981519e-04 
9.7381640e-03 8.0433786e-03 4.8758980e-04 
9.2931194e-03 7.8294799e-03 -5.4335105e-04 
9.3289809e-03 7.7298991e-03 2.6881637e-04 
9.3700085e-03 7.7344310e-03 4.6201007e-04 
9.9039963e-03 8.2919039e-03 -4.0739443e-04 
9.2122918e-03 7.8610033e-03 -1.1806622e-03 
9.3166362e-03 7.7887108e-03 -1.7517210e-04 
9.1366917e-03 7.7789500e-03 -1.0013784e-03 
9.9222409e-03 8.2683479e-03 -5.8258745e-05 
9.0632513e-03 7.6923408e-03 -7.9399854e-04 
9.1817742e-03 7.6787071e-03 -1.4006633e-04 
9.2964759e-03 7.9209190e-03 -1.2671248e-03 
9.1902437e-03 7.7946489e-03 -8.9818408e-04 
9.3898363e-03 7.7475910e-03 5.8900053e-04 
1.0052801e-02 8.4300535e-03 -5.0922163e-04 
9.0061333e-03 7.5847399e-03 -4.0980888e-04 
8.9561855e-03 7.5830258e-03 -6.2593503e-04 
9.2131188e-03 7.7408920e-03 -4.2163438e-04 
8.9189727e-03 7.4326410e-03 9.4691619e-05 
8.9387661e-03 7.5598303e-03 -5.9874076e-04 
9.5416959e-03 7.9394793e-03 1.6090070e-04 
8.9725293e-03 7.4324836e-03 3.8187491e-04 
9.6973656e-03 8.1244772e-03 -3.3319290e-04 
8.9315446e-03 7.6497318e-03 -1.2941988e-03 
8.8833068e-03 7.6087369e-03 -1.2376369e-03 
9.7034611e-03 8.1192283e-03 -2.4518100e-04 
8.9670811e-03 7.4673588e-03 1.5017256e-04 
9.0468423e-03 7.4715624e-03 5.7482102e-04 
9.1311866e-03 7.7344449e-03 -9.2352706e-04 
8.8066328e-03 7.5326385e-03 -1.0824092e-03 
9.0509718e-03 7.5776377e-03 -1.6637114e-04 
9.1730850e-03 7.5972388e-03 4.9547537e-04 
8.7305056e-03 7.4487091e-03 -8.9881581e-04 
8.6595695e-03 7.3600980e-03 -6.8853464e-04 
8.7616993e-03 7.4421740e-03 -7.5754500e-04 
9.3354331e-03 7.8369454e-03 -3.8015365e-04 
9.4144382e-03 7.8654373e-03 -4.8934682e-05 
8.7896781e-03 7.4448693e-03 -6.7420269e-04 
8.6222347e-03 7.2838375e-03 -4.1761022e-04 
9.0673724e-03 7.5402553e-03 3.6856835e-04 
8.7370388e-03 7.4724178e-03 -1.2164742e-03 
8.4510697e-03 7.1455464e-03 -3.7033818e-04 
8.5648447e-03 7.1349745e-03 2.1568958e-04 
8.8286120e-03 7.3037581e-03 5.8830919e-04 
9.4709080e-03 7.9634236e-03 -4.5048335e-04 
8.7186154e-03 7.3490092e-03 -3.8039326e-04 
8.4833791e-03 7.2857691e-03 -1.1480789e-03 
8.5936915e-03 7.1261139e-03 4.4659304e-04 
8.5631320e-03 7.2006411e-03 -2.0022909e-04 
8.4074903e-03 7.2058938e-03 -9.8528480e-04 
8.3380267e-03 7.1253274e-03 -7.9831894e-04 
8.3692381e-03 7.1236659e-03 -6.7917031e-04 
9.1266688e-03 7.6696961e-03 -2.8683204e-04 
8.3861090e-03 7.2150771e-03 -1.2494539e-03 
8.2137259e-03 7.0033506e-03 -6.2433491e-04 
9.1323154e-03 7.6641315e-03 -1.9588432e-04 
8.3646551e-03 7.1326233e-03 -7.8720390e-04 
8.4972391e-03 7.0414101e-03 5.6401698e-04 
8.5638734e-03 7.2930781e-03 -9.3570846e-04 
8.4722433e-03 7.1100523e-03 -4.7454807e-05 
8.2129082e-03 6.9583892e-03 -3.7344580e-04 
8.6122025e-03 7.1562123e-03 5.0423102e-04 
8.3834017e-03 7.1319328e-03 -7.0373603e-04 
8.7052751e-03 7.3544853e-03 -5.6982518e-04 
8.1741372e-03 6.8585412e-03 2.3235436e-05 
8.2204426e-03 6.8492014e-03 3.0367874e-04 
8.1705833e-03 7.0444481e-03 -1.1946956e-03 
8.7644281e-03 7.3835766e-03 -3.2631628e-04 
8.2542710e-03 6.8581048e-03 4.7545068e-04 
8.0947224e-03 6.9702738e-03 -1.0561225e-03 
8.7824157e-03 7.3612942e-03 2.2542683e-05 
8.0214702e-03 6.8910331e-03 -8.9119177e-04 
8.1973709e-03 7.0463694e-03 -1.1683805e-03 
7.9530645e-03 6.8087652e-03 -6.9691607e-04 
8.2885632e-03 6.8824096e-03 5.7367334e-04 
8.0772936e-03 6.8026874e-03 -8.7393433e-05 
8.9030024e-03 7.5104241e-03 -3.9619161e-04 
8.2501257e-03 6.9501312e-03 -1.5091387e-04 
8.3143050e-03 6.9918442e-03 -6.9384223e-05 
7.9792924e-03 6.8251812e-03 -7.4015779e-04 
8.4246621e-03 7.0557073e-03 2.1457752e-04 
7.8432178e-03 6.6770953e-03 -4.3532051e-04 
7.8364592e-03 6.5708323e-03 1.6201389e-04 
7.7207899e-03 6.5720459e-03 -3.6143730e-04 
8.5667083e-03 7.2244951e-03 -2.4484107e-04 
7.7666985e-03 6.6020847e-03 -3.4277551e-04 
7.8597181e-03 6.7956857e-03 -1.2103464e-03 
7.8806849e-03 6.5744044e-03 3.7448711e-04 
8.5723596e-03 7.2183618e-03 -1.4998390e-04 
7.7869790e-03 6.7365468e-03 -1.1183199e-03 
7.9755550e-03 6.6327392e-03 5.5970141e-04 
8.0602476e-03 6.8776207e-03 -8.3318684e-04 
7.9491585e-03 6.6982391e-03 -2.5158877e-05 
7.7137519e-03 6.6612274e-03 -9.6846855e-04 
7.9677235e-03 6.7668520e-03 -4.4143235e-04 
8.0814771e-03 6.7382460e-03 4.9995462e-04 
7.6439688e-03 6.5825349e-03 -7.9682254e-04 
7.8296671e-03 6.5701697e-03 1.8067891e-04 
7.5789182e-03 6.5027261e-03 -6.0592289e-04 
7.6744501e-03 6.5791332e-03 -6.7054643e-04 
8.2384273e-03 6.9643240e-03 -3.0065319e-04 
7.7650123e-03 6.6616703e-03 -8.1211410e-04 
8.3022397e-03 6.9829477e-03 3.0747346e-05 
7.9872729e-03 6.6824304e-03 3.9197985e-04 
7.6829516e-03 6.6338591e-03 -1.1165931e-03 
7.6268450e-03 6.4889081e-03 -3.3737326e-04 
7.4613919e-03 6.3150804e-03 -4.8545557e-05 
7.7741528e-03 6.4800945e-03 5.6603854e-04 
8.3534596e-03 7.0707290e-03 -3.4034441e-04 
7.5447294e-03 6.3921167e-03 -1.2088194e-04 
7.5463550e-03 6.5151933e-03 -9.2952908e-04 
7.5079100e-03 6.2988820e-03 2.5513719e-04 
7.7363732e-03 6.5441392e-03 -1.2238983e-04 
7.4206279e-03 6.3802921e-03 -6.3949369e-04 
7.4153063e-03 6.4341142e-03 -1.0302979e-03 
7.5452435e-03 6.3039865e-03 4.4272226e-04 
8.0321869e-03 6.8005291e-03 -2.0116623e-04 
7.3514935e-03 6.3935732e-03 -1.1622804e-03 
7.1982099e-03 6.2052580e-03 -6.1075640e-04 
8.0373269e-03 6.7941290e-03 -1.0323964e-04 
7.4666962e-03 6.2376917e-03 5.4885983e-04 
7.5186109e-03 6.4592105e-03 -8.4709568e-04 
7.5742896e-03 6.3420986e-03 5.1084993e-04 
7.6613366e-03 6.5280218e-03 -4.8831501e-04 
7.2740945e-03 6.2526106e-03 -5.8276823e-04 
7.1616238e-03 6.2207161e-03 -8.9983613e-04 
7.1666455e-03 6.0541471e-03 1.2031014e-04 
7.0615960e-03 6.0551651e-03 -3.4910027e-04 
7.2826385e-03 6.1616451e-03 6.0339804e-05 
7.2057438e-03 6.0507040e-03 3.4250703e-04 
7.7237324e-03 6.5588802e-03 -2.4107474e-04 
7.0630591e-03 6.0406667e-03 -2.6440306e-04 
7.2315698e-03 6.0584559e-03 4.6132813e-04 
7.1140775e-03 6.2070955e-03 -1.1154062e-03 
7.7176336e-03 6.5215896e-03 9.3098191e-05 
6.9915317e-03 6.0658823e-03 -7.4112334e-04 
7.1837963e-03 6.2346915e-03 -1.0813834e-03 
7.2705084e-03 6.0925195e-03 5.6774169e-04 
7.0932866e-03 6.0144020e-03 3.6304173e-05 
7.8238519e-03 6.6503310e-03 -2.8924906e-04 
6.9554797e-03 6.0740146e-03 -9.9640759e-04 
7.0814863e-03 6.0754530e-03 -4.4181716e-04 
6.8279831e-03 5.9124837e-03 -5.7104550e-04 
6.9702831e-03 6.0353377e-03 -7.1214983e-04 
7.3939492e-03 6.2471204e-03 2.6487774e-04 
6.8423138e-03 5.8963741e-03 -4.3319113e-04 
6.8068923e-03 5.7978281e-03 -1.8258377e-05 
6.9353515e-03 5.8343294e-03 3.8528466e-04 
6.8591014e-03 5.7998877e-03 2.1264389e-04 
6.7874989e-03 5.9252712e-03 -8.5757475e-04 
7.5185192e-03 6.3936678e-03 -1.6412893e-04 
6.9030696e-03 5.9232246e-03 -3.3035717e-04 
6.8687387e-03 6.0098264e-03 -1.1164778e-03 
7.5225714e-03 6.3865022e-03 -6.1120467e-05 
6.9751320e-03 5.8543542e-03 5.2885461e-04 
6.9091972e-03 5.8434224e-03 2.3339600e-04 
7.0258668e-03 6.0652690e-03 -8.1672135e-04 
6.7578261e-03 5.9237694e-03 -1.0682966e-03 
6.9185584e-03 5.9483224e-03 -4.6581050e-04 
6.6984552e-03 5.7510845e-03 -2.3699716e-04 
7.0295748e-03 5.9158155e-03 5.3060346e-04 
6.8582562e-03 5.8483286e-03 -4.8105154e-05 
6.6225636e-03 5.7748761e-03 -6.9992396e-04 
7.2084083e-03 6.1504161e-03 -2.2423490e-04 
6.6377576e-03 5.7530208e-03 -5.4019538e-04 
6.6790222e-03 5.7050027e-03 -3.9760009e-05 
6.5923119e-03 5.7828622e-03 -9.5053890e-04 
6.6593955e-03 5.7955263e-03 -7.6258223e-04 
6.6976282e-03 5.8318968e-03 -8.5886481e-04 
6.4658290e-03 5.5904933e-03 -3.3939941e-04 
6.7097754e-03 5.8576898e-03 -1.0306146e-03 
6.8842093e-03 5.8589382e-03 8.1153907e-05 
6.7951600e-03 5.7200263e-03 5.5425835e-04 
7.3153209e-03 6.2459391e-03 -2.4018716e-04 
6.6537331e-03 5.6099365e-03 4.4083971e-04 
6.5034963e-03 5.5438597e-03 7.3792864e-05 
6.5773362e-03 5.5673122e-03 2.9883240e-04 
6.4822417e-03 5.6103347e-03 -4.0395264e-04 
6.7438888e-03 5.7579838e-03 -1.5779453e-05 
6.8939747e-03 5.8310162e-03 4.1406072e-04 
6.4287181e-03 5.6401123e-03 -8.0787099e-04 
7.0947777e-03 6.0339333e-03 1.0271528e-04 
6.4419541e-03 5.6115864e-03 -6.2673300e-04 
6.5066959e-03 5.5710231e-03 -2.7300750e-05 
6.3983197e-03 5.6367540e-03 -1.0211384e-03 
7.0231524e-03 6.0029719e-03 -1.2990912e-04 
6.3329693e-03 5.4608937e-03 -2.0516588e-04 
6.2698354e-03 5.4939999e-03 -6.5531995e-04 
6.4031007e-03 5.6411717e-03 -1.0654745e-03 
7.0268414e-03 5.9952033e-03 -2.0726347e-05 
6.5056174e-03 5.4914206e-03 5.1267137e-04 
6.7527080e-03 5.8048368e-03 -3.8415488e-04 
6.3532665e-03 5.4547726e-03 -6.9994494e-05 
6.6074999e-03 5.5887206e-03 5.1727472e-04 
6.2147374e-03 5.3395280e-03 -5.0653129e-05 
6.2384023e-03 5.5015599e-03 -9.0447400e-04 
6.2634507e-03 5.3383638e-03 1.6727555e-04 
6.3334759e-03 5.3712120e-03 3.5531618e-04 
6.3530337e-03 5.5227247e-03 -5.4657552e-04 
6.7163752e-03 5.7624821e-03 -1.7642221e-04 
6.1340826e-03 5.3354553e-03 -3.7192806e-04 
6.4083976e-03 5.5800960e-03 -7.4423192e-04 
6.0816626e-03 5.3628660e-03 -7.6798146e-04 
6.2332489e-03 5.3553008e-03 -1.3391200e-05 
6.2454441e-03 5.4953732e-03 -9.9107996e-04 
6.3279355e-03 5.3576538e-03 5.4359733e-04 
6.8249255e-03 5.8574453e-03 -1.9509631e-04 
6.2853303e-03 5.4358402e-03 -3.2615734e-04 
6.0961032e-03 5.3398297e-03 -5.9601606e-04 
6.3143061e-03 5.4355469e-03 -1.1588269e-04 
6.0578021e-03 5.3661172e-03 -9.7946788e-04 
5.9327716e-03 5.1735085e-03 -3.2912550e-04 
5.9305830e-03 5.2213785e-03 -6.1553146e-04 
6.0005179e-03 5.1200385e-03 2.6032599e-04 
5.9446888e-03 5.2050939e-03 -4.7858179e-04 
6.0677887e-03 5.1565128e-03 4.1419853e-04 
5.9172991e-03 5.0942861e-03 2.6870346e-05 
6.5441341e-03 5.6247441e-03 -9.9148143e-05 
5.8997124e-03 5.2327351e-03 -8.5639744e-04 
6.2946030e-03 5.3623980e-03 4.1270623e-04 
6.5472974e-03 5.6170039e-03 1.6570661e-05 
5.9641115e-03 5.2927495e-03 -1.0267011e-03 
6.0637691e-03 5.1481910e-03 4.9504917e-04 
6.3422616e-03 5.4160645e-03 3.3599648e-04 
6.4074830e-03 5.4859514e-03 2.1658580e-04 
5.9118411e-03 5.1037180e-03 -2.8886981e-05 
5.7984716e-03 5.0694188e-03 -3.4654429e-04 
5.7512671e-03 5.0981054e-03 -7.2707009e-04 
6.1202710e-03 5.3208279e-03 -4.9130921e-04 
5.9640212e-03 5.2514360e-03 -8.5880322e-04 
6.1641959e-03 5.3406656e-03 -3.3515500e-04 
6.0552224e-03 5.1557627e-03 5.0878711e-04 
5.8188341e-03 5.1146341e-03 -5.6177896e-04 
5.7228636e-03 5.1017338e-03 -9.3377515e-04 
6.1713406e-03 5.3362274e-03 -2.0804002e-04 
5.9403745e-03 5.2019022e-03 -6.5667270e-04 
5.8098109e-03 4.9907705e-03 1.9579592e-04 
5.6029144e-03 4.9610133e-03 -5.7620660e-04 
5.7705552e-03 4.9264920e-03 3.5955341e-04 
6.3532493e-03 5.4838695e-03 -1.5245209e-04 
5.8478746e-03 5.0233239e-03 2.1412266e-04 
5.6560026e-03 4.8705451e-03 1.4600497e-04 
5.6325449e-03 4.9448847e-03 -3.8881943e-04 
6.1761583e-03 5.3349165e-03 -1.1472236e-04 
5.7965615e-03 5.0677396e-03 -4.1477469e-04 
5.8309417e-03 5.0837649e-03 -3.2482139e-04 
5.5742636e-03 4.9738428e-03 -8.1779924e-04 
5.5944282e-03 4.9453587e-03 -5.8366440e-04 
5.4525700e-03 4.7980892e-03 -3.2023009e-04 
5.7831970e-03 5.0036116e-03 2.8165554e-05 
5.4771155e-03 4.8134322e-03 -3.2058451e-04 
5.5458327e-03 4.9607065e-03 -9.8631554e-04 
5.4294397e-03 4.8429901e-03 -6.8646466e-04 
5.6469543e-03 4.8209247e-03 4.7244926e-04 
5.5523696e-03 4.8444481e-03 -1.5357052e-04 
5.6635747e-03 4.8434893e-03 5.2820920e-04 
5.7086572e-03 4.8912852e-03 4.9603527e-04 
5.7522212e-03 4.9409703e-03 4.5498309e-04 
5.8012353e-03 4.9893861e-03 3.9916197e-04 
5.9758807e-03 5.1615383e-03 1.0106905e-04 
5.4061739e-03 4.8487796e-03 -8.8928855e-04 
5.5004638e-03 4.8804702e-03 -7.0481724e-04 
5.4460592e-03 4.7594984e-03 -1.5682458e-04 
5.3642304e-03 4.6657878e-03 4.2067818e-06 
5.4386607e-03 4.6831104e-03 2.4396936e-04 
5.5335932e-03 4.9202116e-03 -8.8543241e-04 
5.5922577e-03 4.9409638e-03 -7.1756338e-04 
5.6559495e-03 4.9632313e-03 -5.3844060e-04 
5.8151265e-03 5.0123958e-03 3.2443929e-04 
5.2917525e-03 4.7129728e-03 -5.3856219e-04 
5.4260152e-03 4.8133740e-03 -6.1746570e-04 
5.7080667e-03 4.9879253e-03 -4.0076024e-04 
5.3320220e-03 4.7430182e-03 -5.7715655e-04 
5.8241226e-03 5.0284690e-03 2.3925191e-04 
5.7303458e-03 4.9919868e-03 -2.4787337e-04 
5.3190389e-03 4.7835121e-03 -9.4997964e-04 
5.5244849e-03 4.8269024e-03 -2.0836791e-04 
5.7484978e-03 4.9963687e-03 -1.3674288e-04 
5.8969976e-03 5.1233661e-03 -1.1534832e-04 
5.7647782e-03 5.0083725e-03 -6.1114864e-05 
5.3410763e-03 4.7198674e-03 -4.7189154e-04 
5.3715631e-03 4.6697394e-03 9.3564769e-05 
5.4793949e-03 4.7664838e-03 5.6481793e-05 
5.0229551e-03 4.4579511e-03 -3.1096349e-04 
5.0395806e-03 4.5223385e-03 -5.8605563e-04 
5.1071937e-03 4.4460683e-03 1.1543751e-04 
5.0710524e-03 4.5698495e-03 -7.4496551e-04 
5.1796525e-03 4.4752285e-03 3.1859908e-04 
5.1057646e-03 4.6105734e-03 -8.7773346e-04 
5.1473440e-03 4.6446146e-03 -9.4487524e-04 
5.2410178e-03 4.5066425e-03 4.6067347e-04 
5.1973294e-03 4.6679098e-03 -8.9969835e-04 
5.2815583e-03 4.5376178e-03 5.1018939e-04 
5.2487785e-03 4.6804221e-03 -7.8579545e-04 
5.3182538e-03 4.5784609e-03 5.0917786e-04 
5.2905604e-03 4.6853176e-03 -5.9537910e-04 
5.3426041e-03 4.6127476e-03 4.7945019e-04 
5.3324620e-03 4.7006370e-03 -4.4094503e-04 
5.3684372e-03 4.6417131e-03 4.3232393e-04 
4.9989782e-03 4.4458159e-03 -3.6318434e-04 
5.3693554e-03 4.7115334e-03 -2.9929681e-04 
5.3944681e-03 4.6756379e-03 3.8080933e-04 
5.0932667e-03 4.5297462e-03 -4.7868368e-04 
5.4006050e-03 4.7248625e-03 -1.6985512e-04 
5.4150848e-03 4.7041350e-03 3.0256703e-04 
5.4247342e-03 4.7390019e-03 -7.5568794e-05 
5.4338779e-03 4.7267345e-03 2.1379814e-04 
4.9622711e-03 4.4501061e-03 -5.7390606e-04 
5.1540118e-03 4.5059803e-03 7.0558563e-05 
5.4461304e-03 4.7571678e-03 -2.7411304e-05 
5.4518501e-03 4.7512306e-03 9.3790841e-05 
5.4778960e-03 4.7875177e-03 -7.3864852e-05 
5.0487407e-03 4.4794399e-03 -3.8868381e-04 
4.8892037e-03 4.4398792e-03 -8.8961137e-04 
4.9730474e-03 4.3556821e-03 6.3418323e-05 
5.0723548e-03 4.4737584e-03 -2.0529400e-04 
4.7594579e-03 4.2930390e-03 -5.1533646e-04 
4.7839438e-03 4.3336512e-03 -6.5443804e-04 
4.8679844e-03 4.2425040e-03 2.1888906e-04 
4.8152963e-03 4.3757134e-03 -7.9176744e-04 
4.7990358e-03 4.2215236e-03 3.9298211e-06 
4.9252436e-03 4.2652572e-03 3.7100643e-04 
5.1545906e-03 4.5077223e-03 1.1709538e-04 
4.7979662e-03 4.3006842e-03 -4.3720991e-04 
4.9217395e-03 4.4368794e-03 -8.2639861e-04 
4.7452394e-03 4.2419066e-03 -3.2142122e-04 
4.9578361e-03 4.4342233e-03 -6.6392939e-04 
4.9833036e-03 4.4289036e-03 -4.9196515e-04 
4.7743246e-03 4.3467362e-03 -9.1297639e-04 
4.8599392e-03 4.2138090e-03 4.3750816e-04 
4.9732877e-03 4.3128189e-03 4.8862159e-04 
5.0072842e-03 4.4358470e-03 -3.5055168e-04 
4.6073040e-03 4.1320226e-03 -3.0225806e-04 
5.0567812e-03 4.4551794e-03 -2.1392001e-04 
4.9893982e-03 4.3370114e-03 4.6735347e-04 
4.6385848e-03 4.1438141e-03 -2.3361632e-04 
5.0920625e-03 4.4792220e-03 -1.0188056e-04 
5.1262197e-03 4.5035533e-03 -2.6263742e-05 
4.9921204e-03 4.3524173e-03 4.2076036e-04 
4.8347767e-03 4.1916189e-03 5.0176861e-04 
5.0225630e-03 4.3884492e-03 3.5997899e-04 
5.0549745e-03 4.4233822e-03 2.8235148e-04 
4.6123588e-03 4.2189094e-03 -8.3175185e-04 
4.5554242e-03 4.1640992e-03 -7.2292250e-04 
4.5265490e-03 4.1243760e-03 -6.0212275e-04 
4.5885001e-03 4.0370720e-03 1.1788189e-04 
4.6519828e-03 4.0604463e-03 2.8764893e-04 
4.6230783e-03 4.1005961e-03 -7.4416945e-05 
4.6134857e-03 4.1818181e-03 -6.3647045e-04 
4.4662850e-03 4.0556430e-03 -4.7449738e-04 
4.6590203e-03 4.2057168e-03 -6.1603927e-04 
5.0722514e-03 4.4667688e-03 -3.4356730e-05 
4.5237262e-03 4.0949755e-03 -4.9658702e-04 
4.4884137e-03 4.0553482e-03 -4.1139635e-04 
4.4562784e-03 4.0125786e-03 -3.0818261e-04 
4.9723932e-03 4.3701068e-03 1.5633368e-04 
4.7362391e-03 4.1947351e-03 -8.2704079e-05 
4.6724756e-03 4.1659684e-03 -2.8480194e-04 
4.7713113e-03 4.2067436e-03 8.8373912e-05 
4.5915418e-03 4.1596135e-03 -7.3059864e-04 
4.5057382e-03 4.0305858e-03 -2.1388519e-04 
4.7915424e-03 4.2435611e-03 -1.3638796e-04 
4.6087629e-03 4.1424213e-03 -5.5852457e-04 
4.5495569e-03 4.0228767e-03 8.8201479e-05 
4.4253222e-03 4.0681609e-03 -8.7468023e-04 
4.5108651e-03 3.9356430e-03 4.2932245e-04 
4.3370090e-03 3.9956551e-03 -7.5622171e-04 
4.3075257e-03 3.9588027e-03 -6.4863497e-04 
4.3681441e-03 4.0277946e-03 -8.4023149e-04 
4.6237363e-03 4.1362289e-03 -3.9888424e-04 
4.2809597e-03 3.9173719e-03 -5.2183744e-04 
4.3185088e-03 3.8455632e-03 -7.8903740e-06 
4.3850425e-03 3.8592862e-03 2.0151872e-04 
4.4406201e-03 3.8869008e-03 3.4070687e-04 
4.5708525e-03 3.9868383e-03 4.9780909e-04 
4.6564126e-03 4.1482970e-03 -2.5054044e-04 
4.7546215e-03 4.2105080e-03 -3.8004040e-05 
4.5686197e-03 4.0003881e-03 4.8256747e-04 
4.2039808e-03 3.8136989e-03 -2.9655249e-04 
4.3069734e-03 3.8431752e-03 -2.1494498e-05 
4.5609931e-03 4.0063215e-03 4.5152163e-04 
4.3369448e-03 3.8538855e-03 5.8012334e-05 
4.6187853e-03 4.0734918e-03 3.4135435e-04 
4.6600280e-03 4.1150879e-03 2.5595192e-04 
4.5751594e-03 4.0259841e-03 3.9687325e-04 
4.3928237e-03 3.8400970e-03 4.8388451e-04 
4.4105430e-03 3.9137686e-03 1.0629175e-04 
4.2105573e-03 3.8486028e-03 -4.8842112e-04 
4.3150010e-03 3.9568916e-03 -7.9500495e-04 
4.1586757e-03 3.7765810e-03 -2.9850565e-04 
4.7129174e-03 4.1810675e-03 -3.6962704e-06 
4.2430502e-03 3.8840505e-03 -5.9146911e-04 
4.2793364e-03 3.7995786e-03 1.3271555e-04 
4.0981509e-03 3.7994795e-03 -6.8836927e-04 
4.0714382e-03 3.7614889e-03 -5.7531142e-04 
4.1239578e-03 3.6714000e-03 1.0003692e-04 
4.1843429e-03 3.6927841e-03 2.6116255e-04 
4.1174674e-03 3.8252114e-03 -7.8776071e-04 
4.0347036e-03 3.7126956e-03 -4.6144801e-04 
4.0635737e-03 3.6585783e-03 -8.4086380e-05 
4.2177392e-03 3.8117208e-03 -2.9383821e-04 
4.1555082e-03 3.7516430e-03 -1.9324319e-04 
4.3195942e-03 3.8778253e-03 -2.1010925e-04 
4.5265034e-03 4.0171649e-03 1.7013763e-04 
4.5079342e-03 4.0143877e-03 2.1688558e-05 
4.4234945e-03 3.9522848e-03 -9.3465766e-05 
4.0950724e-03 3.8028057e-03 -8.3853502e-04 
4.1717780e-03 3.6647827e-03 4.0584232e-04 
4.2000934e-03 3.8347628e-03 -6.3914014e-04 
4.0618610e-03 3.6631124e-03 -1.1399740e-04 
4.2477031e-03 3.7342014e-03 4.8604843e-04 
3.9611193e-03 3.6297885e-03 -3.4729709e-04 
4.0038968e-03 3.6915636e-03 -5.3931464e-04 
4.2032683e-03 3.7376308e-03 2.3207307e-04 
4.2029051e-03 3.7967658e-03 -3.7014674e-04 
3.9005391e-03 3.6472278e-03 -7.1814167e-04 
3.9325580e-03 3.6754103e-03 -7.9353555e-04 
3.8721899e-03 3.6124836e-03 -6.2042393e-04 
3.8461965e-03 3.5723676e-03 -5.0042087e-04 
4.3157134e-03 3.8390432e-03 2.9253736e-04 
3.8776048e-03 3.4965698e-03 -1.7620783e-05 
3.9394740e-03 3.5107001e-03 1.7865369e-04 
3.9921207e-03 3.5299538e-03 3.1597322e-04 
3.8122979e-03 3.5017019e-03 -2.8459611e-04 
3.9495407e-03 3.6399111e-03 -5.1746290e-04 
3.9766803e-03 3.5631822e-03 7.7103337e-05 
3.9889961e-03 3.6946062e-03 -7.6691672e-04 
4.0491140e-03 3.5680877e-03 4.5983074e-04 
4.3671364e-03 3.9029520e-03 2.4428347e-05 
4.1334531e-03 3.6612668e-03 4.6134106e-04 
3.8386537e-03 3.5477467e-03 -4.4363152e-04 
3.8153038e-03 3.4763701e-03 -1.5849879e-04 
3.9994712e-03 3.5946080e-03 4.4089164e-05 
4.0914095e-03 3.6408533e-03 4.1161673e-04 
4.1795690e-03 3.7521585e-03 3.7216854e-05 
3.9666840e-03 3.5095026e-03 4.8013014e-04 
4.1820519e-03 3.7434965e-03 1.8192522e-04 
3.7823080e-03 3.5517837e-03 -8.0705871e-04 
3.8557076e-03 3.4150223e-03 3.8579697e-04 
3.8199096e-03 3.5131124e-03 -3.7634958e-04 
3.8746246e-03 3.4835981e-03 1.0827520e-04 
3.7622096e-03 3.4709200e-03 -3.8294075e-04 
3.8939759e-03 3.5792096e-03 -5.7600462e-04 
3.7094133e-03 3.4951437e-03 -7.3886651e-04 
3.6809966e-03 3.4636566e-03 -6.5690064e-04 
3.6539570e-03 3.4290769e-03 -5.5380608e-04 
3.6307266e-03 3.3887450e-03 -4.3380327e-04 
3.7427961e-03 3.4123128e-03 -1.2608391e-04 
3.7017472e-03 3.3356959e-03 8.5296248e-05 
3.6567012e-03 3.3331669e-03 -8.6297019e-05 
3.7595250e-03 3.3536863e-03 2.4452407e-04 
4.0254472e-03 3.6364924e-03 -1.0668779e-04 
3.6070759e-03 3.3364703e-03 -2.8675696e-04 
3.6242048e-03 3.3692939e-03 -3.9080554e-04 
3.6692056e-03 3.4365866e-03 -6.2852289e-04 
3.9991117e-03 3.5863372e-03 3.0751096e-04 
3.7873122e-03 3.4268508e-03 3.9305494e-05 
3.6851766e-03 3.4487522e-03 -7.3553983e-04 
3.7438227e-03 3.3273597e-03 4.4650212e-04 
4.0462073e-03 3.6451798e-03 4.7837068e-05 
3.7970885e-03 3.4775049e-03 -3.3861268e-04 
3.6432433e-03 3.2882076e-03 1.3902932e-04 
3.5915996e-03 3.3159771e-03 -2.8083543e-04 
3.6039914e-03 3.2233782e-03 2.9418422e-04 
3.4954227e-03 3.3203908e-03 -6.8470236e-04 
3.4693046e-03 3.2869927e-03 -5.9287495e-04 
3.5245563e-03 3.3488162e-03 -7.5373147e-04 
3.4456858e-03 3.2496443e-03 -4.8349649e-04 
3.4311449e-03 3.1956404e-03 -2.7543408e-04 
3.4707400e-03 3.1731881e-03 -2.6754355e-05 
3.5310253e-03 3.1834266e-03 1.6372018e-04 
3.4904517e-03 3.1905172e-03 -2.7156440e-05 
3.8719128e-03 3.5039338e-03 5.0472863e-05 
3.5383082e-03 3.3107942e-03 -5.2605144e-04 
3.5775767e-03 3.2787709e-03 -1.3218874e-04 
3.8734793e-03 3.4943400e-03 2.0177499e-04 
3.4611884e-03 3.2550250e-03 -5.0359825e-04 
3.5566655e-03 3.1803024e-03 3.6875485e-04 
3.4890140e-03 3.3150590e-03 -7.7010575e-04 
3.5705662e-03 3.3070666e-03 -3.7524552e-04 
3.6018610e-03 3.3434539e-03 -5.5463094e-04 
3.6335178e-03 3.2441514e-03 4.7846168e-04 
3.4565693e-03 3.2549507e-03 -5.4703071e-04 
3.4516321e-03 3.1549279e-03 2.6830401e-07 
3.3702974e-03 3.1648863e-03 -3.8573775e-04 
3.3492062e-03 3.1306315e-03 -2.8696732e-04 
3.6967797e-03 3.3665688e-03 -6.2801948e-05 
3.3982282e-03 3.1527758e-03 -2.2354838e-04 
3.3896996e-03 3.0623225e-03 2.2515458e-04 
3.6492776e-03 3.2892118e-03 4.1154271e-04 
3.6998328e-03 3.3413125e-03 3.2496531e-04 
3.2943240e-03 3.1509364e-03 -6.2656449e-04 
3.3209831e-03 3.1822938e-03 -7.0550840e-04 
3.2706077e-03 3.1170300e-03 -5.2969018e-04 
3.2484902e-03 3.0797620e-03 -4.1669732e-04 
3.2776832e-03 3.0308801e-03 -8.5991422e-05 
3.3390769e-03 3.1969736e-03 -7.4742181e-04 
3.3124711e-03 3.0258780e-03 7.3225434e-05 
3.3992322e-03 3.2190795e-03 -7.0506410e-04 
3.4527581e-03 3.0943516e-03 4.3722073e-04 
3.7404837e-03 3.3994520e-03 6.8750138e-05 
3.4689615e-03 3.1905998e-03 -1.1445927e-04 
3.4272703e-03 3.1276960e-03 1.0104587e-04 
3.2723460e-03 3.0247518e-03 -7.0625720e-05 
3.2824297e-03 3.1160812e-03 -5.3528574e-04 
3.2292430e-03 3.0075896e-03 -1.5977900e-04 
3.4529138e-03 3.1364076e-03 2.3308826e-04 
3.3025329e-03 3.1067594e-03 -4.4133302e-04 
3.1782850e-03 3.0029607e-03 -3.3593393e-04 
3.5747970e-03 3.2651951e-03 6.0443806e-05 
3.5758801e-03 3.2548646e-03 2.1859416e-04 
3.2762140e-03 2.9566260e-03 3.5336090e-04 
3.2128745e-03 3.0896778e-03 -7.4279745e-04 
3.3447428e-03 3.0143855e-03 4.7102073e-04 
3.2635785e-03 2.9937376e-03 1.0454685e-04 
3.1259877e-03 2.8932968e-03 -1.4025288e-05 
3.3019565e-03 3.1123175e-03 -5.5409217e-04 
3.1749352e-03 2.8999434e-03 1.5651381e-04 
3.1273307e-03 3.0196023e-03 -6.5364025e-04 
3.2009867e-03 2.9341769e-03 1.2143283e-04 
3.1021440e-03 2.9892211e-03 -5.6914811e-04 
3.1541931e-03 3.0455196e-03 -7.1806891e-04 
3.0784409e-03 2.9525515e-03 -4.6414259e-04 
3.0644473e-03 2.8995229e-03 -2.6582758e-04 
3.1295132e-03 2.9157745e-03 -9.9257632e-05 
3.3305758e-03 3.0941903e-03 -2.9484101e-04 
3.3231254e-03 3.0085444e-03 4.7375765e-04 
3.4006892e-03 3.1352704e-03 -5.4546141e-05 
3.0741852e-03 2.9324479e-03 -4.1768921e-04 
3.4123797e-03 3.1130309e-03 3.3782711e-04 
3.0594871e-03 2.9300603e-03 -4.9085607e-04 
3.4501941e-03 3.1646970e-03 8.9542758e-05 
3.1768815e-03 2.8735597e-03 4.1857731e-04 
3.1306325e-03 3.0001504e-03 -6.7983917e-04 
2.9917560e-03 2.8428517e-03 -2.8393802e-04 
2.9722599e-03 2.7528284e-03 6.9289432e-05 
3.0182533e-03 2.7654862e-03 2.1289766e-04 
2.9386112e-03 2.8598665e-03 -6.0062908e-04 
2.9162006e-03 2.8282150e-03 -5.0910376e-04 
2.9278803e-03 2.7466647e-03 -8.1545913e-05 
2.8975809e-03 2.7939491e-03 -4.0179354e-04 
2.9566051e-03 2.8828143e-03 -6.7777029e-04 
3.2933131e-03 3.0375945e-03 6.9429581e-05 
3.2954933e-03 3.0270470e-03 2.3337796e-04 
2.9969083e-03 2.7879386e-03 3.1857540e-05 
3.0125915e-03 2.7439939e-03 3.3914793e-04 
2.9512909e-03 2.8751239e-03 -7.1960670e-04 
2.8841558e-03 2.7281656e-03 -1.5631517e-04 
2.9909774e-03 2.8476829e-03 -3.7396030e-04 
3.0555974e-03 2.9042377e-03 -5.1759620e-04 
3.0838752e-03 2.8011026e-03 4.6335495e-04 
3.0937025e-03 2.8501225e-03 2.2753834e-04 
2.8949785e-03 2.7056590e-03 1.2309649e-05 
2.9981339e-03 2.7852913e-03 6.8199966e-05 
2.8321331e-03 2.7206952e-03 -3.3009285e-04 
2.8488156e-03 2.7488507e-03 -4.1164595e-04 
3.1299482e-03 2.9097318e-03 -7.1908486e-05 
3.1405641e-03 2.8855479e-03 3.4841322e-04 
2.8352244e-03 2.6265599e-03 1.4394271e-04 
2.8785951e-03 2.6420103e-03 2.6499233e-04 
2.7793662e-03 2.6126164e-03 -2.0722391e-05 
2.7854112e-03 2.7391126e-03 -6.2425644e-04 
2.7608497e-03 2.7086320e-03 -5.4383843e-04 
2.7405815e-03 2.6747829e-03 -4.4719639e-04 
2.8066318e-03 2.7595225e-03 -6.8605744e-04 
3.0760569e-03 2.8226858e-03 4.2686288e-04 
3.1774933e-03 2.9402317e-03 1.0766823e-04 
2.9218595e-03 2.6652629e-03 4.0884269e-04 
2.8757788e-03 2.7904243e-03 -6.5794971e-04 
2.7109685e-03 2.6102026e-03 -2.5689535e-04 
2.7922059e-03 2.6662888e-03 -2.3671069e-04 
2.7542042e-03 2.6787191e-03 -4.6581661e-04 
2.7598122e-03 2.5840343e-03 7.1614792e-05 
2.8506808e-03 2.6956669e-03 -1.6124539e-04 
2.6796581e-03 2.6045837e-03 -3.6868270e-04 
2.7587735e-03 2.6621518e-03 -4.0108353e-04 
2.6612640e-03 2.5733875e-03 -2.8145695e-04 
3.0308054e-03 2.8205393e-03 7.8867881e-05 
3.0330988e-03 2.8102223e-03 2.4567524e-04 
2.7679938e-03 2.5458590e-03 3.2026879e-04 
2.7098230e-03 2.6743142e-03 -6.9453794e-04 
2.7565905e-03 2.6014890e-03 -2.9510875e-05 
2.7543178e-03 2.5757984e-03 1.1944171e-04 
2.7895146e-03 2.6943197e-03 -5.2331609e-04 
2.6484733e-03 2.4849868e-03 6.7713692e-05 
2.6133689e-03 2.5908626e-03 -5.7356537e-04 
2.6363721e-03 2.6167594e-03 -6.4091332e-04 
2.5933238e-03 2.5617280e-03 -4.8793608e-04 
2.5751225e-03 2.5279273e-03 -3.8712798e-04 
2.8043988e-03 2.5704710e-03 4.4994272e-04 
2.6478050e-03 2.5245037e-03 -1.0459264e-04 
2.6874423e-03 2.4927964e-03 2.1620396e-04 
2.5930377e-03 2.4722039e-03 -8.0100312e-05 
2.8300581e-03 2.6852684e-03 -2.7756748e-04 
2.8849442e-03 2.7073496e-03 -4.2876047e-05 
2.8890008e-03 2.6819073e-03 3.5956132e-04 
2.6095142e-03 2.5709737e-03 -5.5856683e-04 
2.9201363e-03 2.7290306e-03 1.2140884e-04 
2.6813741e-03 2.4688612e-03 3.9236192e-04 
2.6376706e-03 2.5915331e-03 -6.3208735e-04 
2.7193802e-03 2.5307124e-03 2.8691351e-04 
2.5172078e-03 2.4612094e-03 -3.2306800e-04 
2.5512741e-03 2.5076829e-03 -4.4305559e-04 
2.4952241e-03 2.4182813e-03 -1.9688487e-04 
2.7431652e-03 2.5323268e-03 4.7054680e-04 
2.5782341e-03 2.5003722e-03 -3.0366960e-04 
2.6557860e-03 2.4921226e-03 1.6928995e-04 
2.5609082e-03 2.4292141e-03 1.6920982e-05 
2.5206576e-03 2.3676979e-03 1.3452074e-04 
2.4720083e-03 2.4759048e-03 -5.9311476e-04 
2.4516990e-03 2.4495765e-03 -5.2137871e-04 
2.4329016e-03 2.4179132e-03 -4.2936820e-04 
2.4667433e-03 2.3558598e-03 -1.7363247e-05 
2.4966113e-03 2.5005981e-03 -6.5283244e-04 
2.5712110e-03 2.4757537e-03 -1.9781319e-04 
2.4873493e-03 2.3838154e-03 -6.4892156e-05 
2.5367909e-03 2.4931042e-03 -4.8268991e-04 
2.7815308e-03 2.6175631e-03 8.4726671e-05 
2.7834030e-03 2.6077665e-03 2.5620684e-04 
2.5332712e-03 2.3540664e-03 3.0556260e-04 
2.4820785e-03 2.4817926e-03 -6.6536781e-04 
2.3730921e-03 2.3303924e-03 -2.4761644e-04 
2.5998100e-03 2.4040940e-03 4.4405731e-04 
2.5669760e-03 2.5006670e-03 -4.8489944e-04 
2.5252711e-03 2.3831462e-03 1.2112689e-04 
2.4652192e-03 2.3799450e-03 -1.3814497e-04 
2.4506717e-03 2.4301182e-03 -4.9660722e-04 
2.5862907e-03 2.4726912e-03 -1.2946564e-04 
2.3773098e-03 2.3532275e-03 -3.5971022e-04 
2.3622913e-03 2.3250242e-03 -2.7744586e-04 
2.6136613e-03 2.4906162e-03 -6.5251596e-05 
2.6493953e-03 2.4871589e-03 3.6650841e-04 
2.4807097e-03 2.3993815e-03 -2.1957674e-04 
2.3951221e-03 2.2549548e-03 1.9060029e-04 
2.3584978e-03 2.2862644e-03 -1.1241158e-04 
2.3166721e-03 2.3424467e-03 -5.4787775e-04 
2.3395414e-03 2.3670292e-03 -6.1042345e-04 
2.2980238e-03 2.3140260e-03 -4.6822624e-04 
2.3638781e-03 2.3865493e-03 -6.4680720e-04 
2.3486698e-03 2.2373726e-03 6.5100940e-05 
2.2818663e-03 2.2823892e-03 -3.7135481e-04 
2.6756637e-03 2.5291764e-03 1.3416058e-04 
2.4756088e-03 2.3420840e-03 1.6919688e-04 
2.4545682e-03 2.2833308e-03 3.7802325e-04 
2.3820538e-03 2.3757862e-03 -5.3822855e-04 
2.4138775e-03 2.4012546e-03 -6.0734997e-04 
2.3946785e-03 2.3477017e-03 -3.0700074e-04 
2.5853240e-03 2.4194019e-03 4.4271810e-04 
2.2818772e-03 2.2133619e-03 -7.6634860e-05 
2.2947236e-03 2.2942044e-03 -4.2074858e-04 
2.2634724e-03 2.2094578e-03 -1.2634383e-04 
2.3485434e-03 2.2483137e-03 5.3968997e-05 
2.5453430e-03 2.4234038e-03 8.8666748e-05 
2.5471279e-03 2.4131150e-03 2.6517850e-04 
2.2241683e-03 2.2159095e-03 -3.0651240e-04 
2.3166123e-03 2.1745169e-03 2.8883026e-04 
2.2716206e-03 2.3025938e-03 -6.3594291e-04 
2.2561832e-03 2.2617485e-03 -4.4923034e-04 
2.2371532e-03 2.1965159e-03 -1.7245441e-04 
2.3269071e-03 2.3057330e-03 -4.9431197e-04 
2.3528968e-03 2.1966104e-03 4.2633296e-04 
2.2309930e-03 2.1283987e-03 1.2848061e-04 
2.1896814e-03 2.2372862e-03 -5.6847651e-04 
2.1676507e-03 2.2113421e-03 -4.9913680e-04 
2.2138355e-03 2.2597571e-03 -6.2092597e-04 
2.1834292e-03 2.1170755e-03 -1.3749602e-05 
2.1343778e-03 2.1660838e-03 -4.0603740e-04 
2.2215664e-03 2.1211377e-03 1.4906497e-04 
2.1489363e-03 2.1661569e-03 -3.8257978e-04 
2.4199525e-03 2.2953572e-03 3.7246506e-04 
2.3990658e-03 2.3083228e-03 -2.8601986e-05 
2.1496969e-03 2.1062843e-03 -8.6858068e-05 
2.4450067e-03 2.3368883e-03 1.4617410e-04 
2.1971052e-03 2.2000615e-03 -4.1714433e-04 
2.2438355e-03 2.1057876e-03 3.6510703e-04 
2.2074238e-03 2.2293217e-03 -5.8509666e-04 
2.0966150e-03 2.1025348e-03 -2.7098073e-04 
2.2463708e-03 2.1853612e-03 -7.0899441e-05 
2.2620014e-03 2.2182497e-03 -2.4201060e-04 
2.2249364e-03 2.1976230e-03 -2.9325855e-04 
2.2758476e-03 2.1601000e-03 2.9799086e-04 
2.1598591e-03 2.1145795e-03 -7.8293626e-05 
2.2992860e-03 2.1645541e-03 4.6461992e-04 
2.2844358e-03 2.2328312e-03 -2.7429301e-04 
2.0519490e-03 2.0581381e-03 -2.3547401e-04 
2.3106434e-03 2.2315648e-03 6.5013442e-06 
2.2194574e-03 2.1238565e-03 1.7792733e-04 
2.1136748e-03 2.1371089e-03 -4.1622127e-04 
2.2428979e-03 2.1640721e-03 9.0385962e-05 
2.1607606e-03 2.1152669e-03 -7.2817478e-05 
2.1167886e-03 2.0221209e-03 1.8033179e-04 
2.0452326e-03 2.1099963e-03 -5.2330311e-04 
2.0664399e-03 2.1338800e-03 -5.8047473e-04 
2.0268389e-03 2.0816929e-03 -4.4780687e-04 
2.0747087e-03 2.0096363e-03 5.9658032e-05 
2.1421737e-03 2.0579479e-03 1.4647940e-04 
2.3239446e-03 2.2374142e-03 9.3587259e-05 
1.9957188e-03 2.0405487e-03 -3.6883185e-04 
2.3257169e-03 2.2281744e-03 2.7041804e-04 
2.1627250e-03 2.1636037e-03 -4.7021901e-04 
2.1142655e-03 2.0065852e-03 2.7083440e-04 
2.0707471e-03 2.1308945e-03 -6.1266037e-04 
2.1726952e-03 2.0478917e-03 4.1818211e-04 
2.0103543e-03 2.0422379e-03 -3.4598494e-04 
1.9923907e-03 1.9692238e-03 -7.5989679e-05 
2.0612504e-03 1.9965172e-03 8.7980101e-05 
1.9469965e-03 1.9729652e-03 -2.5751258e-04 
1.9547623e-03 1.9441918e-03 -1.0395161e-04 
2.1913552e-03 2.1164564e-03 1.8527279e-04 
2.1694961e-03 2.1153872e-03 -5.7365029e-05 
2.2313492e-03 2.1560551e-03 1.5589577e-04 
2.0076688e-03 1.9221433e-03 2.2481634e-04 
1.9778237e-03 2.0098158e-03 -3.5541956e-04 
1.9289047e-03 2.0128551e-03 -5.4040377e-04 
1.9111977e-03 1.9888792e-03 -4.7673471e-04 
1.9516025e-03 2.0331787e-03 -5.8670208e-04 
1.8885245e-03 1.9381479e-03 -3.1811773e-04 
1.8962675e-03 1.9630534e-03 -3.9763196e-04 
2.1904118e-03 2.1057578e-03 3.5926260e-04 
1.9678769e-03 1.9074685e-03 1.1748329e-04 
2.0465299e-03 1.9434962e-03 3.4588453e-04 
2.0129301e-03 2.0601440e-03 -5.5970403e-04 
1.9258570e-03 1.8975160e-03 -1.3844269e-05 
1.9787068e-03 1.9548957e-03 -4.6201083e-05 
1.9315068e-03 1.9898624e-03 -4.4286932e-04 
2.0312245e-03 2.0170140e-03 -2.0062715e-04 
2.0341487e-03 1.9709372e-03 1.7113831e-04 
1.8805773e-03 1.9265478e-03 -3.0944712e-04 
2.0380646e-03 1.9652003e-03 2.6013437e-04 
2.0894627e-03 2.0049326e-03 4.3899377e-04 
1.9283204e-03 1.9625896e-03 -3.5328057e-04 
2.1218311e-03 2.0649040e-03 9.8091652e-05 
1.9217742e-03 1.8783514e-03 8.9961977e-05 
2.1214944e-03 2.0559430e-03 2.7572780e-04 
1.9262827e-03 1.8481468e-03 2.5637215e-04 
1.8868103e-03 1.9697924e-03 -5.9104513e-04 
1.9585264e-03 1.9811967e-03 -4.2801403e-04 
1.9583071e-03 1.8659440e-03 4.0044135e-04 
1.8005703e-03 1.8958232e-03 -4.9913093e-04 
1.8195866e-03 1.9177122e-03 -5.5113091e-04 
1.7836163e-03 1.8710814e-03 -4.2784796e-04 
1.8660103e-03 1.8089830e-03 1.6782168e-04 
1.7704850e-03 1.8432441e-03 -3.4560612e-04 
1.8968385e-03 1.8485488e-03 1.5237270e-04 
2.0039310e-03 1.9648853e-03 5.3518099e-05 
1.8285146e-03 1.8437179e-03 -1.3756489e-04 
1.8264805e-03 1.7959618e-03 5.6183057e-05 
1.7508704e-03 1.7993189e-03 -2.2900707e-04 
1.7651862e-03 1.7697457e-03 -5.3869266e-05 
2.0148729e-03 1.9542542e-03 3.7445372e-04 
1.9939989e-03 1.9652387e-03 -1.6356073e-05 
1.7587617e-03 1.8129384e-03 -2.6931774e-04 
1.7678929e-03 1.8333847e-03 -3.3547243e-04 
1.8002612e-03 1.7903191e-03 -8.5160336e-06 
2.0330674e-03 1.9877858e-03 1.6460754e-04 
1.7918554e-03 1.8712970e-03 -4.7617883e-04 
1.8114132e-03 1.8103645e-03 -4.5762132e-05 
1.8648426e-03 1.7886491e-03 3.2774985e-04 
1.8308306e-03 1.9001246e-03 -5.3904206e-04 
1.8935066e-03 1.8343916e-03 2.9966203e-04 
1.8508127e-03 1.8734368e-03 -2.5029198e-04 
1.7528593e-03 1.7613440e-03 -6.2799598e-05 
1.9127767e-03 1.8365369e-03 4.3900227e-04 
1.9016407e-03 1.9065571e-03 -2.5749605e-04 
1.7587990e-03 1.8316654e-03 -3.9267671e-04 
1.8225368e-03 1.8428216e-03 -1.8408347e-04 
1.8455767e-03 1.8038525e-03 1.8145141e-04 
1.7976720e-03 1.7597222e-03 1.4027154e-04 
1.7831724e-03 1.8252743e-03 -2.7215228e-04 
1.7438849e-03 1.7140583e-03 1.0854270e-04 
1.8398613e-03 1.8527716e-03 -2.0311819e-04 
1.7184902e-03 1.8270514e-03 -5.5787765e-04 
1.6954979e-03 1.8066217e-03 -5.1435665e-04 
1.6780015e-03 1.7835198e-03 -4.5356521e-04 
1.6648637e-03 1.7587657e-03 -3.7964608e-04 
1.8124355e-03 1.8070624e-03 1.1451398e-06 
1.9312381e-03 1.9035403e-03 1.0282794e-04 
1.6909456e-03 1.6938368e-03 -1.1278767e-05 
1.7471258e-03 1.8148264e-03 -4.1256574e-04 
1.9322699e-03 1.8945645e-03 2.8051707e-04 
1.7958122e-03 1.8452067e-03 -4.3476242e-04 
1.8769787e-03 1.8391748e-03 2.7335490e-04 
1.6366936e-03 1.7193623e-03 -3.1015003e-04 
1.7515809e-03 1.6998242e-03 2.3772722e-04 
1.7155177e-03 1.8173171e-03 -5.6449592e-04 
1.6486805e-03 1.6823906e-03 -1.1750855e-04 
1.7557417e-03 1.7379033e-03 9.4568459e-05 
1.8056356e-03 1.7363111e-03 3.9324161e-04 
1.8790506e-03 1.8523546e-03 1.6049309e-04 
1.6631896e-03 1.7450743e-03 -3.5738427e-04 
1.6349128e-03 1.7023870e-03 -2.5093745e-04 
1.6849805e-03 1.7697875e-03 -4.2939195e-04 
1.6347624e-03 1.6739829e-03 -1.3290788e-04 
1.6435282e-03 1.6958534e-03 -2.0064366e-04 
1.6638013e-03 1.6714130e-03 -5.2418154e-06 
1.7801698e-03 1.7641967e-03 1.3783315e-04 
1.6607258e-03 1.6309603e-03 1.6379538e-04 
1.6383661e-03 1.6971355e-03 -2.4632688e-04 
1.8500427e-03 1.8301456e-03 1.7232649e-04 
1.7980317e-03 1.7939403e-03 -3.8952454e-05 
1.8189645e-03 1.7861829e-03 3.5755130e-04 
1.6942903e-03 1.6407395e-03 3.1592898e-04 
1.6497151e-03 1.6433499e-03 7.7102981e-05 
1.6128713e-03 1.6089174e-03 5.9700502e-05 
1.6648679e-03 1.7529126e-03 -5.1240838e-04 
1.5780724e-03 1.6982347e-03 -4.7378117e-04 
1.5546934e-03 1.6536079e-03 -3.4149835e-04 
1.5956557e-03 1.7175219e-03 -5.2395306e-04 
1.5632026e-03 1.6745932e-03 -4.0934034e-04 
1.6167861e-03 1.7339598e-03 -5.4981041e-04 
1.7768540e-03 1.7607949e-03 1.6586015e-04 
1.5652778e-03 1.5976753e-03 -6.9018584e-05 
1.6306196e-03 1.6895721e-03 -2.6389450e-04 
1.6856035e-03 1.6666035e-03 1.8302338e-04 
1.6819370e-03 1.7114118e-03 -1.5337420e-04 
1.6169543e-03 1.6432272e-03 -6.0716749e-05 
1.5497040e-03 1.5899763e-03 -9.5264797e-05 
1.7329805e-03 1.6987509e-03 4.2372459e-04 
1.7574979e-03 1.7506758e-03 1.0485187e-04 
1.5178863e-03 1.6007107e-03 -2.6116541e-04 
1.5675471e-03 1.6653991e-03 -4.2065475e-04 
1.7583580e-03 1.7423045e-03 2.8104088e-04 
1.5402288e-03 1.6396111e-03 -3.8450275e-04 
1.5236783e-03 1.6227239e-03 -3.5027982e-04 
1.5889088e-03 1.5580446e-03 2.2134744e-04 
1.5562680e-03 1.6737209e-03 -5.4241274e-04 
1.6194340e-03 1.6831257e-03 -3.9614321e-04 
1.4695608e-03 1.5490204e-03 -2.1503703e-04 
1.5828202e-03 1.5779430e-03 1.2283704e-04 
1.5889608e-03 1.6511265e-03 -2.9254111e-04 
1.6184293e-03 1.5723917e-03 3.7199413e-04 
1.5327641e-03 1.5266925e-03 1.1656446e-04 
1.5517793e-03 1.6410172e-03 -3.9689097e-04 
1.5075876e-03 1.6372609e-03 -5.2935077e-04 
1.4840537e-03 1.6159733e-03 -4.8715062e-04 
1.4673106e-03 1.5948028e-03 -4.3262733e-04 
1.4553108e-03 1.5708092e-03 -3.6148596e-04 
1.5260559e-03 1.5574972e-03 -4.4901404e-05 
1.5145143e-03 1.5810941e-03 -1.9848582e-04 
1.4890444e-03 1.5107770e-03 6.9936623e-06 
1.6686018e-03 1.6526578e-03 3.6971344e-04 
1.6467905e-03 1.6602396e-03 -3.7216864e-06 
1.6806817e-03 1.6810304e-03 1.7644629e-04 
1.4939237e-03 1.5719789e-03 -2.6848490e-04 
1.5389485e-03 1.5045609e-03 2.9808545e-04 
1.5104434e-03 1.6122181e-03 -4.8929261e-04 
1.6040795e-03 1.6211042e-03 2.0079700e-05 
1.5627613e-03 1.5443134e-03 2.9758911e-04 
1.5804252e-03 1.5471261e-03 4.2312901e-04 
1.5505517e-03 1.5864827e-03 -1.1056699e-04 
1.4617285e-03 1.5748003e-03 -4.4336787e-04 
1.4075203e-03 1.4793572e-03 -1.6277538e-04 
1.5210477e-03 1.5167579e-03 1.8119438e-04 
1.4194661e-03 1.5234001e-03 -3.1873336e-04 
1.4108369e-03 1.5039515e-03 -2.5798375e-04 
1.4260364e-03 1.4763448e-03 -8.0781923e-05 
1.5600764e-03 1.6002837e-03 -1.8635631e-04 
1.4179717e-03 1.5254633e-03 -3.4933814e-04 
1.5847853e-03 1.5933517e-03 1.8269125e-04 
1.3989913e-03 1.4735727e-03 -1.7434357e-04 
1.4952399e-03 1.5190527e-03 4.0181687e-05 
1.4145961e-03 1.4306736e-03 6.7448222e-05 
1.3778493e-03 1.5159157e-03 -4.5075212e-04 
1.5940084e-03 1.6068306e-03 1.0542262e-04 
1.3643571e-03 1.4948123e-03 -3.9021319e-04 
1.3540997e-03 1.4705122e-03 -3.1701423e-04 
1.5946975e-03 1.5998508e-03 2.8098715e-04 
1.3919380e-03 1.5317900e-03 -5.0036667e-04 
1.3720813e-03 1.4183006e-03 -4.8819082e-05 
1.4773894e-03 1.5587898e-03 -3.9088275e-04 
1.4384240e-03 1.4269025e-03 2.0916254e-04 
1.4089879e-03 1.5386940e-03 -5.1772088e-04 
1.4112182e-03 1.4355306e-03 5.5632838e-05 
1.4881829e-03 1.4572204e-03 3.6533072e-04 
1.4253787e-03 1.4620177e-03 3.2629639e-06 
1.3209905e-03 1.4254421e-03 -2.5596243e-04 
1.3767511e-03 1.4556698e-03 -1.9856883e-04 
1.3261595e-03 1.4010326e-03 -1.3921365e-04 
1.3249529e-03 1.4208278e-03 -2.2426782e-04 
1.3235554e-03 1.3982895e-03 -1.4060564e-04 
1.3262322e-03 1.4310837e-03 -2.7421158e-04 
1.5080973e-03 1.5361480e-03 -2.0686826e-05 
1.3305013e-03 1.4458916e-03 -3.3622110e-04 
1.3477165e-03 1.4670056e-03 -3.9088528e-04 
1.4528165e-03 1.4677529e-03 1.9097925e-04 
1.5232807e-03 1.5413519e-03 1.7960633e-04 
1.4997810e-03 1.5053023e-03 3.5213563e-04 
1.4075878e-03 1.4652229e-03 -1.2926255e-04 
1.3419207e-03 1.3544135e-03 1.1849307e-04 
1.3912822e-03 1.3734071e-03 2.8662983e-04 
1.3686604e-03 1.4810854e-03 -4.6815252e-04 
1.3617345e-03 1.4475496e-03 -2.6300369e-04 
1.2619512e-03 1.3809633e-03 -2.9122055e-04 
1.2942931e-03 1.4396668e-03 -4.6280996e-04 
1.2791053e-03 1.4207313e-03 -4.1140695e-04 
1.2663283e-03 1.3979059e-03 -3.4633931e-04 
1.4669516e-03 1.4734985e-03 3.0479563e-04 
1.3019762e-03 1.3384384e-03 1.9371828e-05 
1.3009383e-03 1.4442098e-03 -4.9715466e-04 
1.2615094e-03 1.3324952e-03 -1.0440658e-04 
1.3862306e-03 1.3963677e-03 1.9010124e-04 
1.2918407e-03 1.3682942e-03 -1.4373122e-04 
1.2505327e-03 1.3542902e-03 -2.3414899e-04 
1.2856553e-03 1.3340270e-03 -1.7859082e-05 
1.4282180e-03 1.4266931e-03 4.0928609e-04 
1.2940913e-03 1.3838725e-03 -2.1606857e-04 
1.4447230e-03 1.4718744e-03 1.0472505e-04 
1.4299687e-03 1.4526278e-03 1.7260697e-04 
1.4458667e-03 1.4648444e-03 2.7947201e-04 
1.2091846e-03 1.3114357e-03 -2.0360638e-04 
1.2981227e-03 1.3010731e-03 1.9439778e-04 
1.2738758e-03 1.4106830e-03 -4.9747346e-04 
1.2459871e-03 1.3701667e-03 -3.5011154e-04 
1.3271829e-03 1.4175072e-03 -3.6498066e-04 
1.2950692e-03 1.3185925e-03 1.2105577e-04 
1.2496165e-03 1.3748070e-03 -3.8247014e-04 
1.2152109e-03 1.2962676e-03 -1.2811244e-04 
1.3272215e-03 1.3130306e-03 3.4370398e-04 
1.1978052e-03 1.3480741e-03 -4.2884791e-04 
1.2141461e-03 1.3643850e-03 -4.6820566e-04 
1.1840803e-03 1.3266872e-03 -3.7195237e-04 
1.2346269e-03 1.2652542e-03 7.2620722e-05 
1.1750669e-03 1.3041706e-03 -3.0260038e-04 
1.1959042e-03 1.2542785e-03 -3.1613366e-05 
1.2140742e-03 1.3610061e-03 -4.8642213e-04 
1.3701778e-03 1.3876648e-03 3.5767662e-04 
1.2363885e-03 1.3484901e-03 -3.4656390e-04 
1.3544480e-03 1.3937781e-03 8.6272348e-07 
1.3788806e-03 1.4098429e-03 1.8045028e-04 
1.1746187e-03 1.2977241e-03 -3.0288412e-04 
1.2160391e-03 1.2558125e-03 5.6942987e-05 
1.2559250e-03 1.2515739e-03 2.7005217e-04 
1.2359449e-03 1.3556925e-03 -4.4901620e-04 
1.1831701e-03 1.2480537e-03 -5.1821731e-05 
1.2963379e-03 1.2897392e-03 4.0184340e-04 
1.3055141e-03 1.3477236e-03 3.8527975e-05 
1.2178058e-03 1.2808177e-03 -3.7071502e-05 
1.1383676e-03 1.2498298e-03 -2.2747376e-04 
1.2992955e-03 1.3275800e-03 2.0491434e-04 
1.2799219e-03 1.3443062e-03 -1.7770447e-04 
1.2321539e-03 1.2532456e-03 1.9164628e-04 
1.2382490e-03 1.2734740e-03 1.2971435e-04 
1.1673655e-03 1.2403652e-03 -7.8672718e-05 
1.3058049e-03 1.3446679e-03 1.0284009e-04 
1.1685769e-03 1.1936377e-03 1.2049702e-04 
1.1447078e-03 1.2361063e-03 -1.5156026e-04 
1.3066970e-03 1.3375056e-03 2.7695435e-04 
1.0939540e-03 1.2213053e-03 -2.7121429e-04 
1.2276922e-03 1.2971546e-03 -1.3948628e-04 
1.1214426e-03 1.2759594e-03 -4.3882604e-04 
1.1081251e-03 1.2580943e-03 -3.9169221e-04 
1.1383306e-03 1.2900447e-03 -4.6956394e-04 
1.0980545e-03 1.2378041e-03 -3.3013674e-04 
1.1340450e-03 1.1814433e-03 2.8346709e-05 
1.2101536e-03 1.3079769e-03 -3.5995842e-04 
1.1702738e-03 1.1838842e-03 1.8005603e-04 
1.1462120e-03 1.2896972e-03 -4.7414703e-04 
1.1706324e-03 1.2088559e-03 1.0055034e-04 
1.2146521e-03 1.2103376e-03 3.3668306e-04 
1.0973243e-03 1.1744434e-03 -8.0407663e-05 
1.1773242e-03 1.2742736e-03 -2.5939234e-04 
1.2684461e-03 1.3045014e-03 1.7721820e-04 
1.1310037e-03 1.1794511e-03 3.8131853e-05 
1.1086363e-03 1.2405505e-03 -3.5148952e-04 
1.0650150e-03 1.1653514e-03 -1.6193731e-04 
1.0874189e-03 1.1663202e-03 -8.4250598e-05 
1.2320546e-03 1.2827846e-03 -1.8497984e-05 
1.0695747e-03 1.1974907e-03 -2.9526115e-04 
1.2439634e-03 1.2863671e-03 1.8004669e-04 
1.2267617e-03 1.2570582e-03 3.4071127e-04 
1.1313775e-03 1.1370388e-03 2.5534749e-04 
1.0993485e-03 1.2042909e-03 -2.4170644e-04 
1.1112227e-03 1.2385964e-03 -4.2985784e-04 
1.0365491e-03 1.1918166e-03 -4.0611406e-04 
1.0507094e-03 1.2068539e-03 -4.4218136e-04 
1.0248665e-03 1.1731512e-03 -3.5311255e-04 
1.0668293e-03 1.2190598e-03 -4.6309337e-04 
1.0161734e-03 1.1519653e-03 -2.9007538e-04 
1.0723894e-03 1.1121929e-03 7.8814526e-05 
1.0389991e-03 1.1025133e-03 -1.6333473e-05 
1.1500235e-03 1.1766147e-03 2.8044975e-04 
1.1287531e-03 1.1517606e-03 2.4887003e-04 
1.0168360e-03 1.1333008e-03 -2.2331093e-04 
1.1668863e-03 1.1875461e-03 3.9311126e-04 
9.8755490e-04 1.1009618e-03 -1.9197191e-04 
1.0254395e-03 1.1603654e-03 -3.2938377e-04 
1.1758342e-03 1.2259566e-03 1.0122973e-04 
1.1513494e-03 1.2016017e-03 9.2571747e-05 
1.1778137e-03 1.2188382e-03 2.7251331e-04 
1.0326859e-03 1.1661982e-03 -3.6190398e-04 
1.0004890e-03 1.0893496e-03 -1.0710616e-04 
1.0501436e-03 1.0728065e-03 1.6828412e-04 
1.0309693e-03 1.1774839e-03 -4.5443076e-04 
1.0776722e-03 1.1817489e-03 -3.3482705e-04 
1.0148301e-03 1.0839102e-03 -2.4062438e-05 
1.0493716e-03 1.0872495e-03 1.1572692e-04 
1.0376087e-03 1.1137138e-03 -6.9767702e-05 
1.0801549e-03 1.0835509e-03 3.1334732e-04 
1.0258385e-03 1.1487360e-03 -3.3694526e-04 
9.8836701e-04 1.1444634e-03 -4.4562601e-04 
9.6826116e-04 1.1263579e-03 -4.1404113e-04 
9.5531420e-04 1.1095803e-03 -3.7183022e-04 
9.4625226e-04 1.0911792e-03 -3.1520354e-04 
1.1161437e-03 1.1655178e-03 1.6897661e-04 
9.9187088e-04 1.0979173e-03 -1.9453623e-04 
1.0253906e-03 1.1206034e-03 -1.7937827e-04 
9.8265440e-04 1.0353199e-03 3.7794518e-05 
1.1133092e-03 1.1495199e-03 3.4511980e-04 
1.1195423e-03 1.1706857e-03 1.7918412e-04 
1.1002953e-03 1.1589451e-03 2.1354738e-06 
9.4068435e-04 1.0459374e-03 -1.5840637e-04 
9.4955740e-04 1.0287425e-03 -6.1743827e-05 
9.6280954e-04 1.0579763e-03 -1.2866920e-04 
9.2231762e-04 1.0545956e-03 -2.5661680e-04 
1.0556013e-03 1.1032099e-03 1.5687601e-04 
1.0165063e-03 1.0280359e-03 2.3964565e-04 
9.3827653e-04 1.0667412e-03 -2.6142393e-04 
9.8215078e-04 1.0939192e-03 -2.4555062e-04 
9.4659941e-04 1.0814375e-03 -3.0482493e-04 
9.9902169e-04 1.1278294e-03 -4.1055764e-04 
9.5618714e-04 1.0900110e-03 -3.2419845e-04 
1.0393723e-03 1.0594320e-03 2.7958979e-04 
9.2579873e-04 1.0465394e-03 -2.2088396e-04 
1.0553614e-03 1.0649010e-03 3.7413044e-04 
1.0066631e-03 1.0392222e-03 1.7314081e-04 
1.0172455e-03 1.1014582e-03 -1.4625586e-04 
9.5810514e-04 1.0958044e-03 -3.7811816e-04 
1.0348503e-03 1.1156746e-03 -1.6228043e-04 
9.6219621e-04 1.0162381e-03 4.9841918e-05 
9.1734773e-04 1.0049612e-03 -9.0070796e-05 
1.0564004e-03 1.1142709e-03 1.0066007e-04 
9.8647329e-04 1.0425933e-03 7.5271666e-05 
1.0584731e-03 1.1069509e-03 2.6724685e-04 
8.8989979e-04 9.7862468e-04 -9.1409027e-05 
8.8433368e-04 9.9409849e-04 -1.6960705e-04 
8.9106173e-04 1.0478171e-03 -3.8409466e-04 
9.0425555e-04 1.0618146e-03 -4.1719706e-04 
8.7976624e-04 1.0303893e-03 -3.3593326e-04 
9.2708215e-04 9.7104005e-04 8.4258965e-05 
8.7045669e-04 1.0099785e-03 -2.8159417e-04 
9.7382150e-04 1.0831611e-03 -3.2962314e-04 
9.4278489e-04 9.7103755e-04 1.5586057e-04 
1.0241920e-03 1.0668180e-03 2.4986849e-04 
9.2394010e-04 1.0706428e-03 -4.3232899e-04 
9.8354788e-04 9.9116820e-04 3.0859135e-04 
8.9675741e-04 9.6255174e-04 -4.3479331e-06 
8.7214482e-04 1.0048433e-03 -2.7828803e-04 
8.8167773e-04 1.0183986e-03 -3.1355236e-04 
9.9450536e-04 1.0607485e-03 -1.7270597e-05 
9.0011227e-04 9.7121182e-04 -1.2158849e-05 
9.1289467e-04 1.0294777e-03 -2.8898130e-04 
8.8702259e-04 1.0231414e-03 -3.4608049e-04 
9.9511596e-04 1.0494178e-03 1.6808623e-04 
8.5157843e-04 9.6948456e-04 -2.0366303e-04 
1.0049969e-03 1.0618347e-03 1.7730318e-04 
9.0219278e-04 9.8925561e-04 -1.0088032e-04 
9.9155447e-04 1.0361597e-03 3.2534701e-04 
8.5405353e-04 9.3369832e-04 -5.1268209e-05 
8.6705224e-04 9.7645778e-04 -1.9344654e-04 
9.0991112e-04 9.2836010e-04 2.2697251e-04 
8.9408422e-04 1.0217364e-03 -3.9175519e-04 
9.1777352e-04 9.5338596e-04 1.8632787e-04 
8.8535494e-04 9.3399314e-04 8.5779167e-05 
8.0825487e-04 9.2369289e-04 -1.8080055e-04 
8.3057705e-04 9.8678551e-04 -3.8983265e-04 
8.1851560e-04 9.7150519e-04 -3.5073009e-04 
8.0959313e-04 9.5248985e-04 -2.9368023e-04 
9.4259228e-04 1.0086792e-03 3.1563184e-05 
8.4598007e-04 8.9975575e-04 4.4689936e-05 
8.3879766e-04 9.9212769e-04 -4.1622377e-04 
8.2286948e-04 9.5565710e-04 -2.8425205e-04 
8.1468822e-04 8.9385046e-04 -4.4656575e-05 
9.1327383e-04 9.5264555e-04 2.1886693e-04 
8.3135796e-04 9.6504041e-04 -3.1124422e-04 
9.4220130e-04 9.7376347e-04 3.7160568e-04 
9.4774639e-04 1.0090491e-03 9.7926903e-05 
9.4978901e-04 1.0032313e-03 2.6148916e-04 
8.2161592e-04 9.2370086e-04 -1.4594333e-04 
8.5959432e-04 9.2082826e-04 5.0200739e-05 
8.8146189e-04 9.5256814e-04 1.0756841e-05 
8.3999423e-04 8.7236887e-04 1.4633621e-04 
7.7657070e-04 8.9339301e-04 -1.8798720e-04 
8.2368491e-04 9.6811168e-04 -4.1396834e-04 
8.6398883e-04 9.7179081e-04 -3.0844790e-04 
8.1812515e-04 8.7919738e-04 2.9837543e-05 
7.8076054e-04 9.0325047e-04 -2.1920029e-04 
8.1302726e-04 9.4606564e-04 -3.2798637e-04 
8.6600560e-04 8.8027568e-04 2.8269403e-04 
7.7844097e-04 8.7588705e-04 -1.1596827e-04 
8.4295613e-04 9.3426910e-04 -1.5237223e-04 
7.6139835e-04 9.1557205e-04 -3.6169012e-04 
7.7368761e-04 9.2849630e-04 -3.9265343e-04 
7.5155817e-04 9.0019457e-04 -3.1790900e-04 
7.4475893e-04 8.8217796e-04 -2.6217679e-04 
7.9636893e-04 8.4098236e-04 8.7618828e-05 
8.8904338e-04 9.4789930e-04 1.5819490e-04 
8.9679769e-04 9.4308192e-04 3.2669026e-04 
7.8675424e-04 8.6559798e-04 -4.2816198e-05 
8.9890888e-04 9.5947238e-04 1.7333984e-04 
8.8157726e-04 9.4921072e-04 4.7980899e-07 
7.6840160e-04 8.3260512e-04 7.3118604e-06 
7.7730702e-04 9.2716480e-04 -4.0569395e-04 
8.0000801e-04 9.2416606e-04 -3.1977726e-04 
7.8036182e-04 8.9264021e-04 -2.0465390e-04 
7.4063172e-04 8.3023455e-04 -8.4158411e-05 
8.1216247e-04 8.3225360e-04 2.1400563e-04 
7.2261022e-04 8.4736547e-04 -2.1247838e-04 
7.9637149e-04 9.2316041e-04 -3.7265802e-04 
7.4515172e-04 8.7657908e-04 -2.6567781e-04 
7.5275893e-04 8.8757626e-04 -2.9670456e-04 
8.3163584e-04 8.5930928e-04 2.6304554e-04 
7.8679872e-04 8.3807635e-04 8.2233048e-05 
8.4491714e-04 8.6227135e-04 3.4548886e-04 
7.5883622e-04 8.9467957e-04 -3.2180772e-04 
8.1125053e-04 8.6794706e-04 9.3160350e-05 
7.2760612e-04 8.4422471e-04 -1.8919156e-04 
7.5840083e-04 8.2620216e-04 -8.7425207e-07 
8.5058343e-04 9.0001174e-04 2.3330968e-04 
8.0218678e-04 8.4125117e-04 1.6241625e-04 
8.2746643e-04 9.1160549e-04 -1.5163484e-04 
7.3525816e-04 8.2127040e-04 -7.1220828e-05 
7.3254923e-04 8.4128231e-04 -1.6617107e-04 
7.6282112e-04 8.4087078e-04 -3.5166096e-05 
8.4555987e-04 9.0951356e-04 9.2892929e-05 
8.4839883e-04 9.0584689e-04 2.5504993e-04 
7.0691429e-04 8.5903291e-04 -3.6696877e-04 
6.9634977e-04 8.4556348e-04 -3.3114452e-04 
7.1979617e-04 8.7007385e-04 -3.8885232e-04 
6.8801618e-04 8.2911848e-04 -2.8327457e-04 
6.8384502e-04 8.1182795e-04 -2.2501062e-04 
7.7577407e-04 8.8540354e-04 -3.0519042e-04 
7.4531528e-04 7.8079500e-04 1.3438368e-04 
7.3204003e-04 8.7348459e-04 -3.9354007e-04 
7.2218414e-04 7.7582512e-04 5.1138450e-05 
7.8259042e-04 7.9760724e-04 2.7842639e-04 
6.9587427e-04 7.7061146e-04 -3.0126967e-05 
6.7822455e-04 7.9017639e-04 -1.7032718e-04 
7.0156151e-04 8.0779218e-04 -1.6467518e-04 
8.0664986e-04 8.6628558e-04 1.7441608e-04 
6.8964832e-04 8.2093233e-04 -2.7536979e-04 
7.9219067e-04 8.6319353e-04 -1.8803559e-05 
6.5933412e-04 7.7216746e-04 -1.6707835e-04 
7.0555625e-04 8.3395117e-04 -3.0241700e-04 
6.8939483e-04 8.1515283e-04 -2.6822399e-04 
6.8897830e-04 7.6371036e-04 -2.8137443e-05 
8.0020539e-04 8.6236116e-04 1.6770516e-04 
6.6571840e-04 7.8803574e-04 -2.1837787e-04 
7.7441992e-04 8.3366100e-04 1.3131069e-04 
7.8973203e-04 8.3945174e-04 3.0608170e-04 
7.4027653e-04 8.2985067e-04 -1.5663999e-04 
7.1852695e-04 7.4232958e-04 2.0103597e-04 
6.9153681e-04 7.6324487e-04 -1.0589206e-05 
7.0623646e-04 8.3132664e-04 -3.5451114e-04 
7.1426382e-04 8.1475568e-04 -2.0025496e-04 
6.3586701e-04 7.6869270e-04 -2.4754339e-04 
6.8849954e-04 7.8879896e-04 -1.5449495e-04 
6.6544313e-04 7.6335890e-04 -1.2252107e-04 
6.4461492e-04 7.9285423e-04 -3.3956362e-04 
6.3532317e-04 7.7819865e-04 -2.9882073e-04 
6.5608067e-04 8.0500427e-04 -3.6782309e-04 
6.6869531e-04 8.1388670e-04 -3.8153506e-04 
6.7657320e-04 7.2944129e-04 6.1135295e-05 
7.1992638e-04 7.5829751e-04 1.8437731e-04 
6.4498279e-04 7.3567784e-04 -9.2157192e-05 
6.5360172e-04 7.1521889e-04 1.5557129e-05 
7.4884429e-04 7.8373065e-04 3.4956439e-04 
7.5226038e-04 8.1663037e-04 8.9284513e-05 
7.5453211e-04 8.1156450e-04 2.4756484e-04 
6.2850409e-04 7.4941211e-04 -2.2903005e-04 
6.5843458e-04 6.9485564e-04 1.2194923e-04 
6.4789259e-04 7.8489247e-04 -3.7216520e-04 
6.1290251e-04 7.2840054e-04 -1.9255259e-04 
6.8214448e-04 7.8597671e-04 -2.8085470e-04 
6.4836181e-04 7.6512119e-04 -2.6128363e-04 
6.8618415e-04 7.5858831e-04 -9.0516533e-06 
6.2665431e-04 7.5666065e-04 -2.8887636e-04 
6.8585877e-04 7.0144515e-04 2.5366299e-04 
6.6445343e-04 7.0573791e-04 1.3327252e-04 
6.9262687e-04 7.3506538e-04 2.1340266e-04 
5.8515731e-04 7.0999027e-04 -2.1934605e-04 
7.1469089e-04 7.7491265e-04 1.5916613e-04 
5.9870799e-04 6.7823555e-04 -5.5272027e-05 
5.8705651e-04 7.2929065e-04 -3.1045789e-04 
5.9673755e-04 7.4274640e-04 -3.4351691e-04 
7.0887187e-04 7.5585279e-04 3.0334896e-04 
5.7969149e-04 7.1505719e-04 -2.6614525e-04 
6.0939050e-04 7.5231883e-04 -3.6386584e-04 
7.0973259e-04 7.7196286e-04 1.6281928e-04 
6.9635373e-04 7.6425215e-04 -1.3017179e-06 
6.1664719e-04 6.9932319e-04 -6.9361282e-05 
6.2265323e-04 6.7837862e-04 5.7578985e-05 
6.0165470e-04 6.7719276e-04 -3.7913767e-05 
6.3633866e-04 6.5940910e-04 1.8706077e-04 
6.2590680e-04 7.4581872e-04 -3.3667136e-04 
6.3132134e-04 6.8980234e-04 5.3317071e-05 
6.6825812e-04 6.8580342e-04 3.1723201e-04 
5.7598227e-04 6.9643412e-04 -2.2722500e-04 
5.9460098e-04 6.4704294e-04 4.1273026e-05 
6.2893290e-04 7.2805613e-04 -1.9852833e-04 
5.9985404e-04 7.0487079e-04 -1.8054793e-04 
6.5087405e-04 7.3214277e-04 -1.3967567e-04 
6.5822125e-04 7.2543952e-04 3.9041086e-05 
6.3264504e-04 7.1913499e-04 -1.5862819e-04 
5.6363910e-04 6.4625649e-04 -6.8984526e-05 
5.6987611e-04 6.9587940e-04 -2.7013119e-04 
5.7851238e-04 7.0374022e-04 -2.8566789e-04 
6.6522672e-04 7.2910788e-04 8.5575128e-05 
6.6780229e-04 7.2356896e-04 2.3812658e-04 
5.3756934e-04 6.4383418e-04 -1.5655876e-04 
6.2504836e-04 6.5972516e-04 1.9716047e-04 
6.0919591e-04 7.1005896e-04 -2.7401274e-04 
5.4152886e-04 6.8182434e-04 -3.1760210e-04 
5.3244102e-04 6.6802738e-04 -2.8061483e-04 
5.5183796e-04 6.9242611e-04 -3.4321981e-04 
5.2719587e-04 6.5256888e-04 -2.3280545e-04 
5.6382257e-04 6.9953490e-04 -3.5518038e-04 
5.8079336e-04 6.1566883e-04 1.1191869e-04 
5.6912791e-04 6.2589848e-04 2.8492508e-05 
5.7108316e-04 7.0116925e-04 -3.5365837e-04 
6.1292422e-04 6.2779489e-04 2.5144321e-04 
5.4337335e-04 6.3495705e-04 -1.1159436e-04 
5.2955578e-04 6.1356113e-04 -8.0251433e-05 
5.6866760e-04 6.7669927e-04 -2.3475182e-04 
5.3748547e-04 6.0331571e-04 -1.6601110e-05 
6.3047977e-04 6.9132051e-04 1.4489146e-04 
5.2740815e-04 6.3882337e-04 -1.9363825e-04 
6.2085968e-04 6.8866397e-04 -1.6852051e-05 
5.8260135e-04 6.1878021e-04 1.4021495e-04 
5.2834366e-04 6.4821116e-04 -2.3734639e-04 
5.4505625e-04 5.9208699e-04 5.2231935e-05 
5.3675281e-04 6.0630345e-04 -2.7253796e-05 
6.2563946e-04 6.8751781e-04 1.5756564e-04 
5.9671566e-04 6.5501779e-04 8.8897519e-05 
5.3693482e-04 6.2635762e-04 -1.1775379e-04 
5.3537212e-04 6.3633354e-04 -1.6909173e-04 
5.4537208e-04 6.1402580e-04 -2.1870690e-05 
6.2038528e-04 6.6801783e-04 2.8677171e-04 
5.0991564e-04 5.9519854e-04 -9.0631285e-05 
5.7752820e-04 6.4729335e-04 -2.7598655e-05 
5.6156004e-04 6.2666310e-04 8.0919590e-06 
4.9914111e-04 6.0330820e-04 -1.6151356e-04 
4.9687043e-04 5.8913516e-04 -1.1451632e-04 
5.5891101e-04 5.7942752e-04 1.7585633e-04 
5.5009627e-04 6.6212588e-04 -3.1736991e-04 
5.6722935e-04 6.5070996e-04 -1.3359071e-04 
4.8985862e-04 6.2246172e-04 -2.8956114e-04 
4.9875380e-04 6.3387729e-04 -3.2091007e-04 
4.8313601e-04 6.0912728e-04 -2.4890571e-04 
4.7945234e-04 5.9404940e-04 -1.9894999e-04 
5.6185870e-04 6.1448739e-04 8.9078443e-05 
5.3168624e-04 6.1001722e-04 -7.5232674e-05 
5.1511871e-04 6.3488242e-04 -2.9025495e-04 
5.0590024e-04 6.3867634e-04 -3.3858130e-04 
5.8301335e-04 6.3582056e-04 1.8563071e-04 
5.8552535e-04 6.4705347e-04 8.3000450e-05 
4.8580131e-04 5.6191988e-04 -6.5005159e-05 
5.8671628e-04 6.1972963e-04 3.1876427e-04 
5.8748951e-04 6.4253475e-04 2.2945671e-04 
4.8732903e-04 5.7805260e-04 -1.2147198e-04 
5.1043666e-04 5.6114147e-04 3.7185466e-05 
4.9203890e-04 5.4790470e-04 6.2978261e-06 
4.8456999e-04 6.0107536e-04 -2.4372853e-04 
5.0804578e-04 5.3987128e-04 1.0212868e-04 
4.6675035e-04 5.5611867e-04 -1.1446958e-04 
5.0043245e-04 6.2159001e-04 -3.3253580e-04 
4.7854599e-04 5.5135082e-04 -5.4106742e-05 
5.2979239e-04 6.2306563e-04 -2.5366040e-04 
4.6472126e-04 5.7253963e-04 -1.9410897e-04 
5.3074141e-04 5.4251065e-04 2.2635108e-04 
5.1526586e-04 5.4895511e-04 1.2261479e-04 
4.7869017e-04 5.7226367e-04 -1.4669914e-04 
4.8135736e-04 5.9685507e-04 -2.7015092e-04 
5.5485993e-04 6.1096577e-04 1.3114462e-04 
4.9193087e-04 5.8747752e-04 -1.9920674e-04 
5.5128790e-04 5.9657748e-04 2.8202811e-04 
5.1670946e-04 5.4907054e-04 1.6527809e-04 
5.4958713e-04 6.0739747e-04 1.5183531e-04 
4.7065754e-04 5.4324168e-04 -5.5238375e-05 
5.3876784e-04 6.0170185e-04 -3.9611914e-06 
4.4920843e-04 5.7796505e-04 -2.9527894e-04 
4.4219434e-04 5.6657963e-04 -2.6081136e-04 
4.5824883e-04 5.8735453e-04 -3.1884213e-04 
4.3658976e-04 5.3338683e-04 -1.4325744e-04 
4.3692195e-04 5.5250677e-04 -2.1676009e-04 
4.6964461e-04 5.9470534e-04 -3.2802281e-04 
5.1914697e-04 5.7959754e-04 3.0382307e-05 
4.4650360e-04 5.5605522e-04 -2.1971496e-04 
4.6184656e-04 5.5546546e-04 -1.6522528e-04 
4.9057556e-04 5.0726981e-04 1.6376718e-04 
4.4234857e-04 5.0775718e-04 -3.8964241e-05 
4.8177165e-04 5.8800651e-04 -3.0105331e-04 
5.1870343e-04 5.3092872e-04 2.8611152e-04 
4.7201657e-04 5.1276834e-04 6.8922171e-05 
4.8362682e-04 5.7132577e-04 -1.8422710e-04 
4.4822058e-04 4.9490330e-04 2.7184789e-05 
4.3433011e-04 5.1679753e-04 -1.0283892e-04 
5.0290761e-04 5.7445152e-04 -1.3096032e-04 
4.8556438e-04 5.6190934e-04 -1.4800607e-04 
5.1209657e-04 5.7034026e-04 7.7705648e-05 
5.0771411e-04 5.5878639e-04 1.7489109e-04 
4.8032234e-04 5.4724532e-04 -4.1551040e-05 
4.6327789e-04 5.1574549e-04 2.9136441e-05 
5.1425729e-04 5.6706701e-04 2.1990864e-04 
4.3424696e-04 5.4571079e-04 -2.5234887e-04 
4.6763764e-04 5.5524550e-04 -2.4559270e-04 
4.4117830e-04 4.6997739e-04 9.3541494e-05 
4.0324932e-04 5.2546681e-04 -2.6941689e-04 
4.1178250e-04 5.3571368e-04 -2.9640732e-04 
3.9715206e-04 5.1281415e-04 -2.3143840e-04 
4.2177507e-04 5.4312596e-04 -3.1202627e-04 
3.9439517e-04 4.9950735e-04 -1.8590548e-04 
4.7256894e-04 4.8106388e-04 2.2312647e-04 
4.3590891e-04 5.5099634e-04 -3.1365105e-04 
4.4148488e-04 5.3506211e-04 -2.1815712e-04 
4.3930914e-04 5.0709315e-04 -5.3628570e-05 
4.1858433e-04 5.0658785e-04 -1.4606741e-04 
4.7331155e-04 5.0758413e-04 1.8592688e-04 
4.2025416e-04 4.7328652e-04 -1.4191467e-06 
3.9688425e-04 4.7166995e-04 -8.1159487e-05 
4.8290376e-04 5.3762138e-04 1.1798763e-04 
4.6707146e-04 5.1773334e-04 8.2042949e-05 
4.7579216e-04 5.3542800e-04 -2.0085225e-05 
4.2540435e-04 5.1852356e-04 -1.9690084e-04 
4.0138818e-04 4.5674236e-04 -1.5329651e-05 
3.9139512e-04 4.8685577e-04 -1.6495466e-04 
3.9385498e-04 4.9671211e-04 -1.9975305e-04 
4.7837390e-04 5.3384126e-04 1.4554799e-04 
3.9874032e-04 5.0582225e-04 -2.2716804e-04 
4.3984075e-04 4.6760033e-04 1.2739727e-04 
4.0778468e-04 4.4509268e-04 4.5427289e-05 
4.7645831e-04 5.1901210e-04 2.6086826e-04 
3.8863532e-04 4.5705170e-04 -6.1504383e-05 
4.2483563e-04 4.3890439e-04 1.5235647e-04 
4.1882883e-04 5.1528035e-04 -2.8154752e-04 
3.9110394e-04 4.5644338e-04 -5.5841803e-05 
4.4346260e-04 4.9634115e-04 4.7905363e-05 
3.6761776e-04 4.8515823e-04 -2.7296267e-04 
3.6092044e-04 4.7462346e-04 -2.4150571e-04 
3.7690633e-04 4.9456448e-04 -2.9422191e-04 
3.5652172e-04 4.6130514e-04 -2.0121054e-04 
3.8793642e-04 5.0141430e-04 -3.0360089e-04 
4.4757209e-04 4.9185305e-04 1.7364517e-04 
4.4429113e-04 4.9860973e-04 7.4046962e-05 
4.5037345e-04 4.7659900e-04 2.8995567e-04 
3.5264867e-04 4.3913259e-04 -1.3189916e-04 
4.4794561e-04 4.9566553e-04 2.0877236e-04 
4.2487567e-04 4.4285494e-04 1.9600778e-04 
3.9965237e-04 4.6952386e-04 -1.0441215e-04 
3.5765016e-04 4.2224355e-04 -5.5722987e-05 
3.6635489e-04 4.1140657e-04 9.3359422e-06 
3.7202198e-04 4.7356827e-04 -2.4405398e-04 
3.6335737e-04 4.6595332e-04 -2.2935176e-04 
3.8041876e-04 4.0503728e-04 8.6106542e-05 
3.7761847e-04 4.8159529e-04 -2.9488091e-04 
4.0107640e-04 4.7914888e-04 -2.2426358e-04 
3.5467395e-04 4.4826072e-04 -1.8239052e-04 
3.5741771e-04 4.1651804e-04 -3.9651128e-05 
3.8321933e-04 4.1252657e-04 8.5566462e-05 
4.0223755e-04 4.0734358e-04 1.9830411e-04 
3.4258727e-04 4.3246394e-04 -1.5901243e-04 
3.6106477e-04 4.4433566e-04 -1.6541567e-04 
4.1494839e-04 4.6507549e-04 1.3785607e-04 
4.1951289e-04 4.5646910e-04 2.5489705e-04 
4.0692047e-04 4.5946011e-04 -4.9288024e-06 
3.4879020e-04 4.5799350e-04 -2.8922278e-04 
3.6389605e-04 4.5127133e-04 -2.1350781e-04 
3.2763209e-04 4.3801687e-04 -2.4887462e-04 
3.3552738e-04 4.4698833e-04 -2.7310519e-04 
3.2196759e-04 4.2653328e-04 -2.1379732e-04 
3.1903846e-04 4.1388796e-04 -1.7132326e-04 
3.9383347e-04 4.4698251e-04 -1.0798932e-05 
3.5248915e-04 3.8988510e-04 3.7567057e-05 
3.6658609e-04 3.7620106e-04 1.4080065e-04 
3.1835370e-04 3.8689075e-04 -8.0848404e-05 
3.6282119e-04 4.4981786e-04 -2.6316204e-04 
3.9255284e-04 3.9656498e-04 2.5306924e-04 
3.9321888e-04 4.3896752e-04 1.1784688e-04 
3.2299967e-04 3.7663025e-04 -3.4424167e-05 
3.7472436e-04 4.1868436e-04 6.0591119e-05 
3.3356503e-04 3.7045014e-04 2.3727374e-05 
3.6454637e-04 3.8310661e-04 1.2798242e-04 
3.3209310e-04 3.9091133e-04 -5.1239011e-05 
3.7915909e-04 4.3715970e-04 -1.2049293e-04 
3.8593740e-04 4.2495976e-04 1.6418987e-04 
3.1435370e-04 3.8844769e-04 -1.0862991e-04 
3.8476748e-04 4.3192928e-04 6.8016590e-05 
3.8726267e-04 4.2990889e-04 1.9652609e-04 
3.4654862e-04 3.8712338e-04 2.8957815e-05 
3.1273451e-04 3.7363844e-04 -6.1788058e-05 
3.0830470e-04 3.9704435e-04 -1.6927978e-04 
3.2547335e-04 4.1817848e-04 -2.2657117e-04 
3.1216801e-04 4.0568956e-04 -1.9799128e-04 
3.1908639e-04 3.6708813e-04 -1.6064314e-05 
3.5904502e-04 4.2031053e-04 -1.1990185e-04 
3.5857677e-04 3.8717219e-04 1.2617657e-04 
3.2569331e-04 3.4559687e-04 7.7717494e-05 
3.5391317e-04 3.5300007e-04 1.9344607e-04 
3.2510125e-04 4.1793621e-04 -2.7593394e-04 
2.9754292e-04 4.0258767e-04 -2.5137165e-04 
2.9050588e-04 3.9276571e-04 -2.2278646e-04 
3.0600055e-04 4.0959643e-04 -2.6929379e-04 
2.8604676e-04 3.8057860e-04 -1.8544892e-04 
3.4753297e-04 4.1483864e-04 -2.0957564e-04 
3.1549420e-04 4.1382250e-04 -2.7797456e-04 
3.0854339e-04 3.8290242e-04 -1.2554815e-04 
2.8200302e-04 3.5922675e-04 -1.2108833e-04 
3.3082813e-04 3.9947388e-04 -1.5478562e-04 
2.9759633e-04 3.3845395e-04 -2.0706625e-06 
3.5407644e-04 4.0196249e-04 -2.0280013e-05 
3.0968853e-04 3.4032945e-04 3.7106434e-05 
3.2248115e-04 3.4570368e-04 7.7418408e-05 
3.5712225e-04 4.0131991e-04 1.2935881e-04 
2.8320070e-04 3.4175435e-04 -6.2301275e-05 
3.6207272e-04 3.9335189e-04 2.4020781e-04 
2.9359511e-04 3.8351203e-04 -2.1107878e-04 
2.8778511e-04 3.5454947e-04 -9.5204494e-05 
3.0170544e-04 3.7574294e-04 -1.5012946e-04 
2.9556887e-04 3.4361391e-04 -2.6931666e-05 
3.0455017e-04 3.8578181e-04 -2.1160219e-04 
3.0107392e-04 3.5517564e-04 -5.0932835e-05 
3.1381773e-04 3.1880845e-04 1.3022717e-04 
3.3203390e-04 3.7989870e-04 -5.7466783e-05 
3.1123639e-04 3.8765601e-04 -2.4773486e-04 
3.3789786e-04 3.7807575e-04 1.0422296e-04 
3.2932500e-04 3.7212271e-04 2.3657749e-05 
2.7163891e-04 3.5442694e-04 -1.7033130e-04 
3.1820612e-04 3.6304147e-04 -1.0329016e-05 
2.7002857e-04 3.2570091e-04 -6.0044207e-05 
3.2715662e-04 3.5166100e-04 1.6598438e-04 
3.3279054e-04 3.6663908e-04 1.6108008e-04 
3.3898701e-04 3.5731806e-04 2.5957872e-04 
3.2783253e-04 3.7103391e-04 6.2212523e-05 
2.6155799e-04 3.5851312e-04 -2.2800530e-04 
2.6903825e-04 3.6632121e-04 -2.4938848e-04 
2.5573984e-04 3.4853703e-04 -1.9655675e-04 
2.5300929e-04 3.3673481e-04 -1.5811280e-04 
3.3134336e-04 3.6981050e-04 1.8502052e-04 
3.0544240e-04 3.2527896e-04 1.0371382e-04 
2.7592594e-04 3.6979414e-04 -2.6250110e-04 
2.5284605e-04 3.1374290e-04 -8.0223996e-05 
2.5807371e-04 3.0649223e-04 -4.1376639e-05 
2.7026623e-04 2.9938685e-04 1.9764555e-05 
2.7158766e-04 3.5438201e-04 -2.0568952e-04 
2.7860710e-04 3.1638608e-04 5.5948226e-06 
3.0456579e-04 3.4113511e-04 6.4056709e-05 
2.5193364e-04 3.2722022e-04 -1.4225741e-04 
2.4990988e-04 3.1583980e-04 -1.0289493e-04 
2.7583749e-04 2.9025832e-04 7.0385264e-05 
2.6079587e-04 3.0115186e-04 -1.5897805e-05 
2.6276949e-04 3.2882896e-04 -1.1499201e-04 
2.7655304e-04 3.5912960e-04 -2.5677367e-04 
2.7847936e-04 2.9585708e-04 7.5777491e-05 
2.5486248e-04 3.0723910e-04 -5.9166494e-05 
2.9500117e-04 2.9173747e-04 1.7265741e-04 
2.6556166e-04 3.4293364e-04 -2.0760990e-04 
3.1346706e-04 3.4277770e-04 2.2124904e-04 
2.8391380e-04 3.2183644e-04 1.5383979e-05 
2.4788923e-04 3.2835788e-04 -1.8101107e-04 
3.0211476e-04 3.4265770e-04 -2.0278469e-05 
2.6145263e-04 2.8889580e-04 2.6405038e-05 
3.0319582e-04 3.4256265e-04 1.2013633e-04 
2.7162995e-04 3.3843477e-04 -1.8295372e-04 
2.3937361e-04 2.9028440e-04 -5.8226768e-05 
2.8579493e-04 3.3995844e-04 -1.8407768e-04 
2.8208512e-04 3.2873455e-04 -8.8477536e-05 
2.3508498e-04 3.2591424e-04 -2.2860097e-04 
2.2810396e-04 3.1626804e-04 -2.0333687e-04 
2.4285480e-04 3.3258277e-04 -2.4520472e-04 
2.2433777e-04 3.0583257e-04 -1.7018791e-04 
2.5193318e-04 3.3622229e-04 -2.5213172e-04 
2.2383079e-04 2.8950945e-04 -1.0974598e-04 
2.8395050e-04 3.2481612e-04 -8.3189705e-05 
2.4780669e-04 3.1157027e-04 -1.4129323e-04 
2.8866832e-04 3.1713425e-04 1.5028124e-04 
2.6410146e-04 2.6498441e-04 1.1940968e-04 
2.8538486e-04 3.2085690e-04 9.0930938e-05 
2.3186569e-04 2.6865149e-04 -1.5324193e-05 
2.4240300e-04 2.6367931e-04 3.4784018e-05 
2.7883743e-04 3.1861360e-04 -1.6546119e-05 
2.6433961e-04 3.3037580e-04 -2.2930979e-04 
2.8828153e-04 2.8253169e-04 2.2098557e-04 
2.2107983e-04 2.7170125e-04 -6.4611799e-05 
2.6152673e-04 2.6978090e-04 1.1317858e-04 
2.5304797e-04 3.0003474e-04 -6.5469336e-05 
2.3175786e-04 3.0839376e-04 -1.9200603e-04 
2.3786422e-04 3.1276006e-04 -2.0128710e-04 
2.7809764e-04 3.1422349e-04 5.5854183e-05 
2.8036995e-04 3.1309252e-04 1.7282231e-04 
2.7533434e-04 2.9082829e-04 1.7217919e-04 
2.2923667e-04 2.5951711e-04 3.3375047e-06 
2.1422126e-04 2.8140488e-04 -1.3471331e-04 
2.1937059e-04 2.8427239e-04 -1.4639526e-04 
2.3427565e-04 2.5371939e-04 4.8835096e-05 
2.2918990e-04 2.4009652e-04 6.3594685e-05 
2.0847928e-04 2.5981743e-04 -7.7654979e-05 
2.5569578e-04 2.4614812e-04 1.6519347e-04 
2.7050107e-04 2.9330153e-04 2.1586535e-04 
2.3253579e-04 3.0457185e-04 -2.3874230e-04 
2.4728401e-04 2.9452413e-04 -1.3706647e-04 
2.0343828e-04 2.8566370e-04 -2.0620365e-04 
2.1021852e-04 2.9301844e-04 -2.2605014e-04 
1.9870550e-04 2.7693241e-04 -1.7782030e-04 
2.1823341e-04 2.9828370e-04 -2.3692164e-04 
1.9585171e-04 2.6654344e-04 -1.4300822e-04 
2.4476045e-04 2.8003263e-04 -1.4741285e-05 
2.5326037e-04 2.8846081e-04 -2.0395337e-05 
2.4215937e-04 2.6698041e-04 5.9497186e-05 
2.1076031e-04 2.3317809e-04 1.5521946e-05 
2.5512589e-04 2.8823200e-04 1.1151062e-04 
1.9616469e-04 2.3392236e-04 -3.9126047e-05 
2.1725529e-04 2.8311127e-04 -1.9852434e-04 
2.2596371e-04 2.4870672e-04 4.0502884e-05 
2.0483136e-04 2.4108804e-04 -3.3218756e-05 
2.0352883e-04 2.5157747e-04 -8.1426399e-05 
2.3883510e-04 2.7357167e-04 -5.9373437e-05 
2.0978147e-04 2.6447568e-04 -1.3067781e-04 
2.2096821e-04 2.1718229e-04 1.0945887e-04 
2.3910640e-04 2.6804736e-04 7.9199322e-05 
1.8883780e-04 2.5251013e-04 -1.4106053e-04 
2.3576386e-04 2.4304942e-04 1.4285030e-04 
1.9638878e-04 2.6410283e-04 -1.8009583e-04 
2.2037349e-04 2.7663674e-04 -2.1313160e-04 
1.7473617e-04 2.2950645e-04 -9.7725999e-05 
2.4514567e-04 2.4723323e-04 2.2270126e-04 
2.3150668e-04 2.5305097e-04 1.1062213e-04 
2.3196470e-04 2.6185048e-04 5.0173599e-05 
2.4022476e-04 2.3241992e-04 2.1210340e-04 
2.3488041e-04 2.6121089e-04 1.5970918e-04 
1.8080859e-04 2.5689477e-04 -2.0506216e-04 
1.7494270e-04 2.4940268e-04 -1.8242581e-04 
1.8824397e-04 2.6296158e-04 -2.2005018e-04 
1.7121941e-04 2.3958416e-04 -1.5252382e-04 
1.9608829e-04 2.6615828e-04 -2.2640177e-04 
2.1974386e-04 2.5581953e-04 -1.3749745e-04 
1.7954200e-04 2.4290507e-04 -1.5744095e-04 
1.8778823e-04 2.0704191e-04 1.5095079e-05 
1.7717764e-04 2.0434975e-04 -1.4773236e-05 
2.2180956e-04 2.0694629e-04 1.7181729e-04 
2.1007983e-04 2.5349419e-04 -1.7752955e-04 
2.1178450e-04 2.4418323e-04 -4.7688660e-05 
1.6943223e-04 2.1869315e-04 -9.2007729e-05 
1.8913652e-04 1.9389384e-04 5.8271457e-05 
1.8444429e-04 2.4624413e-04 -1.8383325e-04 
2.1539477e-04 2.4449898e-04 -4.8113485e-05 
1.9253480e-04 2.5337655e-04 -2.1830536e-04 
1.6518310e-04 2.0507134e-04 -5.5748777e-05 
1.7853564e-04 2.2917584e-04 -1.2158635e-04 
2.1329333e-04 2.2445717e-04 1.3399059e-04 
1.8709934e-04 2.3664703e-04 -1.5224337e-04 
2.1143984e-04 2.3805100e-04 1.0201294e-04 
1.6759537e-04 1.9881439e-04 -3.3296852e-05 
2.1668310e-04 2.3008055e-04 1.9801107e-04 
1.7346989e-04 1.9783285e-04 -7.3076039e-06 
1.8255720e-04 1.8956176e-04 5.6001190e-05 
1.9215418e-04 2.2825242e-04 -1.0938006e-04 
1.7010125e-04 2.3588848e-04 -2.1296559e-04 
1.5327394e-04 2.2287885e-04 -1.8398777e-04 
1.6004071e-04 2.2891494e-04 -2.0147521e-04 
1.4812044e-04 2.1419996e-04 -1.5902407e-04 
1.4580319e-04 2.0439181e-04 -1.2733841e-04 
1.9619588e-04 2.2186899e-04 -1.6189585e-06 
1.9746204e-04 2.1981847e-04 6.9212445e-05 
1.8274416e-04 1.9477401e-04 5.4070508e-05 
1.5886358e-04 1.7473807e-04 1.0944692e-05 
1.4894862e-04 1.7919064e-04 -3.4826382e-05 
1.5237552e-04 2.1078488e-04 -1.5905603e-04 
1.8984241e-04 2.1408043e-04 4.4339602e-05 
1.4499531e-04 1.9647599e-04 -1.1614053e-04 
1.4780626e-04 2.0377102e-04 -1.3919364e-04 
1.5309936e-04 1.9511879e-04 -9.1819296e-05 
1.8374462e-04 1.7851275e-04 1.2281742e-04 
1.7534936e-04 1.6194191e-04 1.1256940e-04 
1.6170659e-04 1.9328480e-04 -5.7690144e-05 
1.3391253e-04 1.7954373e-04 -8.7952561e-05 
1.6832574e-04 1.9868708e-04 -6.6116292e-05 
1.5370529e-04 2.0672422e-04 -1.6673713e-04 
1.7528272e-04 1.9570225e-04 3.0155967e-05 
1.8463918e-04 2.0212001e-04 1.5074981e-04 
1.9342097e-04 1.8199839e-04 1.9825372e-04 
1.5270863e-04 1.5244485e-04 5.2989464e-05 
1.7182497e-04 1.8622783e-04 5.3181080e-05 
1.3674452e-04 2.0080172e-04 -1.8258217e-04 
1.8816980e-04 1.6952901e-04 1.8239841e-04 
1.4023163e-04 1.6743815e-04 -2.9365268e-05 
1.7951682e-04 1.5980451e-04 1.5534142e-04 
1.9120952e-04 1.9098706e-04 1.9923699e-04 
1.5646974e-04 2.0750066e-04 -2.0035637e-04 
1.7250179e-04 1.9981366e-04 -1.0408476e-04 
1.6975609e-04 1.9984633e-04 -1.4473154e-04 
1.2801100e-04 1.9056733e-04 -1.6160389e-04 
1.4078752e-04 2.0209230e-04 -1.9463005e-04 
1.2455822e-04 1.8201293e-04 -1.3392996e-04 
1.4817934e-04 2.0367460e-04 -1.9987370e-04 
1.7168044e-04 1.9542196e-04 -4.5775658e-05 
1.6414534e-04 2.0196900e-04 -1.7418551e-04 
1.7243945e-04 1.9347685e-04 8.9768488e-05 
1.3109282e-04 1.5048739e-04 -8.5850825e-06 
1.2289319e-04 1.5755280e-04 -5.4519016e-05 
1.7986134e-04 1.8855635e-04 1.7877376e-04 
1.3903408e-04 1.4865263e-04 2.2338903e-05 
1.4076690e-04 1.5693619e-04 -2.9050425e-06 
1.3660530e-04 1.7774740e-04 -1.1145225e-04 
1.6850728e-04 1.7985277e-04 1.2492665e-04 
1.4759989e-04 1.4794928e-04 6.3477804e-05 
1.5558723e-04 1.7914492e-04 -5.1287039e-05 
1.2123981e-04 1.6105581e-04 -8.3292289e-05 
1.4092805e-04 1.8401451e-04 -1.5389016e-04 
1.5988940e-04 1.7888009e-04 3.5742571e-05 
1.6736180e-04 1.6577622e-04 1.4087086e-04 
1.2323396e-04 1.6913880e-04 -1.1348467e-04 
1.6355953e-04 1.5626760e-04 1.3609938e-04 
1.4945539e-04 1.7997864e-04 -1.1759472e-04 
1.2276167e-04 1.7381775e-04 -1.4334491e-04 
1.1570691e-04 1.4401226e-04 -4.4882021e-05 
1.1942012e-04 1.3679806e-04 -9.3654853e-06 
1.4821284e-04 1.3691078e-04 1.1039847e-04 
1.4441741e-04 1.5782740e-04 5.7815279e-05 
9.8861201e-05 1.3731145e-04 -7.7212746e-05 
1.0246637e-04 1.2723586e-04 -3.4121240e-05 
9.9093566e-05 1.5124280e-04 -1.2571731e-04 
1.1024858e-04 1.2004786e-04 7.9799174e-06 
1.0631490e-04 1.6240940e-04 -1.6271012e-04 
1.1964229e-04 1.1627004e-04 4.8359751e-05 
1.3093592e-04 1.1418504e-04 9.0479465e-05 
1.1629717e-04 1.6725750e-04 -1.8145697e-04 
1.4185572e-04 1.1748152e-04 1.2585327e-04 
1.2533265e-04 1.6787789e-04 -1.8114601e-04 
1.4989582e-04 1.2531350e-04 1.5538155e-04 
1.3235773e-04 1.6591145e-04 -1.6963226e-04 
1.3552426e-04 1.6075124e-04 -1.4823755e-04 
1.5404899e-04 1.3370991e-04 1.7446870e-04 
1.2140786e-04 1.4826508e-04 -6.9547481e-05 
1.3600216e-04 1.5651081e-04 -1.1516826e-04 
1.5366117e-04 1.4396683e-04 1.8010569e-04 
1.3600396e-04 1.5239581e-04 -6.8275993e-05 
1.5001019e-04 1.5015427e-04 1.7408268e-04 
1.3511842e-04 1.5092641e-04 -1.7855406e-05 
1.4510339e-04 1.5367937e-04 1.5167242e-04 
1.3479950e-04 1.5215292e-04 3.2839951e-05 
1.4015393e-04 1.5417524e-04 1.1855420e-04 
1.3770464e-04 1.5397584e-04 7.6084631e-05 
9.9246594e-05 1.3528191e-04 -7.9483987e-05 
1.2808200e-04 1.3045980e-04 6.3715859e-05 
1.0744057e-04 1.2714215e-04 -2.5107291e-05 
1.2104600e-04 1.3622234e-04 -9.6307740e-06 
1.1086687e-04 1.1404498e-04 2.7268483e-05 
1.2195585e-04 1.4753913e-04 -1.2161693e-04 
1.1549518e-04 1.2023729e-04 3.2871434e-05 
1.0043701e-04 1.3800156e-04 -1.0153728e-04 
1.1945604e-04 1.1015217e-04 7.2685856e-05 
1.2366053e-04 1.3854171e-04 6.3971888e-06 
1.2997282e-04 1.3938907e-04 1.0268259e-04 
1.3307556e-04 1.2485703e-04 1.2526869e-04 
1.0894553e-04 1.3928223e-04 -1.3049295e-04 
8.6238608e-05 1.1104664e-04 -4.3480053e-05 
1.2208631e-04 1.0735396e-04 1.0810052e-04 
1.1508037e-04 1.2141358e-04 5.6037708e-05 
1.2424361e-04 1.2465604e-04 1.1983097e-04 
1.1358021e-04 1.2726412e-04 -4.5986912e-05 
8.2596096e-05 9.4121315e-05 -8.6886566e-06 
1.0942575e-04 1.3143013e-04 -1.4397448e-04 
1.0470965e-04 1.1607521e-04 8.2427295e-07 
1.0142117e-04 1.1896119e-04 -5.8935220e-05 
1.1339890e-04 1.2510509e-04 1.2053415e-04 
1.0723366e-04 1.1861193e-04 7.4593931e-06 
1.1483784e-04 8.7696302e-05 1.2539787e-04 
1.0808340e-04 1.2193022e-04 -1.1610251e-04 
1.1909497e-04 9.5343501e-05 1.4573488e-04 
1.1418736e-04 1.1992634e-04 1.4307947e-04 
8.6599743e-05 7.7738470e-05 4.3141772e-05 
1.1880576e-04 1.1267708e-04 1.5586964e-04 
1.0407923e-04 1.1292469e-04 -3.7503563e-05 
9.7881959e-05 7.7430224e-05 8.6522828e-05 
1.0527427e-04 1.1407297e-04 -8.0269936e-05 
7.9152705e-05 1.2346370e-04 -1.4897731e-04 
1.1912885e-04 1.0272739e-04 1.5529740e-04 
9.4062059e-05 1.2505279e-04 -1.5480544e-04 
6.4440457e-05 9.6449090e-05 -6.5206441e-05 
9.5602685e-05 1.1409209e-04 -9.8855926e-05 
9.8083648e-05 1.1258409e-04 6.4832369e-05 
6.3398627e-05 1.0732688e-04 -1.1332826e-04 
1.0039095e-04 1.0646986e-04 9.0479341e-05 
7.0232025e-05 9.2641640e-05 -4.5596371e-05 
9.3275587e-05 1.0501586e-04 -7.1258044e-05 
8.0466118e-05 9.0992464e-05 -5.4369575e-06 
7.1805582e-05 7.6712800e-05 6.9748044e-06 
8.7148757e-05 9.4831601e-05 2.0228582e-07 
9.0940841e-05 8.6076427e-05 9.6289783e-05 
8.2467413e-05 7.0178015e-05 6.8707828e-05 
8.3666309e-05 9.6888449e-05 -1.2287930e-04 
5.3138177e-05 6.2207939e-05 -9.2725168e-06 
8.9424313e-05 7.3629330e-05 1.0256412e-04 
7.4230891e-05 7.9571029e-05 1.2454588e-05 
8.1561513e-05 9.1381575e-05 1.0358829e-04 
8.0921003e-05 8.5956715e-05 -8.7134016e-05 
7.5614560e-05 8.1966340e-05 4.0752380e-05 
5.9616952e-05 7.9227670e-05 -5.9172831e-05 
6.4846005e-05 8.7122426e-05 -9.4076189e-05 
7.3147501e-05 7.8902063e-05 -1.2041978e-05 
8.0819234e-05 5.3590004e-05 9.1514623e-05 
8.3297571e-05 8.5312997e-05 1.2296514e-04 
8.5146625e-05 5.8705638e-05 1.1215855e-04 
7.0438284e-05 7.5808013e-05 -1.1752023e-05 
7.1580558e-05 7.2027593e-05 -4.8373578e-05 
6.5447224e-05 6.0857703e-05 4.1676980e-05 
6.2844003e-05 7.2874194e-05 -5.6817171e-05 
5.0356688e-05 3.9381812e-05 3.3924200e-05 
6.0388742e-05 8.1632767e-05 -1.2230553e-04 
3.2479169e-05 5.7619727e-05 -5.0665767e-05 
6.3668711e-05 6.7325200e-05 6.8792717e-05 
5.7966266e-05 6.8438036e-05 4.9271257e-05 
5.8236543e-05 6.1831866e-05 -5.1311592e-05 
5.7411340e-05 5.7760015e-05 3.2723718e-05 
4.2103587e-05 5.0295421e-05 -1.6871145e-05 
5.3278614e-05 5.6642770e-05 -1.0591945e-05 
6.6844885e-05 6.0821058e-05 1.1059523e-04 
6.8467787e-05 4.8227270e-05 1.0652810e-04 
3.1213389e-05 6.6292087e-05 -9.6415235e-05 
5.0365255e-05 4.3590451e-05 3.9280829e-05 
4.2265234e-05 5.2133139e-05 -3.3173877e-05 
4.8141443e-05 5.7394805e-05 -7.5838703e-05 
2.6192729e-05 2.9925530e-05 -1.3807634e-06 
3.4656754e-05 3.2111901e-05 1.1247229e-05 
4.8584883e-05 4.6418609e-05 -7.2939671e-05 
5.0905601e-05 2.4671130e-05 7.4584583e-05 
4.0895517e-05 4.3974713e-05 2.3551624e-05 
3.7107602e-05 4.1183885e-05 -1.9439818e-05 
4.5358724e-05 5.1037419e-05 8.4293788e-05 
3.7650090e-05 3.8801776e-05 -1.6345417e-05 
2.0486861e-05 3.3092976e-05 -3.5923560e-05 
3.7621940e-05 2.7656022e-05 5.2291409e-05 
2.5545036e-05 3.7194292e-05 -5.6389203e-05 
2.5178375e-05 2.3124194e-05 1.0179724e-05 
1.9366718e-05 6.8812515e-06 1.9218372e-05 
2.8754299e-05 3.8628266e-05 -7.3074574e-05 
1.6117563e-05 2.2855398e-05 -1.3648963e-05 
3.1411166e-06 1.9807472e-05 -2.9916768e-05 
1.9019211e-05 2.8156481e-05 2.9597704e-05 
2.3022301e-05 1.2515200e-05 2.8013954e-05 
2.1099517e-05 2.3955192e-05 -2.9516628e-05 
1.3582693e-05 1.8578361e-05 -1.7870130e-05 
2.1558550e-05 2.3116938e-05 3.1224656e-05 
1.0187296e-05 3.2749595e-05 -5.5656514e-05 
1.7376911e-05 1.8024628e-05 -6.4750907e-07 
3.3123484e-05 2.1555863e-05 6.5840628e-05 
3.1993757e-05 1.1731605e-05 5.6435645e-05 
2.7804965e-05 2.7863429e-05 6.2796178e-05 
1.3718610e-05 1.3306039e-05 9.1073525e-06 
2.1323393e-05 1.2242977e-05 -3.1263644e-05 
4.6879140e-07 7.6279565e-07 -3.2886837e-06 
2.0920848e-05 -7.8716351e-07 3.4140718e-05 
2.2399397e-05 1.6010043e-05 -4.1731480e-05 
8.8218130e-06 8.7006065e-06 -4.1011522e-06 
1.1913558e-05 2.1791739e-05 3.8729733e-05 
7.2070266e-06 1.5541213e-05 -2.2116375e-05 
1.8533179e-05 1.1297234e-05 3.5762248e-05 
8.3418445e-06 1.2615843e-05 -2.3602568e-05 
5.8699188e-06 6.3993716e-06 -3.3160784e-06 
7.4418958e-06 6.1549504e-06 -1.0882629e-05 
5.4641583e-07 4.9364843e-07 -2.6426587e-06 
7.9862593e-06 -1.0208551e-06 1.3283093e-05 
-2.1772012e-06 1.3252778e-05 -2.1316826e-05 
5.0751541e-06 8.1911276e-06 1.4019130e-05 
6.4100709e-06 6.6905168e-06 -6.5902618e-06 
6.1209030e-06 1.8549779e-05 -3.0963489e-05 
4.6218793e-06 -6.1422643e-06 8.8641327e-06 
-4.9830128e-06 5.2610530e-06 -1.2709609e-05 
7.9097881e-06 6.6102507e-06 -1.6152711e-05 
1.3246542e-05 1.4522925e-05 -3.1417625e-05 
1.2034878e-05 2.5380839e-06 1.9552685e-05 
4.6282375e-06 5.0521480e-06 -2.8719328e-06 
7.9926331e-06 8.0738946e-06 2.0022171e-05 
4.6175919e-06 5.4263114e-06 8.0666058e-07 
6.3577107e-07 5.9158392e-06 1.2116870e-05 
1.5257604e-05 6.5132701e-07 2.1718046e-05 
1.4548258e-05 5.2214777e-06 2.3580997e-05 
9.2458622e-06 1.2375650e-06 -1.6217733e-05 
1.1596080e-05 9.3369354e-06 2.4094246e-05 
4.2451720e-06 -5.1461370e-08 -7.9748570e-06 
7.1551153e-06 1.1535056e-05 2.2780754e-05 
8.6155187e-06 -2.5751845e-06 1.3457212e-05 
9.3986810e-06 4.4148146e-06 -1.6206792e-05 
1.5552049e-06 7.7607615e-07 -1.5922412e-06 
2.9208954e-06 8.5215133e-06 1.5196358e-05 
2.5715533e-06 9.6925351e-07 4.3801606e-06 
5.4486568e-06 2.3754285e-06 9.9332046e-06 
0.0000000e+00 0.0000000e+00 0.0000000e+00 
0.0000000e+00 0.0000000e+00 0.0000000e+00 
0.0000000e+00 0.0000000e+00 0.0000000e+00 
0.0000000e+00 0.0000000e+00 0.0000000e+00 
0.0000000e+00 0.0000000e+00 0.0000000e+00 
0.0000000e+00 0.0000000e+00 0.0000000e+00 
0.0000000e+00 0.0000000e+00 0.0000000e+00 
0.0000000e+00 0.0000000e+00 0.0000000e+00 
0.0000000e+00 0.0000000e+00 0.0000000e+00 
0.0000000e+00 0.0000000e+00 0.0000000e+00 
0.0000000e+00 0.0000000e+00 0.0000000e+00 
0.0000000e+00 0.0000000e+00 0.0000000e+00 
0.0000000e+00 0.0000000e+00 0.0000000e+00 
0.0000000e+00 0.0000000e+00 0.0000000e+00 
0.0000000e+00 0.0000000e+00 0.0000000e+00 
0.0000000e+00 0.0000000e+00 0.0000000e+00 
0.0000000e+00 0.0000000e+00 0.0000000e+00 
0.0000000e+00 0.0000000e+00 0.0000000e+00 
0.0000000e+00 0.0000000e+00 0.0000000e+00 
0.0000000e+00 0.0000000e+00 0.0000000e+00 
0.0000000e+00 0.0000000e+00 0.0000000e+00 
0.0000000e+00 0.0000000e+00 0.0000000e+00 
0.0000000e+00 0.0000000e+00 0.0000000e+00 
0.0000000e+00 0.0000000e+00 0.0000000e+00 
0.0000000e+00 0.0000000e+00 0.0000000e+00 
0.0000000e+00 0.0000000e+00 0.0000000e+00 
0.0000000e+00 0.0000000e+00 0.0000000e+00 
0.0000000e+00 0.0000000e+00 0.0000000e+00 
0.0000000e+00 0.0000000e+00 0.0000000e+00 
0.0000000e+00 0.0000000e+00 0.0000000e+00 
0.0000000e+00 0.0000000e+00 0.0000000e+00 
0.0000000e+00 0.0000000e+00 0.0000000e+00 
0.0000000e+00 0.0000000e+00 0.0000000e+00 
ACCELERATION 3 4496  float
1.9884973e+00 1.7921386e+00 -8.3330944e-03 
1.9810848e+00 1.7854930e+00 -8.3264224e-03 
1.9885660e+00 1.7922955e+00 -1.2406645e-02 
1.9886692e+00 1.7922118e+00 -4.8022792e-03 
1.9774158e+00 1.7821267e+00 -4.9595828e-03 
1.9774299e+00 1.7823097e+00 -1.2328252e-02 
1.9736209e+00 1.7788017e+00 -8.3196722e-03 
1.9886560e+00 1.7924449e+00 -1.5332593e-02 
1.9888107e+00 1.7923439e+00 -4.9919654e-03 
1.9811766e+00 1.7857430e+00 -1.5488669e-02 
1.9812627e+00 1.7855760e+00 -4.9537914e-03 
1.9699258e+00 1.7754116e+00 -4.9323253e-03 
1.9699391e+00 1.7755959e+00 -1.2413775e-02 
1.9735583e+00 1.7789162e+00 -1.5647709e-02 
1.9887507e+00 1.7925736e+00 -1.7183250e-02 
1.9735780e+00 1.7786864e+00 -4.9150013e-03 
1.9661045e+00 1.7720634e+00 -8.3130868e-03 
1.9889119e+00 1.7924726e+00 -6.6042342e-03 
1.9698200e+00 1.7753731e+00 -7.3416242e-03 
1.9794557e+00 1.7842537e+00 -1.7749205e-02 
1.9795433e+00 1.7840896e+00 -7.2814156e-03 
1.9623953e+00 1.7688342e+00 -1.2499642e-02 
1.9623822e+00 1.7686491e+00 -4.9046101e-03 
1.9657960e+00 1.7719603e+00 -1.5809879e-02 
1.9657522e+00 1.7716705e+00 -4.8752674e-03 
1.9888735e+00 1.7927030e+00 -1.7979670e-02 
1.9695895e+00 1.7754055e+00 -1.7674381e-02 
1.9585351e+00 1.7652766e+00 -8.3066309e-03 
1.9890076e+00 1.7926248e+00 -9.4392840e-03 
1.9696134e+00 1.7751726e+00 -6.6295615e-03 
1.9578848e+00 1.7648703e+00 -1.5975166e-02 
1.9547969e+00 1.7620233e+00 -1.2587163e-02 
1.9547837e+00 1.7618375e+00 -4.8764856e-03 
1.9735131e+00 1.7789394e+00 -1.8316040e-02 
1.9577800e+00 1.7645233e+00 -4.8343209e-03 
1.9617500e+00 1.7683803e+00 -1.7853152e-02 
1.9735674e+00 1.7787956e+00 -9.9951895e-03 
1.9802802e+00 1.7850096e+00 -1.8419467e-02 
1.9617130e+00 1.7680901e+00 -6.6211377e-03 
1.9803405e+00 1.7849064e+00 -1.1638173e-02 
1.9509096e+00 1.7584412e+00 -8.3001051e-03 
1.9890138e+00 1.7928483e+00 -1.8773552e-02 
1.9662937e+00 1.7724686e+00 -1.8424278e-02 
1.9665295e+00 1.7724737e+00 -9.4570778e-03 
1.9891047e+00 1.7928008e+00 -1.3218665e-02 
1.9498187e+00 1.7576404e+00 -1.6143829e-02 
1.9537584e+00 1.7612178e+00 -1.8035335e-02 
1.9471421e+00 1.7551613e+00 -1.2675156e-02 
1.9471292e+00 1.7549753e+00 -4.8465803e-03 
1.9496562e+00 1.7572404e+00 -4.7925110e-03 
1.9536632e+00 1.7608737e+00 -6.6130077e-03 
1.9808382e+00 1.7855477e+00 -2.0010993e-02 
1.9578373e+00 1.7648900e+00 -1.8621672e-02 
1.9808319e+00 1.7854514e+00 -1.6087387e-02 
1.9432279e+00 1.7515528e+00 -8.2941949e-03 
1.9577712e+00 1.7646365e+00 -1.0108327e-02 
1.9687783e+00 1.7747283e+00 -1.9758331e-02 
1.9687663e+00 1.7746080e+00 -1.4986604e-02 
1.9891627e+00 1.7930309e+00 -2.0844676e-02 
1.9892083e+00 1.7930108e+00 -1.8206138e-02 
1.9456089e+00 1.7539126e+00 -1.8221373e-02 
1.9505796e+00 1.7583839e+00 -1.8734528e-02 
1.9415922e+00 1.7502662e+00 -1.6315961e-02 
1.9394293e+00 1.7482462e+00 -1.2765155e-02 
1.9394161e+00 1.7480603e+00 -4.8166225e-03 
1.9454584e+00 1.7535181e+00 -6.6047907e-03 
1.9504641e+00 1.7580729e+00 -9.5507838e-03 
1.9413745e+00 1.7498152e+00 -4.7491463e-03 
1.9354868e+00 1.7446111e+00 -8.2886731e-03 
1.9541522e+00 1.7616194e+00 -2.0092515e-02 
1.9540440e+00 1.7614157e+00 -1.5363064e-02 
1.9372951e+00 1.7464591e+00 -1.8410638e-02 
1.9370927e+00 1.7460170e+00 -6.5968866e-03 
1.9316573e+00 1.7412766e+00 -1.2855754e-02 
1.9316437e+00 1.7410904e+00 -4.7869124e-03 
1.9415406e+00 1.7502804e+00 -1.8938461e-02 
1.9331988e+00 1.7427402e+00 -1.6491497e-02 
1.9413658e+00 1.7499293e+00 -1.0233064e-02 
1.9329287e+00 1.7422427e+00 -4.7037671e-03 
1.9892946e+00 1.7932636e+00 -2.5752416e-02 
1.9276849e+00 1.7376142e+00 -8.2826400e-03 
1.9754348e+00 1.7808435e+00 -2.6046863e-02 
1.9339871e+00 1.7435069e+00 -1.9060088e-02 
1.9337685e+00 1.7431040e+00 -9.6535962e-03 
1.9288107e+00 1.7388502e+00 -1.8604314e-02 
1.9238831e+00 1.7341346e+00 -4.9027004e-03 
1.9238224e+00 1.7342503e+00 -1.2946892e-02 
1.9285591e+00 1.7383652e+00 -6.5880120e-03 
1.9246318e+00 1.7350566e+00 -1.6671672e-02 
1.9243134e+00 1.7345163e+00 -4.6571898e-03 
1.9615111e+00 1.7683637e+00 -2.6342498e-02 
1.9377148e+00 1.7468826e+00 -2.0435940e-02 
1.9198202e+00 1.7305616e+00 -8.2761124e-03 
1.9364074e+00 1.7456068e+00 -1.5751772e-02 
1.9245726e+00 1.7350622e+00 -1.9267125e-02 
1.9201481e+00 1.7310798e+00 -1.8801654e-02 
1.9159244e+00 1.7271649e+00 -1.3039502e-02 
1.9159094e+00 1.7269802e+00 -4.7210371e-03 
1.9243023e+00 1.7346280e+00 -1.0369774e-02 
1.9198512e+00 1.7305545e+00 -6.5799183e-03 
1.9158831e+00 1.7272079e+00 -1.6855076e-02 
1.9475193e+00 1.7558181e+00 -2.6640296e-02 
1.9155189e+00 1.7266287e+00 -4.6074972e-03 
1.9118924e+00 1.7234472e+00 -8.2711847e-03 
1.9166987e+00 1.7279977e+00 -1.9397898e-02 
1.9163902e+00 1.7275176e+00 -9.7660106e-03 
1.9079610e+00 1.7200192e+00 -1.3134350e-02 
1.9079431e+00 1.7198336e+00 -4.6863924e-03 
1.9112997e+00 1.7231393e+00 -1.9003903e-02 
1.9109597e+00 1.7225791e+00 -6.5699047e-03 
1.9202132e+00 1.7311831e+00 -2.0792846e-02 
1.9069452e+00 1.7191867e+00 -1.7043415e-02 
1.9198363e+00 1.7307440e+00 -1.6011395e-02 
1.9065382e+00 1.7185711e+00 -4.5565451e-03 
1.9334537e+00 1.7432008e+00 -2.6940104e-02 
1.9038953e+00 1.7162719e+00 -8.2645155e-03 
1.9005725e+00 1.7132167e+00 -4.4754185e-03 
1.8999276e+00 1.7128078e+00 -1.3229051e-02 
1.9068751e+00 1.7191792e+00 -1.9608654e-02 
1.9065232e+00 1.7186770e+00 -1.0519312e-02 
1.9022568e+00 1.7150211e+00 -1.9209674e-02 
1.9018787e+00 1.7144297e+00 -6.5609892e-03 
1.8978074e+00 1.7109817e+00 -1.7235536e-02 
1.8958288e+00 1.7090315e+00 -8.2587935e-03 
1.8973651e+00 1.7103388e+00 -4.5043835e-03 
1.9193062e+00 1.7305038e+00 -2.7240202e-02 
1.8986521e+00 1.7117959e+00 -1.9748015e-02 
1.8921459e+00 1.7056514e+00 -4.3750415e-03 
1.8918235e+00 1.7055297e+00 -1.3325560e-02 
1.8982683e+00 1.7112550e+00 -9.8886807e-03 
1.9027277e+00 1.7154866e+00 -2.1182843e-02 
1.8930111e+00 1.7067182e+00 -1.9419018e-02 
1.9023503e+00 1.7150555e+00 -1.6519289e-02 
1.8925987e+00 1.7060992e+00 -6.5502925e-03 
1.8876921e+00 1.7017231e+00 -8.2549928e-03 
1.8884646e+00 1.7025919e+00 -1.7431119e-02 
1.8879871e+00 1.7019197e+00 -4.4475705e-03 
1.8836466e+00 1.6981844e+00 -1.3425150e-02 
1.8834157e+00 1.6978141e+00 -4.3254439e-03 
1.9050677e+00 1.7177163e+00 -2.7541157e-02 
1.8883824e+00 1.7025692e+00 -1.9963188e-02 
1.8879647e+00 1.7020156e+00 -1.0683086e-02 
1.8835533e+00 1.6982208e+00 -1.9632805e-02 
1.8794795e+00 1.6943455e+00 -8.2502868e-03 
1.8831115e+00 1.6975780e+00 -6.5401196e-03 
1.8789052e+00 1.6940005e+00 -1.7631454e-02 
1.8783977e+00 1.6933068e+00 -4.3878993e-03 
1.8753932e+00 1.6907659e+00 -1.3526058e-02 
1.8747294e+00 1.6900117e+00 -4.3442105e-03 
1.8797801e+00 1.6948379e+00 -2.0112446e-02 
1.8793358e+00 1.6942496e+00 -1.0021059e-02 
1.8711890e+00 1.6868923e+00 -8.2451943e-03 
1.8816659e+00 1.6965625e+00 -2.1537116e-02 
1.8738731e+00 1.6895183e+00 -1.9851714e-02 
1.8813519e+00 1.6961888e+00 -1.6646607e-02 
1.8734059e+00 1.6888567e+00 -6.5271142e-03 
1.8907517e+00 1.7048535e+00 -2.7843719e-02 
1.8691188e+00 1.6851999e+00 -1.7836932e-02 
1.8685858e+00 1.6844893e+00 -4.3244641e-03 
1.8670613e+00 1.6832720e+00 -1.3628760e-02 
1.8670359e+00 1.6830966e+00 -4.4976259e-03 
1.8690196e+00 1.6851591e+00 -2.0329447e-02 
1.8628161e+00 1.6793630e+00 -8.2389731e-03 
1.8685567e+00 1.6845741e+00 -1.0860428e-02 
1.8639606e+00 1.6806000e+00 -2.0075219e-02 
1.8634723e+00 1.6799262e+00 -6.5151365e-03 
1.8586456e+00 1.6757027e+00 -1.3729015e-02 
1.8585817e+00 1.6754973e+00 -4.5854906e-03 
1.8590957e+00 1.6761800e+00 -1.8048918e-02 
1.8763324e+00 1.6918876e+00 -2.8146835e-02 
1.8585416e+00 1.6754565e+00 -4.2589498e-03 
1.8600003e+00 1.6770424e+00 -2.0487277e-02 
1.8543583e+00 1.6717553e+00 -8.2302568e-03 
1.8595167e+00 1.6764284e+00 -1.0164717e-02 
1.8542944e+00 1.6717620e+00 -1.2263849e-02 
1.8630958e+00 1.6798564e+00 -2.1878850e-02 
1.8627732e+00 1.6794797e+00 -1.6907055e-02 
1.8538039e+00 1.6714537e+00 -2.0303272e-02 
1.8533001e+00 1.6707729e+00 -6.5015899e-03 
1.8501419e+00 1.6680462e+00 -1.3830655e-02 
1.8501116e+00 1.6678745e+00 -4.4074878e-03 
1.8488219e+00 1.6669296e+00 -1.8261230e-02 
1.8482566e+00 1.6662034e+00 -4.1929996e-03 
1.8458186e+00 1.6640683e+00 -8.2246410e-03 
1.8618006e+00 1.6788048e+00 -2.8449213e-02 
1.8487041e+00 1.6668658e+00 -2.0707471e-02 
1.8482152e+00 1.6662683e+00 -1.1053702e-02 
1.8420019e+00 1.6605717e+00 -4.1726632e-03 
1.8415581e+00 1.6603142e+00 -1.3936495e-02 
1.8433933e+00 1.6620755e+00 -2.0534251e-02 
1.8428802e+00 1.6613925e+00 -6.4884517e-03 
1.8371943e+00 1.6562980e+00 -8.2222605e-03 
1.8382872e+00 1.6574366e+00 -1.8480459e-02 
1.8377109e+00 1.6567075e+00 -4.1168635e-03 
1.8392249e+00 1.6583242e+00 -2.0871691e-02 
1.8439523e+00 1.6626128e+00 -2.2478513e-02 
1.8387282e+00 1.6577097e+00 -1.0322556e-02 
1.8434619e+00 1.6621029e+00 -1.8032677e-02 
1.8328838e+00 1.6524941e+00 -1.4046786e-02 
1.8328466e+00 1.6523310e+00 -4.3160096e-03 
1.8471439e+00 1.6655890e+00 -2.8751696e-02 
1.8327130e+00 1.6524439e+00 -2.0772582e-02 
1.8321927e+00 1.6517657e+00 -6.4663887e-03 
1.8284717e+00 1.6484337e+00 -8.2192263e-03 
1.8274779e+00 1.6476836e+00 -1.8706478e-02 
1.8268956e+00 1.6469604e+00 -4.0353020e-03 
1.8241116e+00 1.6445810e+00 -1.4157783e-02 
1.8240701e+00 1.6444141e+00 -4.2686085e-03 
1.8273388e+00 1.6475965e+00 -2.1101486e-02 
1.8268417e+00 1.6470065e+00 -1.1262505e-02 
1.8196501e+00 1.6404756e+00 -8.2099037e-03 
1.8217497e+00 1.6425439e+00 -2.1015529e-02 
1.8212293e+00 1.6418781e+00 -6.4491155e-03 
1.8323874e+00 1.6522757e+00 -2.9058207e-02 
1.8163762e+00 1.6376588e+00 -1.8934468e-02 
1.8152399e+00 1.6365688e+00 -1.4262262e-02 
1.8152024e+00 1.6364084e+00 -4.2180261e-03 
1.8158016e+00 1.6369497e+00 -3.9600288e-03 
1.8223375e+00 1.6431066e+00 -2.2969712e-02 
1.8173509e+00 1.6385772e+00 -2.1272197e-02 
1.8218553e+00 1.6426126e+00 -1.8636340e-02 
1.8168529e+00 1.6379799e+00 -1.0488554e-02 
1.8107368e+00 1.6324245e+00 -8.2042087e-03 
1.8104846e+00 1.6323711e+00 -2.1256996e-02 
1.8099786e+00 1.6317194e+00 -6.4297188e-03 
1.8062747e+00 1.6284705e+00 -1.4372231e-02 
1.8062248e+00 1.6283096e+00 -4.1658534e-03 
1.8049755e+00 1.6273519e+00 -1.9172713e-02 
1.8044041e+00 1.6266645e+00 -3.8696630e-03 
1.8174864e+00 1.6388093e+00 -2.9364664e-02 
1.8017174e+00 1.6242836e+00 -8.1934435e-03 
1.8048060e+00 1.6272359e+00 -2.1499740e-02 
1.8043365e+00 1.6266854e+00 -1.1493205e-02 
1.7971984e+00 1.6202613e+00 -1.4482264e-02 
1.7971534e+00 1.6201137e+00 -4.1092220e-03 
1.7989146e+00 1.6218979e+00 -2.1512456e-02 
1.7984157e+00 1.6212757e+00 -6.4008343e-03 
1.7925961e+00 1.6160306e+00 -8.1925457e-03 
1.7932466e+00 1.6167428e+00 -1.9409940e-02 
1.7926979e+00 1.6160762e+00 -3.7800265e-03 
1.7995352e+00 1.6224912e+00 -2.3493744e-02 
1.7990897e+00 1.6220402e+00 -1.9300049e-02 
1.7930717e+00 1.6166128e+00 -2.1715837e-02 
1.8024392e+00 1.6251936e+00 -2.9665506e-02 
1.7880199e+00 1.6119559e+00 -1.4603110e-02 
1.7879622e+00 1.6118011e+00 -4.0500653e-03 
1.7926193e+00 1.6160877e+00 -1.1612183e-02 
1.7870023e+00 1.6111177e+00 -2.1761188e-02 
1.7865348e+00 1.6105242e+00 -6.3775619e-03 
1.7833536e+00 1.6076673e+00 -8.1810113e-03 
1.7811819e+00 1.6058086e+00 -1.9654144e-02 
1.7806535e+00 1.6051788e+00 -3.6847889e-03 
1.7787167e+00 1.6035225e+00 -1.4716969e-02 
1.7786636e+00 1.6033796e+00 -3.9876509e-03 
1.7809869e+00 1.6056646e+00 -2.1922784e-02 
1.7772393e+00 1.6021374e+00 -8.6991051e-03 
1.7805637e+00 1.6051750e+00 -1.1737887e-02 
1.7739969e+00 1.5991821e+00 -8.1793685e-03 
1.7872741e+00 1.6114638e+00 -2.9971395e-02 
1.7807257e+00 1.6054488e+00 -2.3617813e-02 
1.7747482e+00 1.6000006e+00 -2.2032229e-02 
1.7804867e+00 1.6051794e+00 -1.8742308e-02 
1.7743059e+00 1.5994506e+00 -6.3476739e-03 
1.7692976e+00 1.5949818e+00 -1.4839286e-02 
1.7692364e+00 1.5948302e+00 -3.9279233e-03 
1.7687515e+00 1.5945308e+00 -1.9919984e-02 
1.7682633e+00 1.5939486e+00 -3.5661191e-03 
1.7645144e+00 1.5905817e+00 -8.1653912e-03 
1.7685438e+00 1.5943741e+00 -2.2130424e-02 
1.7681625e+00 1.5939234e+00 -1.1869174e-02 
1.7621139e+00 1.5885293e+00 -2.2294458e-02 
1.7597555e+00 1.5863194e+00 -1.4954085e-02 
1.7596952e+00 1.5861742e+00 -3.8657479e-03 
1.7617168e+00 1.5880282e+00 -6.3173119e-03 
1.7719326e+00 1.5975435e+00 -3.0263277e-02 
1.7559372e+00 1.5828929e+00 -2.0168016e-02 
1.7549162e+00 1.5818702e+00 -8.1558442e-03 
1.7635269e+00 1.5898129e+00 -2.1220103e-02 
1.7634692e+00 1.5897951e+00 -2.5029151e-02 
1.7554946e+00 1.5823574e+00 -3.4641821e-03 
1.7557173e+00 1.5827211e+00 -2.2338053e-02 
1.7553949e+00 1.5823357e+00 -1.2005326e-02 
1.7500960e+00 1.5775372e+00 -1.5068613e-02 
1.7500304e+00 1.5773996e+00 -3.8006811e-03 
1.7490911e+00 1.5766892e+00 -2.2559488e-02 
1.7487448e+00 1.5762491e+00 -6.2799612e-03 
1.7451980e+00 1.5730426e+00 -8.1463391e-03 
1.7564225e+00 1.5834452e+00 -3.0570079e-02 
1.7427325e+00 1.5708796e+00 -2.0419950e-02 
1.7423400e+00 1.5704037e+00 -3.3577129e-03 
1.7403183e+00 1.5686392e+00 -1.5170972e-02 
1.7402539e+00 1.5685163e+00 -3.7333353e-03 
1.7479324e+00 1.5756347e+00 -2.1431003e-02 
1.7478814e+00 1.5756211e+00 -2.5299797e-02 
1.7422942e+00 1.5705085e+00 -2.2558371e-02 
1.7419120e+00 1.5700735e+00 -1.2056189e-02 
1.7370027e+00 1.5655973e+00 -1.0600061e-02 
1.7353716e+00 1.5640931e+00 -8.1469333e-03 
1.7357802e+00 1.5645663e+00 -2.2820683e-02 
1.7355618e+00 1.5642581e+00 -6.1218608e-03 
1.7304970e+00 1.5596914e+00 -1.5200793e-02 
1.7304162e+00 1.5595624e+00 -3.6837356e-03 
1.7293431e+00 1.5586689e+00 -2.0696957e-02 
1.7407362e+00 1.5691674e+00 -3.0870743e-02 
1.7291484e+00 1.5583972e+00 -3.2266025e-03 
1.7255603e+00 1.5551611e+00 -8.1306156e-03 
1.7285776e+00 1.5580025e+00 -2.2766503e-02 
1.7285507e+00 1.5578994e+00 -1.1732494e-02 
1.7321903e+00 1.5612963e+00 -2.1665387e-02 
1.7321461e+00 1.5612857e+00 -2.5580419e-02 
1.7239115e+00 1.5536680e+00 -1.0570448e-02 
1.7206937e+00 1.5507398e+00 -1.5224163e-02 
1.7224551e+00 1.5524099e+00 -2.3071559e-02 
1.7206190e+00 1.5506382e+00 -3.6328656e-03 
1.7224187e+00 1.5522691e+00 -5.9147715e-03 
1.7157761e+00 1.5462344e+00 -8.1307609e-03 
1.7160943e+00 1.5465674e+00 -2.0965779e-02 
1.7160746e+00 1.5464795e+00 -3.0872547e-03 
1.7249254e+00 1.5547413e+00 -3.1170059e-02 
1.7153147e+00 1.5458903e+00 -2.2953602e-02 
1.7154652e+00 1.5459609e+00 -1.1385785e-02 
1.7109184e+00 1.5418144e+00 -1.5243147e-02 
1.7108352e+00 1.5417112e+00 -3.5811425e-03 
1.7161162e+00 1.5466336e+00 -2.4639200e-02 
1.7161859e+00 1.5466640e+00 -1.9334078e-02 
1.7092706e+00 1.5403463e+00 -2.3315696e-02 
1.7094063e+00 1.5403947e+00 -5.7095913e-03 
1.7075953e+00 1.5387669e+00 -1.0538892e-02 
1.7060078e+00 1.5373083e+00 -8.1231324e-03 
1.7031187e+00 1.5346501e+00 -2.9530262e-03 
1.7029929e+00 1.5345761e+00 -2.1224318e-02 
1.7011546e+00 1.5328851e+00 -1.5265985e-02 
1.7010630e+00 1.5327826e+00 -3.5235751e-03 
1.7025139e+00 1.5341102e+00 -1.1048261e-02 
1.7022099e+00 1.5338922e+00 -2.3149585e-02 
1.7090065e+00 1.5401715e+00 -3.1444624e-02 
1.6962494e+00 1.5283852e+00 -8.1069730e-03 
1.6965053e+00 1.5286062e+00 -5.5050477e-03 
1.6962358e+00 1.5283980e+00 -2.3547862e-02 
1.7003331e+00 1.5321947e+00 -2.6125856e-02 
1.6991658e+00 1.5311031e+00 -1.9867897e-02 
1.6914008e+00 1.5239488e+00 -1.5275592e-02 
1.6911509e+00 1.5237111e+00 -3.5620683e-03 
1.6902862e+00 1.5229211e+00 -2.8419667e-03 
1.6900177e+00 1.5226920e+00 -2.1445828e-02 
1.6870934e+00 1.5199986e+00 -1.0751677e-02 
1.6865190e+00 1.5194730e+00 -8.1060678e-03 
1.6896840e+00 1.5223720e+00 -1.0715002e-02 
1.6874394e+00 1.5203511e+00 -2.3400798e-02 
1.6837330e+00 1.5169077e+00 -5.2865157e-03 
1.6833264e+00 1.5165601e+00 -2.3774205e-02 
1.6816831e+00 1.5150437e+00 -1.5292726e-02 
1.6929557e+00 1.5254418e+00 -3.1700935e-02 
1.6815916e+00 1.5149544e+00 -3.4267914e-03 
1.6796030e+00 1.5131315e+00 -1.0561379e-02 
1.6844594e+00 1.5176101e+00 -1.9976623e-02 
1.6768042e+00 1.5105633e+00 -8.0968169e-03 
1.6775745e+00 1.5112685e+00 -2.6799694e-03 
1.6771785e+00 1.5109137e+00 -2.1689419e-02 
1.6842680e+00 1.5174422e+00 -2.6382668e-02 
1.6769571e+00 1.5106894e+00 -1.0399434e-02 
1.6763880e+00 1.5102019e+00 -2.3589062e-02 
1.6719764e+00 1.5061301e+00 -1.5293658e-02 
1.6718807e+00 1.5060493e+00 -3.3818923e-03 
1.6710622e+00 1.5052801e+00 -5.0890488e-03 
1.6705478e+00 1.5048172e+00 -2.3996107e-02 
1.6677543e+00 1.5022538e+00 -8.6800382e-03 
1.6671160e+00 1.5016661e+00 -8.0901347e-03 
1.6768442e+00 1.5106417e+00 -3.1971455e-02 
1.6649649e+00 1.4996915e+00 -2.5583459e-03 
1.6644719e+00 1.4992330e+00 -2.1897923e-02 
1.6698413e+00 1.5041804e+00 -1.8159887e-02 
1.6690896e+00 1.5034943e+00 -2.4541484e-02 
1.6622990e+00 1.4972236e+00 -1.5296959e-02 
1.6643460e+00 1.4991184e+00 -1.0084221e-02 
1.6610730e+00 1.4961286e+00 -2.9173950e-03 
1.6636856e+00 1.4985168e+00 -2.3794945e-02 
1.6574526e+00 1.4927858e+00 -8.0712298e-03 
1.6585101e+00 1.4937576e+00 -4.9070073e-03 
1.6578991e+00 1.4931805e+00 -2.4204046e-02 
1.6525244e+00 1.4882724e+00 -3.2835321e-03 
1.6524999e+00 1.4882201e+00 -1.4587995e-02 
1.6524662e+00 1.4882102e+00 -2.4310935e-03 
1.6519117e+00 1.4876641e+00 -2.2098355e-02 
1.6606473e+00 1.4957509e+00 -3.2225858e-02 
1.6492561e+00 1.4852420e+00 -1.2142473e-02 
1.6518440e+00 1.4876105e+00 -9.7730858e-03 
1.6511143e+00 1.4869471e+00 -2.3992866e-02 
1.6477982e+00 1.4839110e+00 -8.0494117e-03 
1.6460580e+00 1.4822938e+00 -4.6958923e-03 
1.6518862e+00 1.4876624e+00 -2.6885901e-02 
1.6518874e+00 1.4876688e+00 -2.2780554e-02 
1.6440513e+00 1.4804807e+00 -2.7841148e-03 
1.6453968e+00 1.4816792e+00 -2.4409415e-02 
1.6438551e+00 1.4802475e+00 -1.6234128e-02 
1.6484929e+00 1.4845376e+00 -1.5162745e-02 
1.6471014e+00 1.4832522e+00 -2.4162143e-02 
1.6400738e+00 1.4768122e+00 -2.2902573e-03 
1.6394551e+00 1.4761834e+00 -2.2336937e-02 
1.6381594e+00 1.4750426e+00 -8.0324765e-03 
1.6394495e+00 1.4762096e+00 -9.4579235e-03 
1.6386521e+00 1.4754643e+00 -2.4183029e-02 
1.6443294e+00 1.4806962e+00 -3.2493629e-02 
1.6332804e+00 1.4705675e+00 -2.5690268e-03 
1.6331981e+00 1.4704248e+00 -1.6396532e-02 
1.6337082e+00 1.4709386e+00 -4.4932459e-03 
1.6329950e+00 1.4702249e+00 -2.4597570e-02 
1.6285355e+00 1.4661744e+00 -8.0242278e-03 
1.6355176e+00 1.4725556e+00 -2.7123919e-02 
1.6355118e+00 1.4725614e+00 -2.2980761e-02 
1.6277726e+00 1.4654984e+00 -2.1735444e-03 
1.6271224e+00 1.4647931e+00 -2.2520516e-02 
1.6271435e+00 1.4648727e+00 -9.1567235e-03 
1.6228687e+00 1.4609065e+00 -1.6217172e-02 
1.6251520e+00 1.4630001e+00 -2.4513114e-02 
1.6261219e+00 1.4639206e+00 -1.4856454e-02 
1.6210208e+00 1.4592825e+00 -2.4859619e-03 
1.6214536e+00 1.4596527e+00 -4.2984770e-03 
1.6207132e+00 1.4588802e+00 -2.4797393e-02 
1.6189332e+00 1.4573185e+00 -8.0097150e-03 
1.6278921e+00 1.4655126e+00 -3.2753237e-02 
1.6155008e+00 1.4541346e+00 -1.1731003e-02 
1.6155831e+00 1.4542508e+00 -2.0322495e-03 
1.6192794e+00 1.4575682e+00 -2.4509098e-02 
1.6143075e+00 1.4530083e+00 -1.4716716e-02 
1.6148958e+00 1.4535100e+00 -2.2705417e-02 
1.6140083e+00 1.4528160e+00 -3.0843995e-03 
1.6149451e+00 1.4536157e+00 -8.8567464e-03 
1.6190436e+00 1.4573474e+00 -2.7346833e-02 
1.6190265e+00 1.4573513e+00 -2.3174711e-02 
1.6140828e+00 1.4527686e+00 -2.4556579e-02 
1.6095747e+00 1.4487244e+00 -2.1045543e-03 
1.6093398e+00 1.4484684e+00 -7.9905372e-03 
1.6093076e+00 1.4484397e+00 -4.1180807e-03 
1.6085443e+00 1.4476331e+00 -2.4976760e-02 
1.6059114e+00 1.4453375e+00 -3.1325305e-03 
1.6045533e+00 1.4439925e+00 -1.5266319e-02 
1.6034827e+00 1.4430976e+00 -1.9031860e-03 
1.6027923e+00 1.4423163e+00 -2.2867288e-02 
1.6113601e+00 1.4502287e+00 -3.2983772e-02 
1.6028407e+00 1.4424422e+00 -8.5595744e-03 
1.5997695e+00 1.4396262e+00 -7.9803811e-03 
1.6008478e+00 1.4405208e+00 -2.4876602e-02 
1.5973948e+00 1.4374788e+00 -2.2339462e-03 
1.6016583e+00 1.4413213e+00 -1.5383101e-02 
1.5972486e+00 1.4373083e+00 -3.9181677e-03 
1.5966040e+00 1.4366803e+00 -1.0319310e-02 
1.5955590e+00 1.4356612e+00 -1.6698113e-02 
1.6024868e+00 1.4420261e+00 -2.7553342e-02 
1.5964918e+00 1.4364780e+00 -2.5146930e-02 
1.6024615e+00 1.4420267e+00 -2.3351995e-02 
1.5914780e+00 1.4320058e+00 -1.7599049e-03 
1.5950704e+00 1.4351785e+00 -2.4546986e-02 
1.5902047e+00 1.4307948e+00 -7.9618450e-03 
1.5907966e+00 1.4312055e+00 -2.3051921e-02 
1.5908264e+00 1.4313344e+00 -8.2706809e-03 
1.5899730e+00 1.4304515e+00 -2.4905805e-02 
1.5851958e+00 1.4260606e+00 -1.6965121e-02 
1.5854361e+00 1.4263020e+00 -1.5958441e-02 
1.5947323e+00 1.4348314e+00 -3.3201542e-02 
1.5852817e+00 1.4262483e+00 -3.7288694e-03 
1.5845450e+00 1.4253987e+00 -2.5314307e-02 
1.5833317e+00 1.4244833e+00 -2.1742762e-03 
1.5806606e+00 1.4219496e+00 -7.9599731e-03 
1.5795548e+00 1.4209828e+00 -1.6034748e-03 
1.5858097e+00 1.4265863e+00 -2.7747672e-02 
1.5857779e+00 1.4265888e+00 -2.3512814e-02 
1.5788982e+00 1.4201738e+00 -2.3219949e-02 
1.5789013e+00 1.4203043e+00 -7.9680877e-03 
1.5757391e+00 1.4174466e+00 -2.8980884e-03 
1.5769725e+00 1.4183825e+00 -2.5212443e-02 
1.5749681e+00 1.4165901e+00 -1.6530441e-02 
1.5766755e+00 1.4182035e+00 -1.3911645e-02 
1.5733899e+00 1.4152492e+00 -3.5472261e-03 
1.5722972e+00 1.4142587e+00 -1.7181607e-03 
1.5726920e+00 1.4144027e+00 -2.5459412e-02 
1.5711088e+00 1.4130976e+00 -7.9614930e-03 
1.5779816e+00 1.4193012e+00 -3.3414274e-02 
1.5684352e+00 1.4105549e+00 -1.4334557e-02 
1.5712774e+00 1.4131157e+00 -2.4622496e-02 
1.5677112e+00 1.4100093e+00 -1.4715610e-03 
1.5670938e+00 1.4092091e+00 -2.3372544e-02 
1.5665123e+00 1.4087567e+00 -1.4868912e-02 
1.5661927e+00 1.4085968e+00 -2.8494115e-03 
1.5652667e+00 1.4076182e+00 -1.3731668e-02 
1.5670568e+00 1.4093173e+00 -7.6804934e-03 
1.5662636e+00 1.4084501e+00 -2.5252964e-02 
1.5690029e+00 1.4109887e+00 -2.7927028e-02 
1.5689636e+00 1.4109839e+00 -2.3659116e-02 
1.5615770e+00 1.4042506e+00 -7.9446444e-03 
1.5612055e+00 1.4039799e+00 -1.4994213e-03 
1.5615877e+00 1.4042978e+00 -3.3121097e-03 
1.5609266e+00 1.4034736e+00 -2.5638280e-02 
1.5568057e+00 1.3997335e+00 -1.5215217e-02 
1.5566422e+00 1.3997400e+00 -2.7962273e-03 
1.5563184e+00 1.3993211e+00 -1.2729995e-02 
1.5559350e+00 1.3990813e+00 -1.3253109e-03 
1.5553859e+00 1.3983284e+00 -2.3541976e-02 
1.5552613e+00 1.3983486e+00 -1.2088697e-02 
1.5541635e+00 1.3973637e+00 -6.6050119e-03 
1.5520375e+00 1.3953992e+00 -7.9145068e-03 
1.5534636e+00 1.3965403e+00 -2.5519684e-02 
1.5516533e+00 1.3951175e+00 -1.4043465e-03 
1.5611132e+00 1.4036251e+00 -3.3596564e-02 
1.5498437e+00 1.3934039e+00 -3.1127837e-03 
1.5492444e+00 1.3926016e+00 -2.5805803e-02 
1.5480479e+00 1.3915712e+00 -1.7023208e-02 
1.5471103e+00 1.3908873e+00 -2.7391345e-03 
1.5460540e+00 1.3897675e+00 -1.3053773e-02 
1.5520930e+00 1.3952743e+00 -2.8070873e-02 
1.5520467e+00 1.3952693e+00 -2.3781549e-02 
1.5487174e+00 1.3922385e+00 -1.3697967e-02 
1.5478591e+00 1.3913455e+00 -2.4712296e-02 
1.5442477e+00 1.3882313e+00 -1.1733482e-03 
1.5437378e+00 1.3874904e+00 -2.3687920e-02 
1.5438604e+00 1.3876959e+00 -1.6039997e-02 
1.5425007e+00 1.3865319e+00 -7.9159187e-03 
1.5421103e+00 1.3862458e+00 -1.3275910e-03 
1.5435789e+00 1.3875297e+00 -7.0929420e-03 
1.5429112e+00 1.3867328e+00 -2.5537418e-02 
1.5378388e+00 1.3820630e+00 -1.7375190e-02 
1.5375612e+00 1.3820115e+00 -2.6968338e-03 
1.5381775e+00 1.3825496e+00 -2.9348966e-03 
1.5376675e+00 1.3818223e+00 -2.5914956e-02 
1.5441353e+00 1.3878309e+00 -3.3767268e-02 
1.5329665e+00 1.3776561e+00 -7.9078050e-03 
1.5325649e+00 1.3773767e+00 -1.2505247e-03 
1.5326091e+00 1.3774029e+00 -1.0412339e-03 
1.5330247e+00 1.3776188e+00 -1.4652061e-02 
1.5322046e+00 1.3767433e+00 -2.3801662e-02 
1.5294787e+00 1.3743317e+00 -1.3676398e-02 
1.5308632e+00 1.3756914e+00 -6.0673659e-03 
1.5302842e+00 1.3749481e+00 -2.5807977e-02 
1.5350728e+00 1.3794130e+00 -2.8219871e-02 
1.5280266e+00 1.3731405e+00 -2.6557106e-03 
1.5350192e+00 1.3794041e+00 -2.3901043e-02 
1.5274599e+00 1.3723960e+00 -1.7082468e-02 
1.5262780e+00 1.3713686e+00 -1.1820544e-02 
1.5265913e+00 1.3717631e+00 -2.7185918e-03 
1.5261570e+00 1.3710831e+00 -2.6070436e-02 
1.5234469e+00 1.3687937e+00 -7.8880489e-03 
1.5230402e+00 1.3685062e+00 -1.1583687e-03 
1.5254779e+00 1.3706107e+00 -1.2885745e-02 
1.5247815e+00 1.3698441e+00 -2.4804683e-02 
1.5210698e+00 1.3666615e+00 -8.7250478e-04 
1.5207441e+00 1.3660520e+00 -2.3942977e-02 
1.5192686e+00 1.3648140e+00 -1.3382806e-02 
1.5185175e+00 1.3642745e+00 -2.6073246e-03 
1.5203886e+00 1.3659357e+00 -6.5424382e-03 
1.5199187e+00 1.3652745e+00 -2.5806472e-02 
1.5270280e+00 1.3718742e+00 -3.3933789e-02 
1.5174965e+00 1.3631083e+00 -1.6840030e-02 
1.5150505e+00 1.3610114e+00 -2.5545692e-03 
1.5139325e+00 1.3599139e+00 -7.8842752e-03 
1.5147349e+00 1.3604199e+00 -2.6160177e-02 
1.5135131e+00 1.3596230e+00 -1.0803721e-03 
1.5179005e+00 1.3633924e+00 -2.8351355e-02 
1.5178369e+00 1.3633827e+00 -2.3998152e-02 
1.5095737e+00 1.3559456e+00 -7.3122815e-04 
1.5091662e+00 1.3553506e+00 -1.5104109e-02 
1.5089885e+00 1.3553876e+00 -2.5537563e-03 
1.5090964e+00 1.3553224e+00 -1.3320052e-02 
1.5093606e+00 1.3554111e+00 -2.4048466e-02 
1.5076697e+00 1.3539940e+00 -1.3267719e-02 
1.5078259e+00 1.3542296e+00 -5.5395272e-03 
1.5074605e+00 1.3536365e+00 -2.6036162e-02 
1.5044142e+00 1.3510365e+00 -7.8448458e-03 
1.5039907e+00 1.3507466e+00 -9.9438976e-04 
1.5035977e+00 1.3503458e+00 -2.3434872e-03 
1.5034012e+00 1.3498214e+00 -2.6293015e-02 
1.5097598e+00 1.3557233e+00 -3.4079820e-02 
1.5000644e+00 1.3468215e+00 -1.7304519e-02 
1.4994731e+00 1.3465171e+00 -2.5021750e-03 
1.5025016e+00 1.3491887e+00 -1.2107360e-02 
1.5020360e+00 1.3485843e+00 -2.4932949e-02 
1.4989498e+00 1.3458457e+00 -1.3453559e-02 
1.4981512e+00 1.3452879e+00 -5.8582955e-04 
1.4980646e+00 1.3448551e+00 -2.4147052e-02 
1.4974682e+00 1.3445568e+00 -5.9943963e-03 
1.4972305e+00 1.3440731e+00 -2.6009934e-02 
1.4949046e+00 1.3421627e+00 -7.8339837e-03 
1.4944713e+00 1.3418653e+00 -9.0585992e-04 
1.5005783e+00 1.3471751e+00 -2.8465932e-02 
1.5005003e+00 1.3471675e+00 -2.4076717e-02 
1.4931506e+00 1.3403939e+00 -1.5880454e-02 
1.4922005e+00 1.3397008e+00 -2.1703055e-03 
1.4921358e+00 1.3392862e+00 -2.6399357e-02 
1.4899589e+00 1.3376361e+00 -2.4601335e-03 
1.4881641e+00 1.3356864e+00 -1.7689394e-02 
1.4867939e+00 1.3346852e+00 -4.5635796e-04 
1.4868407e+00 1.3343534e+00 -2.4245342e-02 
1.4854010e+00 1.3332862e+00 -7.8292200e-03 
1.4852027e+00 1.3329895e+00 -1.4196502e-02 
1.4923218e+00 1.3393685e+00 -3.4208182e-02 
1.4816353e+00 1.3296897e+00 -1.1006729e-02 
1.4793744e+00 1.3275200e+00 -1.4577853e-02 
1.4758986e+00 1.3243879e+00 -7.8193247e-03 
1.4758668e+00 1.3242174e+00 -1.4831844e-02 
1.4757531e+00 1.3243525e+00 -1.9821795e-03 
1.4757979e+00 1.3240653e+00 -2.0184616e-02 
1.4756171e+00 1.3242457e+00 -6.4160052e-04 
1.4757059e+00 1.3239204e+00 -2.4345914e-02 
1.4754775e+00 1.3241050e+00 -3.0607716e-04 
1.4755688e+00 1.3237680e+00 -2.6541065e-02 
1.4753543e+00 1.3239449e+00 -2.6198588e-03 
1.4754006e+00 1.3236330e+00 -2.5724199e-02 
1.4752495e+00 1.3237704e+00 -7.3728748e-03 
1.4752220e+00 1.3234780e+00 -2.4998128e-02 
1.4751164e+00 1.3235456e+00 -1.4227250e-02 
1.4749986e+00 1.3232309e+00 -2.7709680e-02 
1.4749359e+00 1.3232646e+00 -2.2711392e-02 
1.4662958e+00 1.3154056e+00 -7.8096320e-03 
1.4667087e+00 1.3156768e+00 -1.3595238e-02 
1.4747689e+00 1.3229132e+00 -3.4296144e-02 
1.4644928e+00 1.3134065e+00 -2.4408409e-02 
1.4635062e+00 1.3129052e+00 -1.9290574e-03 
1.4638934e+00 1.3132781e+00 -1.7583973e-04 
1.4632504e+00 1.3123597e+00 -1.7820170e-02 
1.4606385e+00 1.3101795e+00 -2.2496232e-03 
1.4586303e+00 1.3083574e+00 -4.5442628e-04 
1.4584148e+00 1.3076825e+00 -2.6661601e-02 
1.4563137e+00 1.3060482e+00 -7.8051579e-03 
1.4530079e+00 1.3026257e+00 -2.4484139e-02 
1.4526588e+00 1.3025216e+00 -1.2985028e-02 
1.4522467e+00 1.3021015e+00 -1.4545152e-02 
1.4520237e+00 1.3021708e+00 -1.7656466e-05 
1.4509003e+00 1.3010935e+00 -2.0316227e-03 
1.4524252e+00 1.3020824e+00 -2.6243581e-02 
1.4507725e+00 1.3006612e+00 -1.7560346e-02 
1.4515848e+00 1.3016320e+00 -5.4999175e-03 
1.4570543e+00 1.3062912e+00 -3.4360830e-02 
1.4538898e+00 1.3034191e+00 -2.7649123e-02 
1.4459364e+00 1.2963195e+00 -7.7979201e-03 
1.4467880e+00 1.2967608e+00 -2.6754636e-02 
1.4468943e+00 1.2971144e+00 -1.3015918e-02 
1.4457697e+00 1.2963082e+00 -3.1674997e-04 
1.4456491e+00 1.2961551e+00 -1.5920252e-03 
1.4467107e+00 1.2967392e+00 -2.4994085e-02 
1.4455466e+00 1.2957951e+00 -1.6261909e-02 
1.4458476e+00 1.2961503e+00 -1.1615355e-02 
1.4476383e+00 1.2976252e+00 -2.4203215e-02 
1.4412519e+00 1.2915888e+00 -2.4555214e-02 
1.4405495e+00 1.2910987e+00 -1.5755048e-02 
1.4403023e+00 1.2911570e+00 -1.8586856e-03 
1.4418683e+00 1.2921648e+00 -2.6425976e-02 
1.4402864e+00 1.2909081e+00 -1.3292433e-02 
1.4398756e+00 1.2907794e+00 1.3885176e-04 
1.4406799e+00 1.2914232e+00 -4.6888278e-03 
1.4351429e+00 1.2861903e+00 -7.7781179e-03 
1.4349564e+00 1.2861686e+00 -1.7283857e-04 
1.4348614e+00 1.2855641e+00 -2.6813298e-02 
1.4336225e+00 1.2846233e+00 -1.4683071e-02 
1.4333295e+00 1.2845879e+00 -1.4593176e-03 
1.4392933e+00 1.2896302e+00 -3.4403604e-02 
1.4294797e+00 1.2806995e+00 -1.5860543e-02 
1.4292604e+00 1.2808005e+00 -1.6808544e-03 
1.4292051e+00 1.2802696e+00 -2.4619587e-02 
1.4274077e+00 1.2790725e+00 3.1250369e-04 
1.4325894e+00 1.2834558e+00 -2.7201841e-02 
1.4285711e+00 1.2796735e+00 -2.6292803e-02 
1.4269329e+00 1.2783679e+00 -1.3235715e-02 
1.4269457e+00 1.2785115e+00 -5.3718989e-03 
1.4238930e+00 1.2756197e+00 -7.7598104e-03 
1.4236870e+00 1.2755944e+00 -9.0229514e-06 
1.4297987e+00 1.2808887e+00 -2.4210287e-02 
1.4226583e+00 1.2740873e+00 -2.6866410e-02 
1.4224987e+00 1.2741987e+00 -1.3115184e-02 
1.4206874e+00 1.2727256e+00 -1.3383965e-03 
1.4225991e+00 1.2740891e+00 -2.4920242e-02 
1.4179873e+00 1.2698859e+00 -1.6085116e-02 
1.4177487e+00 1.2699873e+00 -1.5004259e-03 
1.4209353e+00 1.2727441e+00 -1.1792311e-02 
1.4168552e+00 1.2686431e+00 -2.4684027e-02 
1.4175041e+00 1.2692555e+00 -2.6441656e-02 
1.4166105e+00 1.2686473e+00 -1.4284173e-02 
1.4146153e+00 1.2670720e+00 4.6855293e-04 
1.4154598e+00 1.2677373e+00 -4.5685908e-03 
1.4128720e+00 1.2651404e+00 -1.3511002e-02 
1.4213735e+00 1.2728046e+00 -3.4474224e-02 
1.4121606e+00 1.2645949e+00 -7.7269292e-03 
1.4119393e+00 1.2645638e+00 1.3608007e-04 
1.4101357e+00 1.2622840e+00 -2.6949290e-02 
1.4085974e+00 1.2612104e+00 -9.0284096e-03 
1.4077191e+00 1.2605329e+00 -1.1783122e-03 
1.4059883e+00 1.2585992e+00 -1.6319498e-02 
1.4057521e+00 1.2587190e+00 -1.3157437e-03 
1.4113736e+00 1.2634957e+00 -2.7556349e-02 
1.4117674e+00 1.2639295e+00 -2.4204427e-02 
1.4041787e+00 1.2567147e+00 -2.4721220e-02 
1.4035072e+00 1.2560899e+00 -2.6266122e-02 
1.4015007e+00 1.2547382e+00 6.3998817e-04 
1.3999215e+00 1.2530953e+00 -7.7120541e-03 
1.3996849e+00 1.2530400e+00 2.9380957e-04 
1.4010108e+00 1.2541225e+00 -5.2802553e-03 
1.3974208e+00 1.2506486e+00 -1.0921216e-02 
1.3974009e+00 1.2506101e+00 -1.1690256e-02 
1.3972772e+00 1.2501856e+00 -2.6980709e-02 
1.4032301e+00 1.2557019e+00 -3.4529474e-02 
1.3972348e+00 1.2502226e+00 -2.4786975e-02 
1.3944160e+00 1.2480179e+00 -1.0293644e-03 
1.3934757e+00 1.2468146e+00 -1.6528070e-02 
1.3932346e+00 1.2469529e+00 -1.1183964e-03 
1.3946735e+00 1.2480505e+00 -1.1995646e-02 
1.3911858e+00 1.2444692e+00 -2.4765341e-02 
1.3918600e+00 1.2451074e+00 -2.6428508e-02 
1.3880213e+00 1.2420557e+00 8.2612911e-04 
1.3889041e+00 1.2427464e+00 -4.4400911e-03 
1.3936777e+00 1.2467930e+00 -2.8665081e-02 
1.3935547e+00 1.2467687e+00 -2.4183972e-02 
1.3871531e+00 1.2410570e+00 -7.7153975e-03 
1.3841023e+00 1.2377623e+00 -2.7008699e-02 
1.3811219e+00 1.2355725e+00 4.5574235e-04 
1.3810943e+00 1.2351673e+00 -1.5625853e-02 
1.3804203e+00 1.2344906e+00 -1.6489742e-02 
1.3801543e+00 1.2346216e+00 -1.0110325e-03 
1.3807338e+00 1.2351334e+00 -8.7788585e-04 
1.3778318e+00 1.2318715e+00 -2.4800388e-02 
1.3849682e+00 1.2384632e+00 -3.4511060e-02 
1.3771303e+00 1.2312139e+00 -2.6218541e-02 
1.3741719e+00 1.2290276e+00 1.0307329e-03 
1.3737934e+00 1.2284659e+00 -7.6768724e-03 
1.3736448e+00 1.2283543e+00 -5.1717111e-03 
1.3706849e+00 1.2254534e+00 -1.0867175e-02 
1.3705692e+00 1.2249779e+00 -2.7054073e-02 
1.3752633e+00 1.2295146e+00 -2.4134243e-02 
1.3688779e+00 1.2235662e+00 -1.8242637e-02 
1.3745670e+00 1.2287633e+00 -2.8672168e-02 
1.3705187e+00 1.2250006e+00 -2.4632983e-02 
1.3670863e+00 1.2223419e+00 5.8963487e-04 
1.3664913e+00 1.2217537e+00 -9.2107523e-04 
1.3666900e+00 1.2219132e+00 -7.2151015e-04 
1.3641480e+00 1.2189628e+00 -2.4807299e-02 
1.3648558e+00 1.2196120e+00 -2.6379835e-02 
1.3636873e+00 1.2188559e+00 -1.0706424e-02 
1.3634456e+00 1.2186028e+00 -1.1960967e-02 
1.3599621e+00 1.2156283e+00 1.2010133e-03 
1.3598433e+00 1.2153196e+00 -7.6585752e-03 
1.3608729e+00 1.2163377e+00 -4.3023368e-03 
1.3666129e+00 1.2211548e+00 -3.4480449e-02 
1.3570207e+00 1.2123390e+00 -1.9962182e-02 
1.3566775e+00 1.2118664e+00 -2.7053770e-02 
1.3515983e+00 1.2077464e+00 2.0346964e-04 
1.3522463e+00 1.2083023e+00 -5.6752376e-04 
1.3568622e+00 1.2121456e+00 -2.4082450e-02 
1.3560598e+00 1.2112993e+00 -2.7671607e-02 
1.3500903e+00 1.2056807e+00 -2.4831535e-02 
1.3496022e+00 1.2055795e+00 -1.0277406e-02 
1.3493215e+00 1.2049516e+00 -2.6129216e-02 
1.3453461e+00 1.2018574e+00 1.3955449e-03 
1.3452696e+00 1.2015650e+00 -7.6468708e-03 
1.3447539e+00 1.2011135e+00 -5.0763292e-03 
1.3427911e+00 1.1988875e+00 -2.0049395e-02 
1.3424021e+00 1.1983744e+00 -2.7072934e-02 
1.3481284e+00 1.2036556e+00 -3.4465600e-02 
1.3378736e+00 1.1948178e+00 9.5701043e-04 
1.3374114e+00 1.1943082e+00 -4.0559951e-04 
1.3356447e+00 1.1920229e+00 -2.4855273e-02 
1.3378928e+00 1.1941868e+00 -2.4485914e-02 
1.3377416e+00 1.1943310e+00 -1.2554400e-02 
1.3354654e+00 1.1918495e+00 -2.6196903e-02 
1.3384788e+00 1.1946548e+00 -2.8513277e-02 
1.3383248e+00 1.1946256e+00 -2.4029179e-02 
1.3308252e+00 1.1881293e+00 -6.2401075e-04 
1.3303093e+00 1.1876830e+00 1.5924075e-03 
1.3312577e+00 1.1883960e+00 -4.1519809e-03 
1.3299763e+00 1.1871326e+00 -7.6224813e-03 
1.3284614e+00 1.1853440e+00 -2.0093545e-02 
1.3277391e+00 1.1845086e+00 -2.7070055e-02 
1.3233206e+00 1.1810865e+00 1.1150143e-03 
1.3221328e+00 1.1798958e+00 -2.3017562e-04 
1.3295403e+00 1.1860650e+00 -3.4409773e-02 
1.3207963e+00 1.1779771e+00 -2.4866503e-02 
1.3202478e+00 1.1778841e+00 -9.3454672e-03 
1.3199605e+00 1.1771894e+00 -2.5965270e-02 
1.3162823e+00 1.1743993e+00 -5.0374225e-04 
1.3148499e+00 1.1730860e+00 1.7891877e-03 
1.3139452e+00 1.1719872e+00 -7.6022269e-03 
1.3139970e+00 1.1716706e+00 -2.0006914e-02 
1.3198591e+00 1.1770377e+00 -2.8437996e-02 
1.3197017e+00 1.1770053e+00 -2.3959793e-02 
1.3141990e+00 1.1722665e+00 -4.9730665e-03 
1.3126557e+00 1.1702294e+00 -2.7072823e-02 
1.3126127e+00 1.1702851e+00 -2.4220617e-02 
1.3087418e+00 1.1673224e+00 1.2702710e-03 
1.3064308e+00 1.1650634e+00 -6.2175313e-05 
1.3055240e+00 1.1635302e+00 -2.4865868e-02 
1.3062619e+00 1.1642193e+00 -2.6132185e-02 
1.3067877e+00 1.1650635e+00 -1.2857990e-02 
1.3108661e+00 1.1683875e+00 -3.4350310e-02 
1.3016859e+00 1.1606097e+00 -3.8454085e-04 
1.2989371e+00 1.1580635e+00 1.9974466e-03 
1.2999028e+00 1.1587837e+00 -4.0113400e-03 
1.2976097e+00 1.1561611e+00 -2.0254245e-02 
1.2971358e+00 1.1560880e+00 -7.5806594e-03 
1.2971522e+00 1.1555536e+00 -2.7048519e-02 
1.3023344e+00 1.1605476e+00 -2.4688588e-02 
1.3011587e+00 1.1593328e+00 -2.8364494e-02 
1.2941072e+00 1.1534945e+00 1.4239756e-03 
1.2902577e+00 1.1497881e+00 1.2020666e-04 
1.2898229e+00 1.1486639e+00 -2.4865482e-02 
1.2889208e+00 1.1478051e+00 -2.5769407e-02 
1.2870289e+00 1.1467521e+00 -2.6854168e-04 
1.2921236e+00 1.1506394e+00 -3.4282647e-02 
1.2830333e+00 1.1423649e+00 -2.0130998e-02 
1.2825650e+00 1.1425854e+00 2.2036713e-03 
1.2811989e+00 1.1404530e+00 -2.7019287e-02 
1.2818667e+00 1.1416965e+00 -4.9198903e-03 
1.2794214e+00 1.1396072e+00 1.5785914e-03 
1.2794600e+00 1.1393727e+00 -7.5575910e-03 
1.2811698e+00 1.1405264e+00 -2.3991935e-02 
1.2823800e+00 1.1415740e+00 -2.8243478e-02 
1.2822099e+00 1.1415323e+00 -2.3784012e-02 
1.2736664e+00 1.1333671e+00 -2.4859592e-02 
1.2736306e+00 1.1340621e+00 2.8652395e-04 
1.2744457e+00 1.1341031e+00 -2.5957583e-02 
1.2723216e+00 1.1328431e+00 -1.4720256e-04 
1.2722412e+00 1.1323247e+00 -1.4873792e-02 
1.2681102e+00 1.1282476e+00 -1.9759901e-02 
1.2657101e+00 1.1266444e+00 2.4168657e-03 
1.2733043e+00 1.1328415e+00 -3.4201927e-02 
1.2646827e+00 1.1256675e+00 1.7368005e-03 
1.2647877e+00 1.1249186e+00 -2.6997356e-02 
1.2649809e+00 1.1257259e+00 -4.8869117e-03 
1.2608871e+00 1.1217911e+00 -7.5300331e-03 
1.2635438e+00 1.1237417e+00 -2.8152823e-02 
1.2633654e+00 1.1236974e+00 -2.3691360e-02 
1.2570393e+00 1.1176198e+00 -2.4860885e-02 
1.2565098e+00 1.1178608e+00 4.6353810e-04 
1.2553113e+00 1.1167432e+00 -7.3120849e-05 
1.2560803e+00 1.1167296e+00 -2.5517358e-02 
1.2498906e+00 1.1116610e+00 1.8741060e-03 
1.2531897e+00 1.1140381e+00 -2.3991896e-02 
1.2533497e+00 1.1144482e+00 -1.4800918e-02 
1.2483389e+00 1.1102159e+00 2.6516991e-03 
1.2484146e+00 1.1095889e+00 -2.0113060e-02 
1.2478979e+00 1.1089160e+00 -2.6985426e-02 
1.2543874e+00 1.1149230e+00 -3.4128543e-02 
1.2475983e+00 1.1092678e+00 -4.8511764e-03 
1.2421763e+00 1.1043379e+00 6.4295810e-04 
1.2413371e+00 1.1032937e+00 -7.5017153e-03 
1.2399027e+00 1.1013895e+00 -2.4863867e-02 
1.2406160e+00 1.1020859e+00 -2.5016280e-02 
1.2445765e+00 1.1057760e+00 -2.8061377e-02 
1.2443905e+00 1.1057280e+00 -2.3595845e-02 
1.2388383e+00 1.1011499e+00 6.7349483e-04 
1.2350367e+00 1.0976177e+00 2.0392165e-03 
1.2334009e+00 1.0953661e+00 -2.0118576e-02 
1.2347455e+00 1.0965483e+00 -2.4334406e-02 
1.2343427e+00 1.0964464e+00 -1.4725071e-02 
1.2304173e+00 1.0932534e+00 2.8926572e-03 
1.2304862e+00 1.0924067e+00 -2.6973849e-02 
1.2293179e+00 1.0921624e+00 2.6768618e-04 
1.2291174e+00 1.0915204e+00 -1.3731019e-02 
1.2296493e+00 1.0922806e+00 -4.8055584e-03 
1.2353680e+00 1.0968915e+00 -3.4044970e-02 
1.2222489e+00 1.0846617e+00 -2.4868758e-02 
1.2213897e+00 1.0847069e+00 2.2516674e-03 
1.2207444e+00 1.0837845e+00 -7.4766302e-03 
1.2206032e+00 1.0838975e+00 8.7898719e-04 
1.2255306e+00 1.0877187e+00 -2.7959730e-02 
1.2212348e+00 1.0837013e+00 -2.5254460e-02 
1.2253370e+00 1.0876673e+00 -2.3493538e-02 
1.2179410e+00 1.0807382e+00 -1.9581838e-02 
1.2132823e+00 1.0764971e+00 -1.4223504e-02 
1.2127379e+00 1.0764582e+00 3.4880827e-04 
1.2156731e+00 1.0784711e+00 -2.4219718e-02 
1.2119412e+00 1.0757711e+00 3.1325351e-03 
1.2125273e+00 1.0753846e+00 -2.6933139e-02 
1.2152543e+00 1.0783592e+00 -1.4634889e-02 
1.2111318e+00 1.0747433e+00 -4.7854511e-03 
1.2162687e+00 1.0787766e+00 -3.3956215e-02 
1.2059673e+00 1.0701072e+00 2.4669773e-03 
1.2040519e+00 1.0674046e+00 -2.4868945e-02 
1.2029994e+00 1.0664157e+00 -2.5097020e-02 
1.2018030e+00 1.0661008e+00 1.0832055e-03 
1.2064035e+00 1.0695853e+00 -2.7851686e-02 
1.2062026e+00 1.0695301e+00 -2.3384549e-02 
1.1987563e+00 1.0632349e+00 9.5865672e-04 
1.1989995e+00 1.0631899e+00 -7.4515953e-03 
1.1946242e+00 1.0586199e+00 -1.9833354e-02 
1.1940241e+00 1.0578429e+00 -2.6891958e-02 
1.1928830e+00 1.0577310e+00 3.3681323e-03 
1.1965278e+00 1.0603242e+00 -2.4104988e-02 
1.1960940e+00 1.0602050e+00 -1.4539133e-02 
1.1910070e+00 1.0559359e+00 2.4410062e-03 
1.1920333e+00 1.0566530e+00 -4.7727721e-03 
1.1970948e+00 1.0605899e+00 -3.3859894e-02 
1.1864121e+00 1.0510485e+00 -1.3564511e-02 
1.1851461e+00 1.0503066e+00 1.5767227e-04 
1.1853060e+00 1.0496268e+00 -2.4878414e-02 
1.1841147e+00 1.0485160e+00 -2.4941545e-02 
1.1824174e+00 1.0477396e+00 1.2847799e-03 
1.1872088e+00 1.0513843e+00 -2.7740227e-02 
1.1870005e+00 1.0513256e+00 -2.3271490e-02 
1.1787081e+00 1.0435321e+00 -1.9997049e-02 
1.1760855e+00 1.0417970e+00 2.4244899e-03 
1.1760801e+00 1.0414706e+00 -7.4104802e-03 
1.1750091e+00 1.0398022e+00 -2.6876053e-02 
1.1773229e+00 1.0421133e+00 -2.3995373e-02 
1.1768734e+00 1.0419872e+00 -1.4439475e-02 
1.1732090e+00 1.0391058e+00 3.6317436e-03 
1.1718682e+00 1.0375471e+00 -4.6759378e-03 
1.1778569e+00 1.0423397e+00 -3.3759039e-02 
1.1683105e+00 1.0339798e+00 -1.0965597e-02 
1.1671513e+00 1.0330606e+00 -5.5820113e-03 
1.1669422e+00 1.0330625e+00 1.5855963e-04 
1.1660645e+00 1.0313776e+00 -2.4885362e-02 
1.1643775e+00 1.0297962e+00 -2.4843756e-02 
1.1626915e+00 1.0290698e+00 1.5816860e-03 
1.1679573e+00 1.0331262e+00 -2.7629476e-02 
1.1677414e+00 1.0330644e+00 -2.3158634e-02 
1.1611496e+00 1.0276481e+00 2.4037866e-03 
1.1564417e+00 1.0224229e+00 -1.9911567e-02 
1.1558167e+00 1.0215952e+00 -2.6885753e-02 
1.1580681e+00 1.0238557e+00 -2.3892039e-02 
1.1576024e+00 1.0237234e+00 -1.4338354e-02 
1.1534631e+00 1.0204127e+00 3.8786635e-03 
1.1533064e+00 1.0198843e+00 -7.3902677e-03 
1.1521509e+00 1.0190812e+00 1.0529094e-03 
1.1585664e+00 1.0240377e+00 -3.3657324e-02 
1.1519740e+00 1.0187136e+00 -4.2343829e-03 
1.1469202e+00 1.0132239e+00 -2.4898916e-02 
1.1438130e+00 1.0112461e+00 3.0005323e-03 
1.1452280e+00 1.0116340e+00 -2.4856023e-02 
1.1486592e+00 1.0148247e+00 -2.7521804e-02 
1.1484355e+00 1.0147600e+00 -2.3047717e-02 
1.1429964e+00 1.0104258e+00 1.9056360e-03 
1.1367108e+00 1.0034764e+00 -2.6906012e-02 
1.1355809e+00 1.0033673e+00 5.2781287e-04 
1.1387730e+00 1.0055622e+00 -2.3797005e-02 
1.1382904e+00 1.0054243e+00 -1.4235822e-02 
1.1343995e+00 1.0015163e+00 -2.0178022e-02 
1.1338284e+00 1.0018253e+00 4.1219871e-03 
1.1392326e+00 1.0056963e+00 -3.3557169e-02 
1.1323307e+00 1.0001210e+00 -3.7784884e-03 
1.1311265e+00 9.9887556e-01 -7.3490930e-03 
1.1278621e+00 9.9515277e-01 -2.4919540e-02 
1.1261712e+00 9.9356186e-01 -2.4879456e-02 
1.1293228e+00 9.9648976e-01 -2.7420167e-02 
1.1290908e+00 9.9642259e-01 -2.2940338e-02 
1.1234086e+00 9.9188840e-01 2.2219643e-03 
1.1197306e+00 9.8833531e-01 -6.3842534e-05 
1.1183379e+00 9.8629773e-01 -2.0168612e-02 
1.1177030e+00 9.8545325e-01 -2.6935045e-02 
1.1156752e+00 9.8460627e-01 3.1630753e-03 
1.1189487e+00 9.8709989e-01 -1.4133184e-02 
1.1184167e+00 9.8628128e-01 -2.3196822e-02 
1.1143049e+00 9.8334849e-01 4.3584611e-03 
1.1198641e+00 9.8732495e-01 -3.3460129e-02 
1.1127940e+00 9.8163766e-01 -3.3383335e-03 
1.1095393e+00 9.7842824e-01 -7.3124473e-03 
1.1086332e+00 9.7764909e-01 -4.8901779e-03 
1.1089051e+00 9.7718501e-01 -2.4949782e-02 
1.1081462e+00 9.7691840e-01 -1.2515397e-02 
1.1075870e+00 9.7689581e-01 1.5286397e-03 
1.1082411e+00 9.7657913e-01 -2.4442138e-02 
1.1099589e+00 9.7813469e-01 -2.7325321e-02 
1.1097188e+00 9.7806519e-01 -2.2839604e-02 
1.1039355e+00 9.7346687e-01 2.5307727e-03 
1.1005706e+00 9.7032040e-01 3.4145657e-03 
1.0988009e+00 9.6753687e-01 -2.6974626e-02 
1.0995840e+00 9.6876287e-01 -1.4036293e-02 
1.0992414e+00 9.6811241e-01 -2.3094926e-02 
1.0951868e+00 9.6455497e-01 -1.4980798e-02 
1.0948966e+00 9.6499366e-01 4.5906617e-03 
1.1004758e+00 9.6894181e-01 -3.3366997e-02 
1.0924926e+00 9.6260637e-01 1.4107714e-03 
1.0927331e+00 9.6221238e-01 -1.5617010e-02 
1.0933752e+00 9.6327859e-01 -2.9159854e-03 
1.0900568e+00 9.5932901e-01 -2.4990572e-02 
1.0885233e+00 9.5853734e-01 -7.2721294e-03 
1.0891565e+00 9.5849216e-01 -2.4525005e-02 
1.0854474e+00 9.5602202e-01 3.6714575e-03 
1.0905832e+00 9.5977557e-01 -2.7239522e-02 
1.0903350e+00 9.5970392e-01 -2.2746842e-02 
1.0845864e+00 9.5517594e-01 2.8313445e-03 
1.0799832e+00 9.5025539e-01 -1.2749875e-02 
1.0800081e+00 9.4973320e-01 -2.7025457e-02 
1.0773052e+00 9.4825089e-01 1.7093872e-03 
1.0801088e+00 9.4999236e-01 -2.3011090e-02 
1.0802146e+00 9.5043033e-01 -1.3944814e-02 
1.0756180e+00 9.4676816e-01 4.8171766e-03 
1.0810820e+00 9.5056164e-01 -3.3280067e-02 
1.0740423e+00 9.4434142e-01 -2.0521317e-02 
1.0740843e+00 9.4505030e-01 -2.5064861e-03 
1.0713216e+00 9.4158930e-01 -2.5042035e-02 
1.0691128e+00 9.4058406e-01 3.8680041e-03 
1.0696287e+00 9.3997979e-01 -2.5018802e-02 
1.0680559e+00 9.3918073e-01 -7.2344565e-03 
1.0663134e+00 9.3725508e-01 -1.4645355e-02 
1.0712091e+00 9.4142795e-01 -2.7164040e-02 
1.0709525e+00 9.4135439e-01 -2.2662727e-02 
1.0653671e+00 9.3702310e-01 3.1160363e-03 
1.0627320e+00 9.3445367e-01 1.1833307e-03 
1.0613374e+00 9.3205488e-01 -2.7088553e-02 
1.0591121e+00 9.3021250e-01 -2.0704150e-02 
1.0610303e+00 9.3193698e-01 -2.2946261e-02 
1.0608546e+00 9.3212128e-01 -1.3858121e-02 
1.0564750e+00 9.2869031e-01 5.0365850e-03 
1.0616932e+00 9.3219864e-01 -3.3201531e-02 
1.0537776e+00 9.2581081e-01 -3.7636147e-03 
1.0527158e+00 9.2398673e-01 -2.5108844e-02 
1.0511765e+00 9.2361969e-01 3.3194518e-03 
1.0513530e+00 9.2310530e-01 -1.4788040e-02 
1.0516057e+00 9.2295218e-01 -2.4475474e-02 
1.0487685e+00 9.2095995e-01 -6.7020482e-03 
1.0481423e+00 9.2036259e-01 -7.1959137e-03 
1.0518450e+00 9.2310452e-01 -2.7101086e-02 
1.0515798e+00 9.2302936e-01 -2.2588748e-02 
1.0462890e+00 9.1901213e-01 3.3970180e-03 
1.0434424e+00 9.1539872e-01 -2.0722266e-02 
1.0427949e+00 9.1451615e-01 -2.7176151e-02 
1.0427791e+00 9.1508591e-01 -1.2645390e-02 
1.0392939e+00 9.1244054e-01 4.4431398e-03 
1.0420072e+00 9.1394836e-01 -2.2907099e-02 
1.0392709e+00 9.1171283e-01 -1.3771959e-02 
1.0374829e+00 9.1076499e-01 5.2434830e-03 
1.0423210e+00 9.1386729e-01 -3.3130873e-02 
1.0346150e+00 9.0794796e-01 2.4049208e-03 
1.0344406e+00 9.0726632e-01 -1.0931368e-02 
1.0341756e+00 9.0678608e-01 -1.7100345e-02 
1.0342401e+00 9.0651798e-01 -2.5183130e-02 
1.0346841e+00 9.0779680e-01 -3.4834826e-03 
1.0329180e+00 9.0528309e-01 -2.4531541e-02 
1.0287676e+00 9.0206790e-01 -7.1394471e-03 
1.0325038e+00 9.0482199e-01 -2.7050277e-02 
1.0273619e+00 9.0116847e-01 3.6550232e-03 
1.0322306e+00 9.0474522e-01 -2.2525974e-02 
1.0259112e+00 8.9981759e-01 4.4974484e-03 
1.0255991e+00 8.9848512e-01 -2.2255359e-02 
1.0243919e+00 8.9712459e-01 -2.7263140e-02 
1.0236524e+00 8.9704221e-01 -1.2378304e-02 
1.0230371e+00 8.9602822e-01 -2.2901136e-02 
1.0193535e+00 8.9282435e-01 -1.6522618e-02 
1.0186318e+00 8.9299512e-01 5.4514622e-03 
1.0172466e+00 8.9115268e-01 -8.2134027e-03 
1.0170770e+00 8.9141899e-01 2.7555362e-03 
1.0229840e+00 8.9558792e-01 -3.3066560e-02 
1.0159100e+00 8.8920981e-01 -2.5284559e-02 
1.0151271e+00 8.8907987e-01 -9.9089900e-03 
1.0159612e+00 8.9016151e-01 -2.9895366e-03 
1.0143487e+00 8.8774079e-01 -2.4679434e-02 
1.0113486e+00 8.8504916e-01 -2.1963241e-02 
1.0099025e+00 8.8428354e-01 -7.0959264e-03 
1.0084670e+00 8.8338035e-01 4.6297964e-03 
1.0086004e+00 8.8350505e-01 3.9016143e-03 
1.0132086e+00 8.8660145e-01 -2.7011428e-02 
1.0129278e+00 8.8652343e-01 -2.2475667e-02 
1.0061404e+00 8.7988341e-01 -2.7355101e-02 
1.0045421e+00 8.7886733e-01 -1.6281091e-02 
1.0040362e+00 8.7846708e-01 -1.3897809e-02 
1.0021325e+00 8.7733400e-01 2.6714329e-03 
1.0047585e+00 8.7924838e-01 -1.1881485e-02 
1.0040425e+00 8.7810487e-01 -2.2969097e-02 
9.9996036e-01 8.7543380e-01 5.6360606e-03 
9.9773091e-01 8.7205762e-01 -2.5373822e-02 
1.0037117e+00 8.7738687e-01 -3.3010148e-02 
9.9656022e-01 8.7110865e-01 -2.1802787e-02 
9.9709409e-01 8.7240607e-01 -2.7616902e-03 
9.9603605e-01 8.7044197e-01 -2.5433648e-02 
9.9353427e-01 8.6933261e-01 4.6682432e-03 
9.9154621e-01 8.6699510e-01 -7.0491438e-03 
9.9000841e-01 8.6600548e-01 4.1643595e-03 
9.8976922e-01 8.6495954e-01 -1.6052643e-02 
9.9399477e-01 8.6847353e-01 -2.6982283e-02 
9.9370509e-01 8.6839354e-01 -2.2431651e-02 
9.8803574e-01 8.6282969e-01 -2.7512824e-02 
9.8722458e-01 8.6329764e-01 2.5728089e-03 
9.8576516e-01 8.6136872e-01 -1.1699220e-02 
9.8145634e-01 8.5801637e-01 5.8508222e-03 
9.8180068e-01 8.5723019e-01 -2.1665201e-02 
9.8438996e-01 8.5956365e-01 -2.3572888e-02 
9.7970492e-01 8.5507405e-01 -2.5512252e-02 
9.7864467e-01 8.5531932e-01 4.6969214e-03 
9.7867221e-01 8.5490453e-01 -6.3822735e-03 
9.8450500e-01 8.5927659e-01 -3.2973979e-02 
9.7850674e-01 8.5439134e-01 -1.4905943e-02 
9.7835147e-01 8.5478055e-01 -2.5329264e-03 
9.7573233e-01 8.5214758e-01 -5.9886617e-03 
9.7698021e-01 8.5253829e-01 -2.4313249e-02 
9.7502840e-01 8.5110956e-01 -1.5831869e-02 
9.7367454e-01 8.5018229e-01 -7.0013888e-03 
9.7235656e-01 8.4931856e-01 2.4543789e-03 
9.7157639e-01 8.4869814e-01 4.3791835e-03 
9.7483617e-01 8.5043311e-01 -2.6980834e-02 
9.7454053e-01 8.5035437e-01 -2.2411039e-02 
9.7009069e-01 8.4592271e-01 -2.7654195e-02 
9.6709335e-01 8.4340477e-01 -2.1505309e-02 
9.6686727e-01 8.4360427e-01 -1.1516519e-02 
9.6380198e-01 8.4138137e-01 4.7170212e-03 
9.6312600e-01 8.4080070e-01 6.0235290e-03 
9.6607453e-01 8.4233910e-01 -2.3208581e-02 
9.6183795e-01 8.3827889e-01 -2.5661165e-02 
9.6078724e-01 8.3807766e-01 -6.7300387e-03 
9.6062130e-01 8.3755261e-01 -1.5182381e-02 
9.6034980e-01 8.3731604e-01 -1.5618965e-02 
9.5976269e-01 8.3733803e-01 -2.2946375e-03 
9.6536678e-01 8.4126419e-01 -3.2960437e-02 
9.5754683e-01 8.3539921e-01 2.3216759e-03 
9.5815569e-01 8.3483255e-01 -2.4410749e-02 
9.5628589e-01 8.3385360e-01 -6.9532469e-03 
9.5333409e-01 8.3158368e-01 4.5840186e-03 
9.5244533e-01 8.2963711e-01 -2.1368589e-02 
9.5231956e-01 8.2921207e-01 -2.7813058e-02 
9.5575553e-01 8.3248204e-01 -2.7007272e-02 
9.5545125e-01 8.3239865e-01 -2.2414193e-02 
9.4901294e-01 8.2750601e-01 4.7149211e-03 
9.4803518e-01 8.2592911e-01 -1.1304463e-02 
9.4571531e-01 8.2358718e-01 -1.5392626e-02 
9.4498050e-01 8.2380480e-01 6.2138080e-03 
9.4429278e-01 8.2264662e-01 -5.6258258e-03 
9.4669366e-01 8.2411611e-01 -2.3354230e-02 
9.4416016e-01 8.2164264e-01 -2.5852373e-02 
9.4307709e-01 8.2145154e-01 -7.0876135e-03 
9.4278866e-01 8.2155973e-01 2.1626030e-03 
9.4291234e-01 8.2092464e-01 -1.5484962e-02 
9.4129491e-01 8.2002568e-01 -1.9915805e-03 
9.4632596e-01 8.2335776e-01 -3.2949831e-02 
9.3935519e-01 8.1797963e-01 -6.9135102e-03 
9.3782568e-01 8.1594199e-01 -2.1225963e-02 
9.3720120e-01 8.1515408e-01 -2.4479087e-02 
9.3529177e-01 8.1468940e-01 4.7880998e-03 
9.3429196e-01 8.1370491e-01 4.7100573e-03 
9.3472278e-01 8.1269622e-01 -2.8012164e-02 
9.3678582e-01 8.1466466e-01 -2.7041828e-02 
9.3647653e-01 8.1458098e-01 -2.2432249e-02 
9.3093920e-01 8.0974704e-01 -1.5246049e-02 
9.2811275e-01 8.0780637e-01 1.9911563e-03 
9.2702478e-01 8.0698144e-01 6.3830423e-03 
9.2911065e-01 8.0820584e-01 -1.0874421e-02 
9.2662758e-01 8.0522412e-01 -2.6064152e-02 
9.2554581e-01 8.0500424e-01 -7.4905977e-03 
9.2539239e-01 8.0449253e-01 -1.5809156e-02 
9.2740881e-01 8.0601287e-01 -2.3833005e-02 
9.2497915e-01 8.0363703e-01 -2.6111741e-02 
9.2326927e-01 8.0230153e-01 -2.1151245e-02 
9.2316639e-01 8.0306816e-01 -1.3490486e-03 
9.2287111e-01 8.0255169e-01 -6.8897046e-03 
9.2741746e-01 8.0562514e-01 -3.2964565e-02 
9.1970104e-01 8.0004168e-01 4.6672071e-03 
9.1745150e-01 7.9799002e-01 4.9669226e-03 
9.1730350e-01 7.9637057e-01 -2.8228719e-02 
9.1382390e-01 7.9395604e-01 -9.5434627e-03 
9.1796613e-01 7.9704177e-01 -2.7108133e-02 
9.1765451e-01 7.9695708e-01 -2.2485938e-02 
9.1314417e-01 7.9378766e-01 1.8232849e-03 
9.1213000e-01 7.9204476e-01 -1.7635690e-02 
9.1315508e-01 7.9267818e-01 -2.3510138e-02 
9.0927881e-01 7.9040062e-01 6.5292791e-03 
9.0890002e-01 7.8945392e-01 -6.9956551e-03 
9.0931791e-01 7.8902811e-01 -2.6268601e-02 
9.0819526e-01 7.8875190e-01 -7.9007009e-03 
9.0773523e-01 7.8871596e-01 4.2731088e-04 
9.0875232e-01 7.8923738e-01 -9.4273817e-03 
9.0765738e-01 7.8741634e-01 -2.6356984e-02 
9.0681040e-01 7.8752184e-01 -6.8181250e-03 
9.0867555e-01 7.8849560e-01 -2.3975106e-02 
9.0506893e-01 7.8636765e-01 4.6722004e-03 
9.0867114e-01 7.8810859e-01 -3.3011291e-02 
9.0073556e-01 7.8218961e-01 1.5759332e-03 
9.0063500e-01 7.8112900e-01 -2.1728719e-02 
8.9981127e-01 7.8150219e-01 5.1658736e-03 
9.0007859e-01 7.8026509e-01 -2.8440177e-02 
8.9883476e-01 7.7973318e-01 -1.5088876e-02 
8.9931363e-01 7.7963293e-01 -2.7221769e-02 
8.9899987e-01 7.7954644e-01 -2.2573704e-02 
8.9339191e-01 7.7418023e-01 -2.4751000e-02 
8.9173609e-01 7.7402753e-01 6.6937977e-03 
8.9216059e-01 7.7299684e-01 -2.6514510e-02 
8.9240867e-01 7.7428955e-01 -2.7449122e-03 
8.9333588e-01 7.7419513e-01 -2.3384331e-02 
8.9115447e-01 7.7292490e-01 -6.7618489e-03 
8.8979208e-01 7.7208066e-01 4.0432257e-03 
8.8803780e-01 7.6949263e-01 -1.9024104e-02 
8.8900310e-01 7.7076465e-01 -1.0400910e-02 
8.8620067e-01 7.6792502e-01 -1.5284562e-02 
8.9007217e-01 7.7073985e-01 -3.3083800e-02 
8.8386858e-01 7.6593328e-01 -1.0866722e-02 
8.7935090e-01 7.6199162e-01 -4.5009954e-03 
8.7589914e-01 7.5870210e-01 -6.7222235e-03 
8.7574172e-01 7.5817633e-01 -1.5633136e-02 
8.7537754e-01 7.5857317e-01 2.5719362e-03 
8.7551409e-01 7.5767910e-01 -2.2183437e-02 
8.7489146e-01 7.5824958e-01 5.5182129e-03 
8.7519664e-01 7.5716430e-01 -2.6795980e-02 
8.7438476e-01 7.5787681e-01 6.8731364e-03 
8.7465793e-01 7.5656605e-01 -2.8645616e-02 
8.7380803e-01 7.5727183e-01 5.0669331e-03 
8.7399846e-01 7.5600326e-01 -2.6553346e-02 
8.7325335e-01 7.5654775e-01 2.9312217e-04 
8.7326849e-01 7.5544125e-01 -2.3954690e-02 
8.7273765e-01 7.5581062e-01 -6.1076316e-03 
8.7075144e-01 7.5383204e-01 -7.9487795e-03 
8.7256634e-01 7.5479907e-01 -2.4186140e-02 
8.7222242e-01 7.5498599e-01 -1.3159955e-02 
8.7198186e-01 7.5414830e-01 -2.6879692e-02 
8.7181616e-01 7.5423294e-01 -2.1474615e-02 
8.7154001e-01 7.5345182e-01 -3.3186045e-02 
8.6328530e-01 7.4642807e-01 -1.9132573e-02 
8.6262703e-01 7.4679142e-01 4.4003483e-03 
8.6011720e-01 7.4401760e-01 -6.6780294e-03 
8.5839403e-01 7.4150157e-01 -2.7114937e-02 
8.5649526e-01 7.4123031e-01 7.0408671e-03 
8.5488552e-01 7.3921770e-01 -4.6968297e-03 
8.5361308e-01 7.3694557e-01 -2.8821047e-02 
8.5401726e-01 7.3747027e-01 -2.5366176e-02 
8.5336500e-01 7.3795128e-01 -2.6476383e-03 
8.5168409e-01 7.3582178e-01 -1.5505852e-02 
8.5132116e-01 7.3620045e-01 2.2017173e-03 
8.5122728e-01 7.3627126e-01 4.3625915e-03 
8.5265267e-01 7.3625612e-01 -2.3961894e-02 
8.5096651e-01 7.3482984e-01 -2.2448547e-02 
8.5172147e-01 7.3608220e-01 -9.9173114e-03 
8.4912109e-01 7.3428953e-01 5.4138624e-03 
8.5304642e-01 7.3621309e-01 -3.3314049e-02 
8.4923589e-01 7.3299038e-01 -2.6470713e-02 
8.4900737e-01 7.3309451e-01 -1.9724386e-02 
8.4382641e-01 7.2874182e-01 -9.3572671e-03 
8.4355295e-01 7.2863436e-01 -6.6196080e-03 
8.4161729e-01 7.2589922e-01 -2.7454127e-02 
8.4015030e-01 7.2448444e-01 -2.7569033e-02 
8.3818156e-01 7.2414696e-01 5.5860304e-03 
8.3779281e-01 7.2388381e-01 7.2302306e-03 
8.3724064e-01 7.2239757e-01 -1.5599304e-02 
8.3677799e-01 7.2271448e-01 2.3309002e-03 
8.3709294e-01 7.2296840e-01 1.3795814e-04 
8.3320677e-01 7.1832049e-01 -2.3377502e-02 
8.3486193e-01 7.1969742e-01 -2.4921028e-02 
8.3262765e-01 7.1743739e-01 -2.9731298e-02 
8.3410281e-01 7.1954316e-01 -1.3747939e-02 
8.3019155e-01 7.1608734e-01 -9.8720351e-03 
8.3470875e-01 7.1915293e-01 -3.3463772e-02 
8.2924670e-01 7.1543497e-01 -5.6872671e-03 
8.2788503e-01 7.1396691e-01 -9.5116477e-03 
8.2715833e-01 7.1399856e-01 6.8147923e-03 
8.2720506e-01 7.1402717e-01 5.5716173e-03 
8.2835692e-01 7.1364379e-01 -2.5038600e-02 
8.2609051e-01 7.1244377e-01 -6.6162562e-03 
8.2591349e-01 7.1181083e-01 -1.7570408e-02 
8.2443994e-01 7.1138269e-01 4.8797103e-03 
8.2525468e-01 7.1064812e-01 -2.8273191e-02 
8.2487947e-01 7.1038556e-01 -2.7787173e-02 
8.2376385e-01 7.1012896e-01 -9.7674299e-03 
8.2559907e-01 7.1097428e-01 -2.7865330e-02 
8.2525444e-01 7.1089178e-01 -2.3011146e-02 
8.2076150e-01 7.0787150e-01 9.3299226e-04 
8.1821674e-01 7.0575285e-01 7.3589329e-03 
8.1881934e-01 7.0497286e-01 -2.3633897e-02 
8.1659824e-01 7.0347905e-01 -1.0463364e-02 
8.1587905e-01 7.0191342e-01 -3.0072961e-02 
8.1670749e-01 7.0286703e-01 -2.5208063e-02 
8.1594092e-01 7.0272410e-01 -1.3851727e-02 
8.1242323e-01 7.0018917e-01 3.3641439e-03 
8.1199431e-01 6.9994837e-01 6.1585847e-03 
8.1652761e-01 7.0227951e-01 -3.3618253e-02 
8.0965477e-01 6.9620115e-01 -2.8168444e-02 
8.0816686e-01 6.9491422e-01 -2.8172977e-02 
8.0800998e-01 6.9510567e-01 -2.1029985e-02 
8.0713332e-01 6.9544625e-01 5.4776394e-03 
8.0771613e-01 6.9545382e-01 -6.5074167e-03 
8.0694091e-01 6.9455159e-01 -1.0362948e-02 
8.0753922e-01 6.9424504e-01 -2.8086472e-02 
8.0718786e-01 6.9416463e-01 -2.3194803e-02 
8.0344033e-01 6.9167739e-01 -3.3205997e-03 
8.0049086e-01 6.8906951e-01 7.6526066e-04 
8.0003512e-01 6.8884420e-01 5.0331545e-03 
7.9880083e-01 6.8737030e-01 -2.8360973e-03 
7.9922682e-01 6.8650347e-01 -3.0419094e-02 
7.9773855e-01 6.8684614e-01 7.5459112e-03 
7.9670447e-01 6.8485570e-01 -1.6785381e-02 
7.9876447e-01 6.8625760e-01 -2.5513656e-02 
7.9749221e-01 6.8508154e-01 -2.5332117e-02 
7.9797423e-01 6.8611455e-01 -1.3955173e-02 
7.9537863e-01 6.8329090e-01 -2.4083702e-02 
7.9852366e-01 6.8563455e-01 -3.3804744e-02 
7.9227197e-01 6.8102580e-01 -1.0119987e-02 
7.9189026e-01 6.7979008e-01 -2.8996879e-02 
7.9154038e-01 6.7952216e-01 -2.8584767e-02 
7.9029942e-01 6.7916709e-01 -1.0784236e-02 
7.8815359e-01 6.7780036e-01 3.5250108e-03 
7.8774196e-01 6.7755389e-01 6.3127088e-03 
7.8827065e-01 6.7751306e-01 -6.4669605e-03 
7.8612673e-01 6.7610407e-01 5.4718782e-03 
7.8962576e-01 6.7770875e-01 -2.8335631e-02 
7.8926516e-01 6.7762905e-01 -2.3389237e-02 
7.8320867e-01 6.7229611e-01 -1.9466639e-02 
7.8230381e-01 6.7169625e-01 -1.3044557e-02 
7.8250057e-01 6.7133099e-01 -2.5975807e-02 
7.8263742e-01 6.7115825e-01 -3.0817488e-02 
7.8094047e-01 6.6982591e-01 -2.5875287e-02 
7.7805722e-01 6.6799331e-01 -8.6145028e-03 
7.7623945e-01 6.6706938e-01 7.7044768e-03 
7.7636003e-01 6.6684479e-01 9.0373988e-04 
7.7592748e-01 6.6662598e-01 5.1660063e-03 
7.7838939e-01 6.6801471e-01 -1.5396163e-02 
7.8067183e-01 6.6915280e-01 -3.3993363e-02 
7.7495557e-01 6.6421914e-01 -2.8926332e-02 
7.7360713e-01 6.6393203e-01 -7.6591293e-03 
7.7350670e-01 6.6278541e-01 -2.9028073e-02 
7.7173722e-01 6.6190755e-01 -1.5436376e-02 
7.7103776e-01 6.6090846e-01 -2.2904569e-02 
7.7105099e-01 6.6176373e-01 -4.9592177e-03 
7.7185923e-01 6.6133171e-01 -2.8572466e-02 
7.7149469e-01 6.6125548e-01 -2.3575256e-02 
7.6763725e-01 6.5845138e-01 -7.7788392e-03 
7.6780069e-01 6.5867490e-01 -6.4042839e-03 
7.6626682e-01 6.5685678e-01 -1.4962737e-02 
7.6604724e-01 6.5588689e-01 -3.1225739e-02 
7.6515692e-01 6.5604478e-01 -1.0443927e-02 
7.6405358e-01 6.5581721e-01 5.3852387e-03 
7.6420534e-01 6.5578187e-01 3.6461023e-03 
7.6378232e-01 6.5552408e-01 6.4645279e-03 
7.6238424e-01 6.5334237e-01 -1.3776509e-02 
7.6387966e-01 6.5465850e-01 -1.5773816e-02 
7.6324397e-01 6.5352941e-01 -2.6208147e-02 
7.6127893e-01 6.5169865e-01 -2.6216153e-02 
7.5965601e-01 6.5065080e-01 -1.9127736e-02 
7.5894707e-01 6.4966750e-01 -2.5933260e-02 
7.5876504e-01 6.4924812e-01 -2.9746203e-02 
7.5844771e-01 6.4903414e-01 -2.9273212e-02 
7.6296091e-01 6.5285635e-01 -3.4197830e-02 
7.5713986e-01 6.4862186e-01 -1.1693642e-02 
7.5457311e-01 6.4643359e-01 -8.7585617e-03 
7.5374973e-01 6.4642483e-01 7.8517096e-03 
7.5258464e-01 6.4501530e-01 1.0527092e-03 
7.5213087e-01 6.4479369e-01 5.2870801e-03 
7.5422430e-01 6.4511770e-01 -2.8824378e-02 
7.5385398e-01 6.4503664e-01 -2.3774518e-02 
7.4956256e-01 6.4074194e-01 -3.1602822e-02 
7.4893790e-01 6.4098442e-01 -1.5165793e-02 
7.4765337e-01 6.3945794e-01 -2.2714768e-02 
7.4591082e-01 6.3850820e-01 -8.3304802e-03 
7.4620295e-01 6.3885766e-01 -6.3089873e-03 
7.4569994e-01 6.3741320e-01 -2.6526602e-02 
7.4485630e-01 6.3727224e-01 -1.4364336e-02 
7.4201387e-01 6.3488060e-01 -9.0837833e-03 
7.4197721e-01 6.3388985e-01 -2.9744133e-02 
7.4098474e-01 6.3469279e-01 5.2170749e-03 
7.4069452e-01 6.3355231e-01 -1.2176898e-02 
7.4057853e-01 6.3414246e-01 3.7957849e-03 
7.4014419e-01 6.3389802e-01 6.5923128e-03 
7.4540639e-01 6.3673586e-01 -3.4377422e-02 
7.4050516e-01 6.3247848e-01 -2.9658847e-02 
7.3640448e-01 6.2935346e-01 -1.8813953e-02 
7.3590851e-01 6.2916648e-01 -1.2978259e-02 
7.3596567e-01 6.2959105e-01 -5.2503035e-03 
7.3569524e-01 6.2836194e-01 -2.5901753e-02 
7.3384535e-01 6.2743783e-01 -9.1186231e-03 
7.3677289e-01 6.2911958e-01 -2.9059740e-02 
7.3640054e-01 6.2904191e-01 -2.3975216e-02 
7.3316950e-01 6.2568301e-01 -3.2041963e-02 
7.3115659e-01 6.2547135e-01 2.1229316e-03 
7.3014271e-01 6.2487024e-01 8.0700479e-03 
7.3135257e-01 6.2423182e-01 -2.6879724e-02 
7.2925013e-01 6.2338787e-01 -6.3201492e-03 
7.2864461e-01 6.2334269e-01 5.3860820e-03 
7.2928888e-01 6.2296677e-01 -1.5812311e-02 
7.2836941e-01 6.2154055e-01 -2.6859986e-02 
7.2535658e-01 6.1959791e-01 -1.1235279e-02 
7.2594392e-01 6.1909759e-01 -3.0550975e-02 
7.2562277e-01 6.1892307e-01 -3.0187672e-02 
7.2521377e-01 6.1933148e-01 -1.4546784e-02 
7.2454333e-01 6.1835402e-01 -2.2516450e-02 
7.2804010e-01 6.2083173e-01 -3.4559812e-02 
7.2332537e-01 6.1796647e-01 -6.2474613e-03 
7.1943510e-01 6.1377305e-01 -1.9754216e-02 
7.1952087e-01 6.1417478e-01 -1.2898903e-02 
7.1722353e-01 6.1286128e-01 3.9296602e-03 
7.1676880e-01 6.1258024e-01 6.7481077e-03 
7.1664548e-01 6.1246240e-01 5.1072892e-03 
7.1681374e-01 6.1071038e-01 -3.2474633e-02 
7.1615779e-01 6.1123896e-01 -1.0232045e-02 
7.1950895e-01 6.1332577e-01 -2.9299732e-02 
7.1912891e-01 6.1325043e-01 -2.4175294e-02 
7.1507621e-01 6.1076665e-01 5.1804475e-04 
7.1527559e-01 6.1036730e-01 -1.2297088e-02 
7.1336836e-01 6.0835338e-01 -1.8390549e-02 
7.1278358e-01 6.0744917e-01 -2.5979916e-02 
7.1100909e-01 6.0648614e-01 -1.1823250e-02 
7.1016383e-01 6.0541254e-01 -1.7119311e-02 
7.1121496e-01 6.0587442e-01 -2.7171228e-02 
7.0929170e-01 6.0400927e-01 -3.0554710e-02 
7.1033674e-01 6.0574651e-01 -1.4649616e-02 
7.0782465e-01 6.0421133e-01 2.2210614e-03 
7.0779842e-01 6.0255438e-01 -3.0477682e-02 
7.0677871e-01 6.0245425e-01 -1.5212141e-02 
7.1084851e-01 6.0512757e-01 -3.4740519e-02 
7.0533913e-01 6.0227722e-01 8.2536126e-03 
7.0547754e-01 6.0223317e-01 5.5345749e-03 
7.0163816e-01 5.9830737e-01 -5.4297894e-03 
7.0093381e-01 5.9653443e-01 -2.8257616e-02 
7.0079046e-01 5.9674197e-01 -2.1684213e-02 
7.0050770e-01 5.9585261e-01 -3.2834325e-02 
6.9951332e-01 5.9598124e-01 -1.2244296e-02 
7.0242006e-01 5.9775203e-01 -2.9523389e-02 
7.0203370e-01 5.9767896e-01 -2.4362432e-02 
6.9908988e-01 5.9590459e-01 -6.1773672e-03 
6.9873214e-01 5.9446043e-01 -2.7645450e-02 
6.9671136e-01 5.9328490e-01 -1.5351534e-02 
6.9589639e-01 5.9283322e-01 -9.4261477e-03 
6.9409639e-01 5.9125930e-01 -8.1944484e-03 
6.9417650e-01 5.9189272e-01 4.0863426e-03 
6.9374037e-01 5.9164560e-01 6.9071874e-03 
6.9507843e-01 5.9180611e-01 -1.6106846e-02 
6.9327968e-01 5.8934361e-01 -3.1254385e-02 
6.9301516e-01 5.8915949e-01 -3.0963507e-02 
6.9422930e-01 5.9041536e-01 -2.7492618e-02 
6.9118655e-01 5.8933282e-01 4.8077353e-03 
6.8957001e-01 5.8632845e-01 -2.5556136e-02 
6.9381857e-01 5.8961713e-01 -3.4914419e-02 
6.8938380e-01 5.8655626e-01 -1.7934222e-02 
6.8408573e-01 5.8265615e-01 2.3614068e-03 
6.8426913e-01 5.8105063e-01 -3.3316918e-02 
6.8255961e-01 5.8143562e-01 5.6732474e-03 
6.8548375e-01 5.8233696e-01 -2.9747067e-02 
6.8508565e-01 5.8226669e-01 -2.4536617e-02 
6.8139714e-01 5.7946807e-01 -1.5038212e-02 
6.8087816e-01 5.7940346e-01 -5.6889518e-03 
6.7925400e-01 5.7863367e-01 8.4424093e-03 
6.7873681e-01 5.7739466e-01 -7.0761088e-03 
6.7823690e-01 5.7625866e-01 -2.2205761e-02 
6.7678320e-01 5.7444066e-01 -3.1488448e-02 
6.7544001e-01 5.7407683e-01 -1.4037039e-02 
6.7739969e-01 5.7510924e-01 -2.7800731e-02 
6.7648566e-01 5.7499748e-01 -1.4886427e-02 
6.7528927e-01 5.7302564e-01 -3.1311292e-02 
6.7335439e-01 5.7256675e-01 -6.1305379e-03 
6.7691207e-01 5.7424623e-01 -3.5081685e-02 
6.7141968e-01 5.7128263e-01 4.1886768e-03 
6.7097682e-01 5.7102996e-01 7.0474097e-03 
6.7013246e-01 5.6994313e-01 -1.6551654e-04 
6.6897070e-01 5.6793338e-01 -1.9770801e-02 
6.6804004e-01 5.6638139e-01 -3.3689391e-02 
6.6703844e-01 5.6651849e-01 -1.3151592e-02 
6.6712695e-01 5.6599301e-01 -2.6160441e-02 
6.6697013e-01 5.6623054e-01 -1.8461015e-02 
6.6610664e-01 5.6592596e-01 -7.8601614e-03 
6.6865355e-01 5.6706095e-01 -2.9956456e-02 
6.6628116e-01 5.6498450e-01 -2.8556757e-02 
6.6824734e-01 5.6699336e-01 -2.4703503e-02 
6.6427690e-01 5.6495732e-01 4.7149672e-03 
6.6422248e-01 5.6381470e-01 -1.6221946e-02 
6.6205806e-01 5.6303048e-01 7.8659421e-03 
6.6131848e-01 5.6188834e-01 -2.3152269e-03 
6.6040289e-01 5.6119907e-01 1.5618780e-03 
6.6088051e-01 5.5994791e-01 -3.2123640e-02 
6.5994936e-01 5.6099325e-01 5.7659009e-03 
6.6062468e-01 5.5979192e-01 -3.1855840e-02 
6.5966183e-01 5.6011826e-01 -7.6271067e-03 
6.6065305e-01 5.5992383e-01 -2.8099069e-02 
6.5722930e-01 5.5805343e-01 -5.0141416e-03 
6.5744507e-01 5.5779094e-01 -1.5347135e-02 
6.5807253e-01 5.5825722e-01 -1.6385056e-02 
6.5578616e-01 5.5623537e-01 -1.5870558e-02 
6.6014135e-01 5.5902421e-01 -3.5223436e-02 
6.5596491e-01 5.5609328e-01 -2.2753242e-02 
6.5172786e-01 5.5377156e-01 8.6462442e-03 
6.5190411e-01 5.5172622e-01 -3.4148298e-02 
6.5126449e-01 5.5268323e-01 -5.6549790e-03 
6.4896882e-01 5.5102623e-01 4.2943768e-03 
6.4851761e-01 5.5077648e-01 7.1953363e-03 
6.5196973e-01 5.5194050e-01 -3.0136978e-02 
6.5155917e-01 5.5187857e-01 -2.4857296e-02 
6.4788413e-01 5.4931033e-01 -1.1171080e-02 
6.4605087e-01 5.4792374e-01 -6.0576112e-03 
6.4457154e-01 5.4641056e-01 -9.6897474e-03 
6.4503670e-01 5.4602408e-01 -2.6693800e-02 
6.4485961e-01 5.4626405e-01 -1.8977350e-02 
6.4449942e-01 5.4522985e-01 -3.2250214e-02 
6.4445895e-01 5.4593349e-01 -1.6793577e-02 
6.4300144e-01 5.4374975e-01 -3.1953756e-02 
6.4404678e-01 5.4486698e-01 -2.8361890e-02 
6.4042807e-01 5.4304761e-01 -2.1033455e-03 
6.4352065e-01 5.4399920e-01 -3.5353780e-02 
6.3810277e-01 5.4111356e-01 1.6791836e-03 
6.3764042e-01 5.4090929e-01 5.8740922e-03 
6.3736975e-01 5.4079753e-01 8.0535701e-03 
6.3594282e-01 5.3944033e-01 4.4173379e-03 
6.3544941e-01 5.3822780e-01 -9.3682017e-03 
6.3580626e-01 5.3720832e-01 -3.4516491e-02 
6.3401496e-01 5.3626180e-01 -2.3296408e-02 
6.3381487e-01 5.3651488e-01 -1.4881412e-02 
6.3394511e-01 5.3571934e-01 -2.9110538e-02 
6.3544405e-01 5.3702664e-01 -3.0297710e-02 
6.3502717e-01 5.3695798e-01 -2.5009787e-02 
6.3198137e-01 5.3553545e-01 -2.1367222e-04 
6.3096809e-01 5.3446835e-01 -3.4301567e-03 
6.2918836e-01 5.3248864e-01 -1.1484974e-02 
6.2872356e-01 5.3086174e-01 -3.2769941e-02 
6.2842280e-01 5.3071904e-01 -3.2708060e-02 
6.2714332e-01 5.3044921e-01 -1.5084414e-02 
6.2681234e-01 5.3111535e-01 4.4242102e-03 
6.2875307e-01 5.3108490e-01 -2.8722908e-02 
6.2635940e-01 5.3086019e-01 7.3192734e-03 
6.2669075e-01 5.3002203e-01 -1.5333298e-02 
6.2274534e-01 5.2774292e-01 8.8711912e-03 
6.2710655e-01 5.2920032e-01 -3.5420440e-02 
6.2318933e-01 5.2632850e-01 -2.7304819e-02 
6.2304252e-01 5.2660131e-01 -1.9523224e-02 
6.2047112e-01 5.2450341e-01 -1.4507005e-02 
6.1931723e-01 5.2387947e-01 -6.5092943e-03 
6.1977774e-01 5.2277595e-01 -3.4820899e-02 
6.1856836e-01 5.2267683e-01 -1.6595723e-02 
6.1699927e-01 5.2181196e-01 -5.9714355e-03 
6.1917037e-01 5.2238244e-01 -3.0410064e-02 
6.1642683e-01 5.2093995e-01 -1.3823237e-02 
6.1875105e-01 5.2232009e-01 -2.5141573e-02 
6.1563551e-01 5.2117133e-01 6.0138889e-03 
6.1516327e-01 5.2090442e-01 8.4735006e-03 
6.1322498e-01 5.1849306e-01 -6.2083295e-03 
6.1247033e-01 5.1637650e-01 -3.3029597e-02 
6.1232996e-01 5.1679343e-01 -2.3888865e-02 
6.1211050e-01 5.1701343e-01 -1.5367067e-02 
6.1051202e-01 5.1562327e-01 -1.3394595e-02 
6.1091506e-01 5.1488680e-01 -3.2498546e-02 
6.1151940e-01 5.1565182e-01 -2.8708065e-02 
6.0862201e-01 5.1506549e-01 8.8099902e-03 
6.1054677e-01 5.1559478e-01 -1.5386224e-02 
6.0886002e-01 5.1451612e-01 -6.6861724e-03 
6.0777634e-01 5.1382500e-01 -4.4630392e-04 
6.1091894e-01 5.1468992e-01 -3.5492145e-02 
6.0548908e-01 5.1149619e-01 -6.5162932e-03 
6.0481215e-01 5.1156098e-01 4.8485608e-03 
6.0495651e-01 5.1152098e-01 4.5121214e-03 
6.0450155e-01 5.1128358e-01 7.4578044e-03 
6.0455942e-01 5.1067233e-01 -6.1410838e-03 
6.0382217e-01 5.0845981e-01 -3.5196435e-02 
6.0306513e-01 5.0880021e-01 -1.7110281e-02 
6.0151571e-01 5.0788736e-01 -8.0682319e-03 
6.0166699e-01 5.0702107e-01 -2.7838351e-02 
6.0148937e-01 5.0728518e-01 -2.0011894e-02 
6.0149252e-01 5.0760221e-01 -1.3425977e-02 
6.0186404e-01 5.0694400e-01 -2.9667903e-02 
6.0014534e-01 5.0717556e-01 2.5237459e-03 
6.0308152e-01 5.0800824e-01 -3.0514108e-02 
6.0265636e-01 5.0794816e-01 -2.5245307e-02 
5.9700918e-01 5.0433558e-01 2.7245067e-03 
5.9610260e-01 5.0332171e-01 -1.8044561e-03 
5.9577161e-01 5.0271869e-01 -8.0746217e-03 
5.9648353e-01 5.0205839e-01 -3.3441905e-02 
5.9514874e-01 5.0173020e-01 -1.6185863e-02 
5.9487051e-01 5.0053972e-01 -3.2779928e-02 
5.9390593e-01 5.0172937e-01 6.0933894e-03 
5.9550595e-01 5.0134951e-01 -2.8902061e-02 
5.9455210e-01 5.0130075e-01 -1.5484758e-02 
5.9213686e-01 5.0035489e-01 9.0961074e-03 
5.9488958e-01 5.0040770e-01 -3.5539683e-02 
5.9090179e-01 4.9760306e-01 -2.4390589e-02 
5.9070843e-01 4.9784732e-01 -1.5868831e-02 
5.8952194e-01 4.9754402e-01 -8.6875996e-05 
5.8843261e-01 4.9591276e-01 -1.2940332e-02 
5.8795226e-01 4.9427402e-01 -3.5498027e-02 
5.8701491e-01 4.9495783e-01 -7.0800935e-03 
5.8603555e-01 4.9413475e-01 -5.9309662e-03 
5.8713645e-01 4.9380648e-01 -3.0614180e-02 
5.8671242e-01 4.9374267e-01 -2.5339376e-02 
5.8336633e-01 4.9225289e-01 4.6477690e-03 
5.8291662e-01 4.9201271e-01 7.5753652e-03 
5.8127248e-01 4.8936918e-01 -1.6207684e-02 
5.8068383e-01 4.8795876e-01 -3.3748347e-02 
5.8036995e-01 4.8801246e-01 -2.8347531e-02 
5.8020711e-01 4.8827022e-01 -2.0540653e-02 
5.7884055e-01 4.8774245e-01 -6.1237123e-03 
5.7844138e-01 4.8684722e-01 -1.6746433e-02 
5.7906348e-01 4.8651102e-01 -3.1885363e-02 
5.7733804e-01 4.8714823e-01 9.0381028e-03 
5.7740813e-01 4.8664874e-01 -2.0363287e-03 
5.7900566e-01 4.8663822e-01 -2.9024474e-02 
5.7867205e-01 4.8713312e-01 -1.5600451e-02 
5.7604331e-01 4.8586410e-01 4.8309215e-03 
5.7904381e-01 4.8628026e-01 -3.5541065e-02 
5.7245433e-01 4.8262855e-01 6.2418845e-03 
5.7201910e-01 4.8238307e-01 8.7756924e-03 
5.7216710e-01 4.8219076e-01 2.8612127e-03 
5.7202983e-01 4.8176530e-01 -5.8919764e-03 
5.7224602e-01 4.8029312e-01 -3.5880178e-02 
5.7073182e-01 4.8000318e-01 -1.6485849e-02 
5.6955063e-01 4.7900602e-01 -1.6374204e-02 
5.6871271e-01 4.7864464e-01 -7.6073911e-03 
5.7138401e-01 4.7977453e-01 -3.0642806e-02 
5.6895810e-01 4.7802612e-01 -2.5576208e-02 
5.7095861e-01 4.7971091e-01 -2.5379349e-02 
5.6598854e-01 4.7646990e-01 -2.5992480e-03 
5.6503391e-01 4.7404620e-01 -3.4067474e-02 
5.6376445e-01 4.7374552e-01 -1.7175788e-02 
5.6236368e-01 4.7385582e-01 9.3180891e-03 
5.6457752e-01 4.7455037e-01 -1.6998937e-02 
5.6345832e-01 4.7256699e-01 -3.3407275e-02 
5.6398225e-01 4.7329774e-01 -2.9191095e-02 
5.6204766e-01 4.7329468e-01 4.7549731e-03 
5.6160873e-01 4.7307113e-01 7.7270437e-03 
5.6209612e-01 4.7247359e-01 -1.3856812e-02 
5.6333697e-01 4.7233605e-01 -3.5532605e-02 
5.5936366e-01 4.6933341e-01 -2.8823005e-02 
5.5917871e-01 4.6958303e-01 -2.1015141e-02 
5.5708164e-01 4.6841791e-01 -5.8276271e-03 
5.5668443e-01 4.6645984e-01 -3.6119204e-02 
5.5452001e-01 4.6617201e-01 -5.1410445e-03 
5.5469573e-01 4.6495199e-01 -3.0146077e-02 
5.5573875e-01 4.6590307e-01 -3.0652868e-02 
5.5530673e-01 4.6583286e-01 -2.5387250e-02 
5.5185890e-01 4.6354797e-01 -1.1023670e-02 
5.5174100e-01 4.6402994e-01 2.1081821e-03 
5.5129868e-01 4.6384728e-01 6.3216975e-03 
5.5014169e-01 4.6298465e-01 8.7191798e-03 
5.5080014e-01 4.6267828e-01 -9.7145922e-03 
5.4945594e-01 4.6077067e-01 -2.3802539e-02 
5.4956961e-01 4.6032456e-01 -3.4352187e-02 
5.4886985e-01 4.6023563e-01 -2.5319105e-02 
5.4882944e-01 4.6057338e-01 -1.8129164e-02 
5.4745042e-01 4.6053475e-01 5.1513440e-03 
5.4946345e-01 4.6040946e-01 -2.9365014e-02 
5.4803896e-01 4.5887128e-01 -3.3653818e-02 
5.4675680e-01 4.5854294e-01 -1.9868331e-02 
5.4739255e-01 4.5938599e-01 -1.5639234e-02 
5.4508632e-01 4.5807549e-01 4.1307783e-05 
5.4388952e-01 4.5691797e-01 -2.8084938e-03 
5.4773504e-01 4.5851269e-01 -3.5466228e-02 
5.4205441e-01 4.5473650e-01 -1.4082272e-02 
5.4102725e-01 4.5470411e-01 4.8868791e-03 
5.4058039e-01 4.5447046e-01 7.8310603e-03 
5.4133099e-01 4.5286801e-01 -3.6316685e-02 
5.4057586e-01 4.5344502e-01 -1.4247037e-02 
5.4010028e-01 4.5228055e-01 -2.9339673e-02 
5.3843206e-01 4.5121965e-01 -2.1442300e-02 
5.4021674e-01 4.5215017e-01 -3.0629095e-02 
5.3978604e-01 4.5208353e-01 -2.5393240e-02 
5.3632969e-01 4.4939318e-01 -1.9511430e-02 
5.3498435e-01 4.4968036e-01 9.5384987e-03 
5.3471130e-01 4.4853872e-01 -8.2577374e-03 
5.3512996e-01 4.4894964e-01 -7.0980424e-03 
5.3426409e-01 4.4680610e-01 -3.4553807e-02 
5.3274447e-01 4.4696242e-01 -6.0883025e-03 
5.3297025e-01 4.4580764e-01 -2.9298158e-02 
5.3140748e-01 4.4416940e-01 -3.4483049e-02 
5.3042084e-01 4.4541377e-01 6.4022462e-03 
5.3197938e-01 4.4576257e-01 -1.5675977e-02 
5.2997267e-01 4.4518745e-01 9.0633994e-03 
5.3058457e-01 4.4499090e-01 -5.7927817e-03 
5.2949911e-01 4.4426331e-01 -1.5908449e-03 
5.2925861e-01 4.4287646e-01 -2.6355145e-02 
5.3229707e-01 4.4487759e-01 -3.5372458e-02 
5.2806360e-01 4.4226584e-01 -1.7228974e-02 
5.2751750e-01 4.4159785e-01 -2.0025166e-02 
5.2679765e-01 4.4171152e-01 -5.2640061e-03 
5.2611566e-01 4.3943509e-01 -3.6514360e-02 
5.2525920e-01 4.3974912e-01 -1.6564786e-02 
5.2434486e-01 4.3930572e-01 -1.0091501e-02 
5.2365148e-01 4.3965280e-01 9.4403811e-03 
5.2391994e-01 4.3773836e-01 -3.0740473e-02 
5.2487618e-01 4.3862283e-01 -3.0577395e-02 
5.2128381e-01 4.3751585e-01 5.7045645e-03 
5.2444077e-01 4.3855336e-01 -2.5377342e-02 
5.2129006e-01 4.3598071e-01 -2.1419814e-02 
5.2028811e-01 4.3642324e-01 4.9479795e-03 
5.1986635e-01 4.3620509e-01 7.9108160e-03 
5.1917100e-01 4.3351287e-01 -3.4697402e-02 
5.1799530e-01 4.3324831e-01 -1.8332398e-02 
5.1815504e-01 4.3369383e-01 -1.4467151e-02 
5.1819241e-01 4.3295678e-01 -2.9534524e-02 
5.1801014e-01 4.3320203e-01 -2.1836504e-02 
5.1920146e-01 4.3409714e-01 -2.2874109e-02 
5.1764590e-01 4.3205473e-01 -3.3907428e-02 
5.1878560e-01 4.3333805e-01 -2.9306564e-02 
5.1652402e-01 4.3285787e-01 -9.5066358e-04 
5.1672751e-01 4.3235937e-01 -1.5690720e-02 
5.1411116e-01 4.3040520e-01 -8.1889005e-03 
5.1703882e-01 4.3143702e-01 -3.5221003e-02 
5.1333565e-01 4.3020323e-01 3.0440153e-03 
5.0985855e-01 4.2757502e-01 9.6258232e-03 
5.1112688e-01 4.2625481e-01 -3.6594246e-02 
5.0988543e-01 4.2687455e-01 -4.1181762e-03 
5.0987333e-01 4.2734155e-01 6.4846333e-03 
5.0778335e-01 4.2443895e-01 -1.7650921e-02 
5.0971758e-01 4.2531392e-01 -3.0442113e-02 
5.0736171e-01 4.2362216e-01 -2.6686974e-02 
5.0928098e-01 4.2524183e-01 -2.5297705e-02 
5.0654662e-01 4.2349333e-01 -1.3333924e-02 
5.0623542e-01 4.2360094e-01 -5.7345764e-03 
5.0575465e-01 4.2269394e-01 -1.5635066e-02 
5.0429249e-01 4.2042056e-01 -3.4868754e-02 
5.0363666e-01 4.2108083e-01 -1.1084231e-02 
5.0311154e-01 4.2112383e-01 -6.8744790e-04 
5.0221759e-01 4.1946879e-01 -1.8299842e-02 
5.0266969e-01 4.1918018e-01 -2.9214028e-02 
5.0150847e-01 4.1787702e-01 -3.4635969e-02 
4.9990174e-01 4.1853017e-01 5.0333547e-03 
4.9947339e-01 4.1833267e-01 7.9928283e-03 
5.0043833e-01 4.1795641e-01 -1.7278949e-02 
5.0193876e-01 4.1819248e-01 -3.5016555e-02 
4.9719453e-01 4.1637516e-01 6.2944125e-03 
4.9807557e-01 4.1531524e-01 -2.9838778e-02 
4.9787548e-01 4.1555265e-01 -2.2197254e-02 
4.9626029e-01 4.1563877e-01 9.6013369e-03 
4.9671200e-01 4.1489655e-01 -1.4680094e-02 
4.9635342e-01 4.1331667e-01 -3.6695354e-02 
4.9418521e-01 4.1301584e-01 -6.4284704e-03 
4.9407065e-01 4.1302887e-01 -6.2172269e-03 
4.9398118e-01 4.1242757e-01 -1.5124720e-02 
4.9418142e-01 4.1164696e-01 -3.0887492e-02 
4.9468559e-01 4.1214576e-01 -3.0252634e-02 
4.9424157e-01 4.1207027e-01 -2.5158040e-02 
4.9185091e-01 4.1137859e-01 3.1008229e-03 
4.9090588e-01 4.1045454e-01 -6.4223824e-04 
4.9107277e-01 4.0962103e-01 -2.0079073e-02 
4.8961470e-01 4.0962017e-01 6.5674530e-03 
4.8915347e-01 4.0940338e-01 9.2697442e-03 
4.8954520e-01 4.0756723e-01 -3.5028078e-02 
4.8817834e-01 4.0803441e-01 -1.3379040e-03 
4.8838255e-01 4.0791464e-01 -8.3484985e-03 
4.8834297e-01 4.0811017e-01 -2.3471846e-03 
4.8802885e-01 4.0673730e-01 -2.6304625e-02 
4.8808989e-01 4.0616238e-01 -3.4024637e-02 
4.8780751e-01 4.0694830e-01 -1.8042587e-02 
4.8665389e-01 4.0727991e-01 9.8108649e-03 
4.8881057e-01 4.0708098e-01 -2.9094417e-02 
4.8820269e-01 4.0729097e-01 -1.6977925e-02 
4.8489273e-01 4.0436921e-01 -1.7241422e-02 
4.8369542e-01 4.0432903e-01 2.8301631e-03 
4.8394001e-01 4.0378761e-01 -1.2356555e-02 
4.8397997e-01 4.0388077e-01 -1.1737347e-02 
4.8376250e-01 4.0297127e-01 -2.5947215e-02 
4.8698580e-01 4.0510920e-01 -3.4743249e-02 
4.8380357e-01 4.0399215e-01 -5.7025230e-03 
4.8171023e-01 4.0052292e-01 -3.6726881e-02 
4.7979996e-01 4.0098420e-01 5.0978065e-03 
4.7980565e-01 3.9987099e-01 -1.7751008e-02 
4.7938195e-01 4.0078595e-01 8.0723250e-03 
4.7804773e-01 3.9822584e-01 -2.2498686e-02 
4.7802645e-01 3.9779398e-01 -3.0640002e-02 
4.7984749e-01 3.9919466e-01 -2.9993938e-02 
4.7940403e-01 3.9912149e-01 -2.4988677e-02 
4.7599959e-01 3.9749202e-01 -1.4667491e-04 
4.7617602e-01 3.9696884e-01 -1.4883704e-02 
4.7509649e-01 3.9718613e-01 9.7050983e-03 
4.7494525e-01 3.9699438e-01 6.7473822e-03 
4.7567198e-01 3.9597386e-01 -2.3795834e-02 
4.7450769e-01 3.9612910e-01 -1.0517137e-03 
4.7503644e-01 3.9489466e-01 -3.5017870e-02 
4.7359431e-01 3.9492694e-01 -9.4985384e-03 
4.7299656e-01 3.9380309e-01 -2.1764807e-02 
4.7228581e-01 3.9238417e-01 -3.4645550e-02 
4.7300458e-01 3.9330855e-01 -2.8837897e-02 
4.7196445e-01 3.9324173e-01 -1.5524209e-02 
4.7009897e-01 3.9238966e-01 2.3642080e-03 
4.6966586e-01 3.9224613e-01 6.6357176e-03 
4.6923247e-01 3.9203680e-01 9.3467096e-03 
4.7223192e-01 3.9227965e-01 -3.4435187e-02 
4.6808285e-01 3.8955858e-01 -1.9732203e-02 
4.6833283e-01 3.8957846e-01 -2.6558785e-02 
4.6813095e-01 3.8979515e-01 -1.8388981e-02 
4.6816084e-01 3.8912174e-01 -3.2096718e-02 
4.6727544e-01 3.8797432e-01 -3.6675394e-02 
4.6587715e-01 3.8777292e-01 -1.7642384e-02 
4.6521825e-01 3.8861594e-01 9.9269105e-03 
4.6466118e-01 3.8743785e-01 -6.2433365e-03 
4.6518233e-01 3.8638270e-01 -3.0722132e-02 
4.6449777e-01 3.8652816e-01 -1.9744975e-02 
4.6351925e-01 3.8679165e-01 3.2650444e-03 
4.6340081e-01 3.8623759e-01 -5.7176319e-03 
4.6520159e-01 3.8647974e-01 -2.9718619e-02 
4.6306413e-01 3.8594556e-01 -5.6878487e-03 
4.6475905e-01 3.8640445e-01 -2.4799246e-02 
4.6124700e-01 3.8407928e-01 -1.1794073e-02 
4.6000299e-01 3.8376707e-01 5.1612896e-03 
4.6067494e-01 3.8241225e-01 -3.5040457e-02 
4.5960477e-01 3.8358280e-01 8.1431353e-03 
4.5927042e-01 3.8110030e-01 -3.3880368e-02 
4.5871094e-01 3.8101408e-01 -3.0214923e-02 
4.5852026e-01 3.8125142e-01 -2.2783170e-02 
4.5960289e-01 3.8167211e-01 -2.8638734e-02 
4.5654106e-01 3.7974411e-01 -1.6225025e-02 
4.5743042e-01 3.8062814e-01 -1.5415759e-02 
4.5576423e-01 3.7993607e-01 9.5235591e-05 
4.5646390e-01 3.7984234e-01 -1.5018936e-02 
4.5491350e-01 3.7965280e-01 9.8085469e-03 
4.5436934e-01 3.7918526e-01 7.2116912e-03 
4.5463759e-01 3.7888300e-01 -7.7312218e-04 
4.5538521e-01 3.7850666e-01 -2.0804690e-02 
4.5766822e-01 3.7965146e-01 -3.4081820e-02 
4.5405298e-01 3.7794968e-01 -9.8640155e-03 
4.5278415e-01 3.7645787e-01 -1.6728558e-02 
4.5305547e-01 3.7563443e-01 -3.6606770e-02 
4.5203984e-01 3.7584931e-01 -1.7379014e-02 
4.5046872e-01 3.7535205e-01 2.3936974e-03 
4.5004931e-01 3.7522659e-01 6.6880477e-03 
4.4962811e-01 3.7503457e-01 9.4317617e-03 
4.5073894e-01 3.7394956e-01 -2.9394556e-02 
4.4875994e-01 3.7300590e-01 -1.8681275e-02 
4.5029464e-01 3.7387252e-01 -2.4569534e-02 
4.4854066e-01 3.7238470e-01 -2.7314428e-02 
4.4711325e-01 3.7176904e-01 -1.3192345e-02 
4.4665381e-01 3.7175566e-01 -5.1991343e-03 
4.4529399e-01 3.7135777e-01 1.0012390e-02 
4.4652995e-01 3.7018955e-01 -3.5033077e-02 
4.4419569e-01 3.6803803e-01 -3.4619890e-02 
4.4384846e-01 3.6931089e-01 -5.6407200e-03 
4.4259065e-01 3.6863443e-01 3.0065206e-04 
4.4411641e-01 3.6828512e-01 -2.8308727e-02 
4.4211069e-01 3.6729419e-01 -1.6590854e-02 
4.4044656e-01 3.6676708e-01 2.1042286e-03 
4.4054773e-01 3.6692759e-01 5.1903459e-03 
4.4012257e-01 3.6673427e-01 8.2202014e-03 
4.4164455e-01 3.6690450e-01 -1.6578505e-02 
4.4327724e-01 3.6722767e-01 -3.3688080e-02 
4.3948862e-01 3.6439937e-01 -3.0254470e-02 
4.3893549e-01 3.6437690e-01 -1.9833606e-02 
4.3929684e-01 3.6463359e-01 -2.2955144e-02 
4.3899879e-01 3.6353102e-01 -3.6530036e-02 
4.3842250e-01 3.6377451e-01 -2.1514863e-02 
4.3818277e-01 3.6366740e-01 -1.9862408e-02 
4.3752155e-01 3.6346552e-01 -1.5198365e-02 
4.3695265e-01 3.6196989e-01 -3.0440602e-02 
4.3515092e-01 3.6258361e-01 7.6116188e-03 
4.3593943e-01 3.6260387e-01 -6.0812850e-03 
4.3473074e-01 3.6170655e-01 -8.5229933e-04 
4.3464565e-01 3.6151627e-01 -2.8956260e-03 
4.3498480e-01 3.6146903e-01 -1.0082777e-02 
4.3644127e-01 3.6164317e-01 -2.9016361e-02 
4.3599430e-01 3.6156040e-01 -2.4283500e-02 
4.3273449e-01 3.6044091e-01 9.2790229e-03 
4.3270922e-01 3.5815847e-01 -3.4321304e-02 
4.3255174e-01 3.5813463e-01 -3.4944668e-02 
4.3113166e-01 3.5867319e-01 2.4544124e-03 
4.3071842e-01 3.5853821e-01 6.7332536e-03 
4.3109468e-01 3.5709259e-01 -2.8010285e-02 
4.2989513e-01 3.5631782e-01 -2.6804565e-02 
4.2887613e-01 3.5659161e-01 -2.0905661e-03 
4.2970198e-01 3.5653478e-01 -1.8970218e-02 
4.2884138e-01 3.5597846e-01 -1.5082596e-02 
4.2674303e-01 3.5535431e-01 1.0065275e-02 
4.2673442e-01 3.5386166e-01 -1.9480010e-02 
4.2902780e-01 3.5496411e-01 -3.3234008e-02 
4.2598295e-01 3.5390252e-01 -5.6019472e-03 
4.2525366e-01 3.5250142e-01 -2.1926379e-02 
4.2508405e-01 3.5153717e-01 -3.6363523e-02 
4.2390469e-01 3.5158023e-01 -1.5980160e-02 
4.2314449e-01 3.5129911e-01 -9.3345158e-03 
4.2140439e-01 3.5042799e-01 5.2160043e-03 
4.2096689e-01 3.5023826e-01 8.2946112e-03 
4.2071208e-01 3.4977907e-01 2.2942617e-03 
4.2227238e-01 3.4944865e-01 -2.8580738e-02 
4.2039365e-01 3.4836343e-01 -2.3101294e-02 
4.2037925e-01 3.4795323e-01 -3.0376365e-02 
4.2015433e-01 3.4853849e-01 -1.4732360e-02 
4.2181993e-01 3.4936216e-01 -2.3949303e-02 
4.1975313e-01 3.4792247e-01 -1.8120117e-02 
4.1871768e-01 3.4623209e-01 -3.4786310e-02 
4.1732979e-01 3.4726039e-01 7.9036942e-03 
4.1686630e-01 3.4527308e-01 -2.1108497e-02 
4.1735551e-01 3.4498441e-01 -3.3385869e-02 
4.1580901e-01 3.4447443e-01 -1.9677464e-02 
4.1507143e-01 3.4463897e-01 -3.3506239e-03 
4.1583428e-01 3.4398094e-01 -2.7557546e-02 
4.1402462e-01 3.4296322e-01 -2.0369161e-02 
4.1386816e-01 3.4317377e-01 -1.3252423e-02 
4.1208580e-01 3.4270552e-01 9.4730519e-03 
4.1212311e-01 3.4235498e-01 2.5093539e-03 
4.1173127e-01 3.4221324e-01 6.8105338e-03 
4.1136599e-01 3.4151801e-01 -3.0059777e-03 
4.1493058e-01 3.4286785e-01 -3.2720309e-02 
4.1145951e-01 3.4021902e-01 -3.1923652e-02 
4.1138339e-01 3.3980045e-01 -3.6133092e-02 
4.1009074e-01 3.4084344e-01 2.6749691e-03 
4.1108581e-01 3.4020159e-01 -2.6686572e-02 
4.1096509e-01 3.4044689e-01 -1.9224511e-02 
4.0945464e-01 3.4053332e-01 1.0158613e-02 
4.0925354e-01 3.3960709e-01 -7.3444583e-03 
4.0932670e-01 3.3962563e-01 -5.5680326e-03 
4.0766075e-01 3.3842325e-01 -1.2094438e-03 
4.0760994e-01 3.3771315e-01 -1.5543266e-02 
4.0826955e-01 3.3746338e-01 -2.8070640e-02 
4.0605187e-01 3.3607313e-01 -2.1795684e-02 
4.0782100e-01 3.3737075e-01 -2.3566587e-02 
4.0520802e-01 3.3475009e-01 -2.9449640e-02 
4.0510675e-01 3.3463058e-01 -3.4635294e-02 
4.0381002e-01 3.3340195e-01 -3.3122830e-02 
4.0319994e-01 3.3350298e-01 -2.3808507e-02 
4.0255967e-01 3.3428249e-01 5.3000459e-03 
4.0213093e-01 3.3410946e-01 8.3561931e-03 
4.0173420e-01 3.3389226e-01 9.9755628e-03 
4.0199935e-01 3.3322060e-01 -8.5653178e-03 
4.0193567e-01 3.3219993e-01 -3.0134214e-02 
4.0063861e-01 3.3296415e-01 8.2530426e-03 
4.0168917e-01 3.3272794e-01 -1.4854720e-02 
4.0167892e-01 3.3234534e-01 -2.3096288e-02 
4.0097460e-01 3.3210346e-01 -1.3958698e-02 
4.0050885e-01 3.3252677e-01 2.8987885e-03 
4.0126440e-01 3.3207202e-01 -1.8378220e-02 
4.0041381e-01 3.3186772e-01 -9.3974834e-03 
4.0192679e-01 3.3209234e-01 -2.7077677e-02 
4.0054992e-01 3.3144501e-01 -1.9220615e-02 
3.9877984e-01 3.3083737e-01 -9.3861681e-04 
4.0102044e-01 3.3100876e-01 -3.2155704e-02 
3.9748034e-01 3.2905412e-01 -1.5419365e-02 
3.9717102e-01 3.2769656e-01 -3.5813943e-02 
3.9593986e-01 3.2723218e-01 -2.5928527e-02 
3.9330077e-01 3.2672048e-01 1.0232930e-02 
3.9377844e-01 3.2636666e-01 -5.5515128e-03 
3.9341733e-01 3.2636282e-01 2.5169365e-03 
3.9301789e-01 3.2623407e-01 6.8695187e-03 
3.9259186e-01 3.2604831e-01 9.6389726e-03 
3.9272091e-01 3.2506269e-01 -1.4328743e-02 
3.9254940e-01 3.2436514e-01 -2.6826765e-02 
3.9240941e-01 3.2462525e-01 -1.8970000e-02 
3.9387819e-01 3.2521307e-01 -2.7417352e-02 
3.9105725e-01 3.2466269e-01 5.0554969e-03 
3.9164451e-01 3.2316893e-01 -3.4358244e-02 
3.9026251e-01 3.2355073e-01 -4.3448037e-03 
3.9236954e-01 3.2412410e-01 -2.4425806e-02 
3.9013949e-01 3.2260716e-01 -1.8477695e-02 
3.9129108e-01 3.2365319e-01 -1.7413957e-02 
3.9025769e-01 3.2195148e-01 -3.0565904e-02 
3.8966480e-01 3.2275710e-01 -9.7680520e-03 
3.8946682e-01 3.2117191e-01 -3.3652212e-02 
3.8826388e-01 3.2212162e-01 8.5028930e-04 
3.8916180e-01 3.2122219e-01 -2.7032595e-02 
3.8778087e-01 3.2136017e-01 -2.7720025e-03 
3.8731039e-01 3.2105878e-01 -1.1456992e-03 
3.8693193e-01 3.2088569e-01 1.2763558e-03 
3.8836589e-01 3.2056135e-01 -2.6458649e-02 
3.8729483e-01 3.1954372e-01 -2.8817782e-02 
3.8506705e-01 3.1859648e-01 -1.2329889e-02 
3.8730723e-01 3.1933221e-01 -3.1516585e-02 
3.8401222e-01 3.1848112e-01 5.2992790e-03 
3.8359019e-01 3.1830233e-01 8.3716409e-03 
3.8431197e-01 3.1718832e-01 -2.9903112e-02 
3.8353637e-01 3.1690043e-01 -2.3009682e-02 
3.8305181e-01 3.1684649e-01 -1.5098822e-02 
3.8062283e-01 3.1590933e-01 8.0594178e-03 
3.8056260e-01 3.1459939e-01 -1.6915055e-02 
3.8017714e-01 3.1457204e-01 -1.0342611e-02 
3.8048452e-01 3.1351018e-01 -3.5257466e-02 
3.7921563e-01 3.1395060e-01 -5.5265534e-03 
3.7815112e-01 3.1384057e-01 1.0268595e-02 
3.7839112e-01 3.1188777e-01 -3.4144547e-02 
3.7675878e-01 3.1198949e-01 -2.7794042e-03 
3.7536675e-01 3.1128705e-01 2.8465474e-03 
3.7585095e-01 3.0971062e-01 -3.1449061e-02 
3.7702620e-01 3.1130242e-01 -2.0925997e-02 
3.7493077e-01 3.1066504e-01 -1.6307926e-03 
3.7699002e-01 3.1090888e-01 -2.6374267e-02 
3.7508380e-01 3.1076989e-01 2.3571956e-03 
3.7541136e-01 3.1017920e-01 -1.8727507e-02 
3.7461704e-01 3.1059414e-01 6.9095506e-03 
3.7526423e-01 3.0966330e-01 -2.6758948e-02 
3.7535819e-01 3.0936623e-01 -2.9177606e-02 
3.7386936e-01 3.0957144e-01 -3.8229437e-03 
3.7446451e-01 3.1001449e-01 -6.5469746e-03 
3.7469837e-01 3.0891749e-01 -2.7329061e-02 
3.7391263e-01 3.0923626e-01 -1.2265781e-02 
3.7291610e-01 3.0793846e-01 -1.8917985e-02 
3.7397364e-01 3.0836043e-01 -2.6025930e-02 
3.7129647e-01 3.0719134e-01 -7.1265176e-03 
3.7156957e-01 3.0699506e-01 -1.5398049e-02 
3.7379152e-01 3.0791017e-01 -3.0820612e-02 
3.6919495e-01 3.0473226e-01 -2.0861674e-02 
3.6866966e-01 3.0483073e-01 -1.0049992e-02 
3.6668256e-01 3.0279768e-01 -1.6165232e-02 
3.6571708e-01 3.0253062e-01 -5.4733381e-03 
3.6569983e-01 3.0212611e-01 -1.5794944e-02 
3.6520746e-01 3.0250508e-01 4.9529080e-03 
3.6562797e-01 3.0173004e-01 -2.2665679e-02 
3.6466873e-01 3.0227569e-01 8.6762561e-03 
3.6551160e-01 3.0131155e-01 -2.8904215e-02 
3.6409250e-01 3.0193558e-01 1.0320171e-02 
3.6531690e-01 3.0083352e-01 -3.3760924e-02 
3.6485776e-01 3.0030912e-01 -3.4818616e-02 
3.6357623e-01 3.0149627e-01 8.8175610e-03 
3.6430013e-01 2.9987016e-01 -3.2894991e-02 
3.6306509e-01 3.0094680e-01 5.1777554e-03 
3.6367229e-01 2.9948378e-01 -2.9453868e-02 
3.6262190e-01 3.0034906e-01 7.3499285e-04 
3.6302659e-01 2.9900947e-01 -2.7790062e-02 
3.6208719e-01 2.9970223e-01 -3.7559674e-03 
3.6199138e-01 2.9887295e-01 -1.6414069e-02 
3.6231059e-01 2.9849964e-01 -2.5948063e-02 
3.6160806e-01 2.9902539e-01 -8.8824704e-03 
3.6161780e-01 2.9795295e-01 -2.5231950e-02 
3.6114198e-01 2.9825294e-01 -1.4923569e-02 
3.5916388e-01 2.9691780e-01 -7.4519506e-03 
3.5872456e-01 2.9641587e-01 -9.6185282e-03 
3.6094648e-01 2.9736602e-01 -2.5935810e-02 
3.6076266e-01 2.9747257e-01 -2.1782469e-02 
3.5786384e-01 2.9495165e-01 -2.5735805e-02 
3.6052090e-01 2.9674646e-01 -3.0079016e-02 
3.5644647e-01 2.9402053e-01 -1.8291090e-02 
3.5612953e-01 2.9391661e-01 -1.8447544e-02 
3.5607108e-01 2.9348820e-01 -2.6359614e-02 
3.5540324e-01 2.9334065e-01 -1.4919160e-02 
3.5457712e-01 2.9321101e-01 -4.0813074e-03 
3.5456330e-01 2.9359546e-01 6.1924532e-03 
3.5395759e-01 2.9327095e-01 9.1295028e-03 
3.5293123e-01 2.9142168e-01 -1.2895049e-02 
3.5303694e-01 2.9034767e-01 -3.3889521e-02 
3.5271403e-01 2.9155830e-01 -5.4759891e-03 
3.5230416e-01 2.8983229e-01 -3.0398797e-02 
3.5232472e-01 2.8992620e-01 -3.3320751e-02 
3.5099465e-01 2.9081395e-01 7.2369762e-03 
3.5089597e-01 2.9078871e-01 1.0350099e-02 
3.5130683e-01 2.9043326e-01 -3.7866610e-03 
3.5049415e-01 2.9025292e-01 3.0837171e-03 
3.5145569e-01 2.8923571e-01 -2.8067375e-02 
3.4992632e-01 2.8958565e-01 -1.2566878e-03 
3.5072985e-01 2.8874049e-01 -2.6218787e-02 
3.4938923e-01 2.8889865e-01 -5.8204746e-03 
3.5009390e-01 2.8826094e-01 -2.4832224e-02 
3.4898332e-01 2.8822681e-01 -1.1327275e-02 
3.4943488e-01 2.8775883e-01 -2.4586597e-02 
3.4803826e-01 2.8693992e-01 -2.2139814e-02 
3.4861594e-01 2.8750861e-01 -1.7566098e-02 
3.4707761e-01 2.8648004e-01 -1.2615098e-02 
3.4714350e-01 2.8652844e-01 -1.4702304e-02 
3.4705687e-01 2.8577006e-01 -2.8865824e-02 
3.4645218e-01 2.8565219e-01 -1.8775448e-02 
3.4600860e-01 2.8625983e-01 4.1326615e-03 
3.4540692e-01 2.8595650e-01 7.6284520e-03 
3.4479916e-01 2.8558540e-01 1.0132455e-02 
3.4455767e-01 2.8489557e-01 -9.3500176e-04 
3.4430027e-01 2.8496474e-01 3.9588320e-03 
3.4472373e-01 2.8407919e-01 -2.0675302e-02 
3.4450036e-01 2.8446409e-01 -9.9015320e-03 
3.4733951e-01 2.8569916e-01 -2.9271809e-02 
3.4435737e-01 2.8404778e-01 -1.6194757e-02 
3.4205809e-01 2.8271967e-01 -2.4570213e-03 
3.4193575e-01 2.8199220e-01 -1.5208101e-02 
3.3963105e-01 2.8007382e-01 -1.7981641e-02 
3.3926502e-01 2.8024054e-01 -5.4762620e-03 
3.3947983e-01 2.7914795e-01 -3.2836735e-02 
3.3953658e-01 2.7928385e-01 -2.6596697e-02 
3.4076837e-01 2.8070754e-01 -2.0992702e-02 
3.3923364e-01 2.7936125e-01 -2.5714375e-02 
3.3789361e-01 2.7985629e-01 1.0335363e-02 
3.3869115e-01 2.7839467e-01 -3.1732820e-02 
3.3716395e-01 2.7851471e-01 -5.3374185e-03 
3.3779734e-01 2.7772614e-01 -2.8315200e-02 
3.3693618e-01 2.7873567e-01 6.0682902e-03 
3.3632970e-01 2.7841994e-01 9.0570534e-03 
3.3665428e-01 2.7750209e-01 -1.7662693e-02 
3.3583426e-01 2.7803358e-01 5.3143534e-03 
3.3525848e-01 2.7738476e-01 1.1837910e-03 
3.3610091e-01 2.7652615e-01 -2.4538716e-02 
3.3440548e-01 2.7624193e-01 -3.8454458e-03 
3.3468217e-01 2.7666277e-01 -3.1259574e-03 
3.3552849e-01 2.7612099e-01 -2.3722693e-02 
3.3373970e-01 2.7568167e-01 -3.7133130e-03 
3.3395258e-01 2.7544531e-01 -1.3646359e-02 
3.3265066e-01 2.7330905e-01 -3.3515431e-02 
3.3089530e-01 2.7401495e-01 8.9560384e-03 
3.3438551e-01 2.7490497e-01 -2.8398043e-02 
3.3096492e-01 2.7298203e-01 -1.4054496e-02 
3.3084241e-01 2.7255982e-01 -2.1399429e-02 
3.3039182e-01 2.7185914e-01 -2.7709462e-02 
3.2989740e-01 2.7175993e-01 -1.8889830e-02 
3.2856286e-01 2.7091146e-01 -1.2837054e-02 
3.2848883e-01 2.7155191e-01 3.9233691e-03 
3.2793579e-01 2.7127284e-01 7.5375265e-03 
3.2728773e-01 2.7056640e-01 2.1060363e-03 
3.2765639e-01 2.7037799e-01 -9.0421252e-03 
3.2775155e-01 2.7065504e-01 -6.9660884e-03 
3.2741359e-01 2.6989859e-01 -1.5266171e-02 
3.2824755e-01 2.7002874e-01 -2.3846742e-02 
3.2677391e-01 2.6855376e-01 -3.2373283e-02 
3.2783157e-01 2.6989880e-01 -2.0314515e-02 
3.2506150e-01 2.6912117e-01 1.0339885e-02 
3.2561728e-01 2.6816633e-01 -2.0006409e-02 
3.2565257e-01 2.6756060e-01 -2.9905844e-02 
3.2527673e-01 2.6852736e-01 -5.4249368e-03 
3.2223430e-01 2.6607013e-01 -3.6802723e-03 
3.2198119e-01 2.6568541e-01 -7.8223394e-03 
3.2233468e-01 2.6561564e-01 -1.7614145e-02 
3.2205904e-01 2.6508760e-01 -2.4147047e-02 
3.2187298e-01 2.6464248e-01 -2.9829314e-02 
3.2250679e-01 2.6527721e-01 -2.2951091e-02 
3.2166508e-01 2.6439434e-01 -2.5694447e-02 
3.1960422e-01 2.6421049e-01 5.9616137e-03 
3.2008386e-01 2.6284057e-01 -3.2868762e-02 
3.1902400e-01 2.6392794e-01 8.9265862e-03 
3.1865481e-01 2.6306179e-01 -4.6450729e-03 
3.1817493e-01 2.6337019e-01 9.0836817e-03 
3.2151031e-01 2.6417738e-01 -2.7481437e-02 
3.1709427e-01 2.6206914e-01 -1.4057661e-03 
3.1715065e-01 2.6122469e-01 -1.6541880e-02 
3.1655824e-01 2.6111430e-01 -8.7788561e-03 
3.1627515e-01 2.6061910e-01 -1.4871501e-02 
3.1492400e-01 2.6054659e-01 4.4678380e-03 
3.1407085e-01 2.5887999e-01 -1.3550511e-02 
3.1423935e-01 2.5811672e-01 -3.1857997e-02 
3.1551608e-01 2.5944594e-01 -2.2973796e-02 
3.1371856e-01 2.5830698e-01 -2.0595429e-02 
3.1509313e-01 2.5930920e-01 -1.9622317e-02 
3.1350616e-01 2.5781479e-01 -2.6748963e-02 
3.1242368e-01 2.5858542e-01 1.0458196e-02 
3.1308416e-01 2.5705856e-01 -2.9284416e-02 
3.1129560e-01 2.5717610e-01 3.7715936e-03 
3.1081989e-01 2.5696626e-01 7.4114585e-03 
3.1081465e-01 2.5646678e-01 -5.4078805e-03 
3.0982873e-01 2.5568321e-01 -6.0557406e-03 
3.0854350e-01 2.5463617e-01 -3.6787300e-03 
3.0823648e-01 2.5379848e-01 -1.7774753e-02 
3.0881321e-01 2.5457415e-01 -1.2035991e-02 
3.0788198e-01 2.5377899e-01 -1.1453841e-02 
3.0755511e-01 2.5368351e-01 -8.3843870e-03 
3.0865070e-01 2.5374788e-01 -2.2249065e-02 
3.0758294e-01 2.5242871e-01 -3.2269530e-02 
3.0605310e-01 2.5256529e-01 -4.4353013e-03 
3.0565217e-01 2.5297114e-01 9.1074221e-03 
3.0885589e-01 2.5365916e-01 -2.6510876e-02 
3.0643094e-01 2.5243998e-01 -1.6528983e-02 
3.0630687e-01 2.5172827e-01 -2.8707489e-02 
3.0517265e-01 2.5191462e-01 -1.1298939e-03 
3.0522829e-01 2.5112492e-01 -2.3364997e-02 
3.0327311e-01 2.5059634e-01 5.6282049e-03 
3.0332950e-01 2.5047559e-01 1.1884926e-03 
3.0268306e-01 2.4991976e-01 -4.5093745e-03 
3.0195481e-01 2.4967253e-01 8.6062104e-03 
3.0161345e-01 2.4823280e-01 -1.8844884e-02 
3.0191433e-01 2.4787074e-01 -3.1243388e-02 
3.0296406e-01 2.4905124e-01 -2.2020709e-02 
3.0254763e-01 2.4890964e-01 -1.8861068e-02 
2.9994029e-01 2.4817888e-01 1.0451792e-02 
3.0069953e-01 2.4683210e-01 -2.8523043e-02 
2.9877129e-01 2.4711363e-01 5.1273480e-03 
2.9834092e-01 2.4577183e-01 -1.3282219e-02 
2.9799038e-01 2.4597132e-01 -1.2604131e-03 
2.9773715e-01 2.4534073e-01 -1.3208378e-02 
2.9701468e-01 2.4447288e-01 -1.9931989e-02 
2.9743668e-01 2.4447711e-01 -2.1204902e-02 
2.9656744e-01 2.4374358e-01 -2.7036283e-02 
2.9571152e-01 2.4394441e-01 -4.8843599e-03 
2.9561386e-01 2.4412034e-01 2.5130522e-03 
2.9640904e-01 2.4428172e-01 -1.1514865e-02 
2.9575938e-01 2.4397427e-01 -5.3616087e-03 
2.9560950e-01 2.4274606e-01 -2.4325259e-02 
2.9498142e-01 2.4284074e-01 -1.4573618e-02 
2.9537115e-01 2.4233443e-01 -3.1569276e-02 
2.9439479e-01 2.4330181e-01 7.8809290e-04 
2.9433870e-01 2.4325655e-01 6.9080023e-03 
2.9322034e-01 2.4264893e-01 9.1624670e-03 
2.9638013e-01 2.4336693e-01 -2.5513055e-02 
2.9368180e-01 2.4224600e-01 -5.5115316e-03 
2.9329437e-01 2.4164759e-01 -1.1192275e-02 
2.9301673e-01 2.4234410e-01 9.6498160e-03 
2.9175466e-01 2.4003644e-01 -1.8339848e-02 
2.9160550e-01 2.4029085e-01 -1.1519350e-02 
2.9115835e-01 2.3966035e-01 -1.6953753e-02 
2.9029486e-01 2.3969282e-01 1.3576343e-03 
2.8990310e-01 2.3790874e-01 -2.8510137e-02 
2.8954288e-01 2.3900551e-01 -2.4441029e-05 
2.8971678e-01 2.3782110e-01 -3.0630730e-02 
2.9058793e-01 2.3883988e-01 -2.1074411e-02 
2.8864175e-01 2.3816186e-01 -3.4359265e-03 
2.8888509e-01 2.3790781e-01 -1.6349945e-02 
2.9017696e-01 2.3869227e-01 -1.8101126e-02 
2.8869846e-01 2.3745851e-01 -2.2540258e-02 
2.8857142e-01 2.3781610e-01 -1.1419331e-02 
2.8763005e-01 2.3798683e-01 1.0426624e-02 
2.8851140e-01 2.3701175e-01 -2.7899737e-02 
2.8737327e-01 2.3708925e-01 -4.5134844e-03 
2.8648722e-01 2.3694760e-01 5.2287914e-03 
2.8675607e-01 2.3686793e-01 4.9151741e-03 
2.8547961e-01 2.3599468e-01 8.1129083e-03 
2.8463429e-01 2.3512594e-01 2.9011113e-03 
2.8503338e-01 2.3501627e-01 -7.3669231e-03 
2.8513476e-01 2.3432547e-01 -2.0308478e-02 
2.8321755e-01 2.3231381e-01 -3.0792687e-02 
2.8291148e-01 2.3304991e-01 -1.1953500e-02 
2.8107375e-01 2.3261601e-01 9.1893906e-03 
2.8412104e-01 2.3327164e-01 -2.4475081e-02 
2.8062034e-01 2.3138592e-01 -8.0692833e-03 
2.8082347e-01 2.3136188e-01 -1.2707002e-02 
2.8064936e-01 2.3096722e-01 -1.9206008e-02 
2.8012967e-01 2.3114638e-01 -2.7824449e-03 
2.8051925e-01 2.3054896e-01 -2.5148185e-02 
2.8012463e-01 2.3103337e-01 -5.3520459e-03 
2.7942252e-01 2.3041916e-01 -6.5305359e-03 
2.7819782e-01 2.2963950e-01 -3.9110258e-03 
2.7801707e-01 2.2970097e-01 6.3188896e-03 
2.7807003e-01 2.2899751e-01 -1.3952450e-02 
2.7780044e-01 2.2902958e-01 -7.7706254e-03 
2.7774921e-01 2.2855748e-01 -1.7213462e-02 
2.7767155e-01 2.2788492e-01 -3.0022189e-02 
2.7673024e-01 2.2885759e-01 9.1849901e-03 
2.7843893e-01 2.2885683e-01 -2.0079948e-02 
2.7803934e-01 2.2870551e-01 -1.7307198e-02 
2.7657771e-01 2.2692962e-01 -2.6857078e-02 
2.7558112e-01 2.2803627e-01 1.0408567e-02 
2.7456257e-01 2.2645819e-01 -5.6834691e-03 
2.7411854e-01 2.2614200e-01 -3.7839629e-03 
2.7332312e-01 2.2616135e-01 6.0638515e-03 
2.7386731e-01 2.2527586e-01 -2.1681169e-02 
2.7364686e-01 2.2484362e-01 -2.6873516e-02 
2.7272817e-01 2.2459364e-01 -1.5743757e-02 
2.7246791e-01 2.2455527e-01 -1.1275519e-02 
2.7211466e-01 2.2428215e-01 -1.0508087e-02 
2.7211761e-01 2.2370569e-01 -1.9192383e-02 
2.7109051e-01 2.2317173e-01 -1.6174534e-02 
2.7136579e-01 2.2259507e-01 -3.0042099e-02 
2.7058789e-01 2.2348887e-01 4.0086391e-03 
2.6909247e-01 2.2271630e-01 9.2230439e-03 
2.6982734e-01 2.2252485e-01 -6.4724297e-03 
2.7207744e-01 2.2341451e-01 -2.3428451e-02 
2.6934528e-01 2.2263639e-01 7.5341389e-03 
2.6911715e-01 2.2220637e-01 -2.4148724e-04 
2.6909155e-01 2.2097701e-01 -2.1899993e-02 
2.6809111e-01 2.2178766e-01 1.0014991e-02 
2.6767555e-01 2.2121783e-01 5.1823768e-05 
2.6661772e-01 2.1970558e-01 -9.8727485e-03 
2.6650146e-01 2.1906102e-01 -2.4546163e-02 
2.6608998e-01 2.1832150e-01 -2.6908593e-02 
2.6555616e-01 2.1858311e-01 -1.4498715e-02 
2.6583916e-01 2.1823241e-01 -2.9273314e-02 
2.6546565e-01 2.1847481e-01 -1.9157419e-02 
2.6650646e-01 2.1909653e-01 -1.9082403e-02 
2.6610556e-01 2.1893476e-01 -1.6486105e-02 
2.6466975e-01 2.1806443e-01 -1.3058657e-02 
2.6375017e-01 2.1831420e-01 1.0321933e-02 
2.6394036e-01 2.1773529e-01 -5.3268792e-03 
2.6253378e-01 2.1725084e-01 5.4535237e-03 
2.6312512e-01 2.1672878e-01 -1.3550584e-02 
2.6256609e-01 2.1638855e-01 -1.0086648e-02 
2.6201409e-01 2.1654940e-01 5.7632783e-03 
2.6220334e-01 2.1618174e-01 -8.3309580e-03 
2.6077619e-01 2.1569860e-01 8.7291216e-03 
2.6133829e-01 2.1560887e-01 -7.9661142e-03 
2.6127061e-01 2.1485876e-01 -1.8316919e-02 
2.5975356e-01 2.1453400e-01 -7.0628407e-04 
2.5963303e-01 2.1299742e-01 -2.9245079e-02 
2.5887939e-01 2.1270391e-01 -2.6832746e-02 
2.5733101e-01 2.1310903e-01 9.1162985e-03 
2.6023129e-01 2.1374413e-01 -2.2335995e-02 
2.5804326e-01 2.1227773e-01 -2.1999571e-02 
2.5725010e-01 2.1186011e-01 -1.6475502e-02 
2.5643429e-01 2.1138164e-01 -1.1587063e-02 
2.5478807e-01 2.1047997e-01 2.8459448e-03 
2.5485981e-01 2.0973700e-01 -1.8187741e-02 
2.5413701e-01 2.0963575e-01 -6.8376143e-03 
2.5360170e-01 2.0969617e-01 7.0194807e-03 
2.5375372e-01 2.0923096e-01 -9.2576537e-03 
2.5423467e-01 2.0874779e-01 -2.8561728e-02 
2.5478497e-01 2.0955062e-01 -1.8060237e-02 
2.5439012e-01 2.0938450e-01 -1.5643012e-02 
2.5316548e-01 2.0777632e-01 -2.5121845e-02 
2.5289112e-01 2.0801142e-01 -1.9128636e-02 
2.5232226e-01 2.0885083e-01 9.6667651e-03 
2.5203356e-01 2.0871150e-01 1.0339087e-02 
2.5233424e-01 2.0771810e-01 -1.4779173e-02 
2.5082597e-01 2.0695800e-01 -7.1700495e-03 
2.5074282e-01 2.0699014e-01 -3.6467235e-03 
2.5107673e-01 2.0641927e-01 -2.5116224e-02 
2.5029349e-01 2.0666914e-01 -1.9929118e-03 
2.4978058e-01 2.0679626e-01 4.0416461e-03 
2.4994905e-01 2.0577069e-01 -1.9487714e-02 
2.4913129e-01 2.0532520e-01 -1.3723076e-02 
2.4869941e-01 2.0515023e-01 -9.2777936e-03 
2.4873075e-01 2.0464651e-01 -1.7196897e-02 
2.4787955e-01 2.0449643e-01 -7.7048568e-03 
2.4806361e-01 2.0359184e-01 -2.8369304e-02 
2.4715379e-01 2.0399345e-01 -5.2744346e-03 
2.4646951e-01 2.0375359e-01 5.0214697e-03 
2.4581729e-01 2.0368117e-01 9.2259208e-03 
2.4860652e-01 2.0430228e-01 -2.1240927e-02 
2.4648102e-01 2.0257267e-01 -2.0534232e-02 
2.4608785e-01 2.0290436e-01 -1.0681208e-02 
2.4558753e-01 2.0288824e-01 -1.1660830e-03 
2.4574371e-01 2.0251915e-01 -1.1794628e-02 
2.4526651e-01 2.0296380e-01 8.1708794e-03 
2.4506812e-01 2.0179020e-01 -1.6670708e-02 
2.4301566e-01 2.0090400e-01 -2.9237806e-03 
2.4289311e-01 2.0047344e-01 -6.1467122e-03 
2.4258846e-01 1.9987740e-01 -1.3495748e-02 
2.4299999e-01 1.9955456e-01 -2.5078988e-02 
2.4270920e-01 1.9975948e-01 -2.2042153e-02 
2.4277313e-01 1.9943517e-01 -2.7767276e-02 
2.4324641e-01 2.0017871e-01 -1.7033277e-02 
2.4192981e-01 1.9933827e-01 -1.6926786e-02 
2.4286291e-01 2.0000772e-01 -1.4783003e-02 
2.4061990e-01 1.9937345e-01 1.0248063e-02 
2.4030645e-01 1.9850294e-01 -3.5627910e-03 
2.4047807e-01 1.9836603e-01 -9.8114973e-03 
2.4038561e-01 1.9828868e-01 -1.1840661e-02 
2.3952745e-01 1.9848514e-01 5.7621775e-03 
2.3982149e-01 1.9823718e-01 -6.5855616e-05 
2.3941141e-01 1.9786900e-01 1.4634890e-03 
2.3859769e-01 1.9694972e-01 -7.3158345e-03 
2.3825888e-01 1.9713981e-01 6.4056460e-03 
2.3836201e-01 1.9668396e-01 -9.5242010e-03 
2.3699500e-01 1.9633326e-01 9.1796340e-03 
2.3729724e-01 1.9535910e-01 -1.6295165e-02 
2.3676249e-01 1.9440366e-01 -2.7459340e-02 
2.3554172e-01 1.9378175e-01 -2.4320899e-02 
2.3453663e-01 1.9447011e-01 9.1762329e-03 
2.3718928e-01 1.9505668e-01 -2.0124549e-02 
2.3441009e-01 1.9360411e-01 -6.0304175e-03 
2.3478834e-01 1.9340101e-01 -1.9632384e-02 
2.3420809e-01 1.9347687e-01 -4.5316247e-03 
2.3401108e-01 1.9301102e-01 -1.4289668e-02 
2.3308849e-01 1.9299561e-01 1.0741488e-03 
2.3205461e-01 1.9184290e-01 -2.4716803e-03 
2.3193905e-01 1.9163802e-01 -5.7517779e-03 
2.3127824e-01 1.9137502e-01 4.1304706e-03 
2.3129328e-01 1.9069913e-01 -1.4168921e-02 
2.3159495e-01 1.9034858e-01 -2.7024154e-02 
2.3190650e-01 1.9104578e-01 -1.5943473e-02 
2.3069978e-01 1.9056471e-01 -6.3523422e-03 
2.3011416e-01 1.9058782e-01 7.6470114e-03 
2.3055993e-01 1.8946628e-01 -2.3236180e-02 
2.3152795e-01 1.9086635e-01 -1.3857005e-02 
2.2955982e-01 1.9041446e-01 6.4329947e-03 
2.2942761e-01 1.9029737e-01 1.0167365e-02 
2.2991189e-01 1.8972692e-01 -1.1651888e-02 
2.2975627e-01 1.8984868e-01 -5.2156621e-03 
2.2828339e-01 1.8798099e-01 -2.2381866e-02 
2.2733939e-01 1.8798499e-01 -2.4530799e-03 
2.2697082e-01 1.8720250e-01 -1.7157461e-02 
2.2694634e-01 1.8678106e-01 -1.7706497e-02 
2.2699769e-01 1.8706648e-01 -1.5305826e-02 
2.2620705e-01 1.8677649e-01 -1.1785493e-02 
2.2606181e-01 1.8680885e-01 -8.0327345e-03 
2.2570543e-01 1.8547992e-01 -2.6653495e-02 
2.2433044e-01 1.8546820e-01 -4.1784248e-03 
2.2340874e-01 1.8544531e-01 9.1520604e-03 
2.2597498e-01 1.8603127e-01 -1.8952111e-02 
2.2328626e-01 1.8494365e-01 5.7635796e-03 
2.2292747e-01 1.8396764e-01 -1.3822738e-02 
2.2213659e-01 1.8420002e-01 8.5928943e-03 
2.2252688e-01 1.8416199e-01 1.5773480e-03 
2.2219108e-01 1.8369305e-01 -6.1347228e-03 
2.2190359e-01 1.8326907e-01 -9.1616400e-03 
2.2140901e-01 1.8297057e-01 -9.3734898e-03 
2.2077142e-01 1.8180881e-01 -2.3961235e-02 
2.2021697e-01 1.8217912e-01 -2.6317700e-03 
2.2058895e-01 1.8147257e-01 -2.6295785e-02 
2.1996421e-01 1.8171778e-01 -1.0087061e-02 
2.2002600e-01 1.8146437e-01 -1.9627528e-02 
2.2085382e-01 1.8213208e-01 -1.4881864e-02 
2.2048587e-01 1.8195485e-01 -1.2961524e-02 
2.1850643e-01 1.8144049e-01 1.0162485e-02 
2.1889260e-01 1.8007599e-01 -2.1349251e-02 
2.1833512e-01 1.8082604e-01 -3.0498295e-03 
2.1862218e-01 1.8058223e-01 -1.3603132e-02 
2.1734282e-01 1.8045866e-01 6.0167480e-03 
2.1685065e-01 1.7897333e-01 -1.4606573e-02 
2.1655686e-01 1.7936802e-01 3.1033822e-03 
2.1544790e-01 1.7868172e-01 6.9596441e-03 
2.1611741e-01 1.7827328e-01 -1.4399133e-02 
2.1517667e-01 1.7800418e-01 -7.3955813e-03 
2.1427441e-01 1.7786522e-01 9.4301831e-03 
2.1481194e-01 1.7667140e-01 -2.5752509e-02 
2.1450169e-01 1.7745079e-01 -6.3485219e-03 
2.1344864e-01 1.7684470e-01 -3.0086955e-04 
2.1359155e-01 1.7674346e-01 -5.0187241e-03 
2.1256047e-01 1.7668627e-01 9.1091385e-03 
2.1504933e-01 1.7726886e-01 -1.7815350e-02 
2.1244758e-01 1.7543569e-01 -1.7310372e-02 
2.1248832e-01 1.7521697e-01 -2.1961167e-02 
2.1181136e-01 1.7532040e-01 -5.1559075e-03 
2.1168695e-01 1.7501737e-01 -1.2293221e-02 
2.1096084e-01 1.7443624e-01 -8.6263958e-03 
2.1070756e-01 1.7449751e-01 -2.9301874e-03 
2.0953736e-01 1.7312306e-01 -1.2402009e-02 
2.0978175e-01 1.7280211e-01 -2.5405360e-02 
2.0890924e-01 1.7354263e-01 2.3921267e-03 
2.1004879e-01 1.7347261e-01 -1.3849803e-02 
2.0880903e-01 1.7320269e-01 4.9960464e-03 
2.0871630e-01 1.7191640e-01 -2.1373151e-02 
2.0968440e-01 1.7328969e-01 -1.2064588e-02 
2.0774415e-01 1.7271934e-01 9.9900169e-03 
2.0770550e-01 1.7248222e-01 8.0741802e-03 
2.0764652e-01 1.7179763e-01 -9.8754466e-03 
2.0669681e-01 1.7183812e-01 6.0367878e-03 
2.0697467e-01 1.7070438e-01 -1.6402939e-02 
2.0665476e-01 1.7113951e-01 -5.8104079e-03 
2.0571496e-01 1.6992819e-01 -1.9511182e-02 
2.0529479e-01 1.6935696e-01 -2.3174539e-02 
2.0538561e-01 1.6970743e-01 -1.3343065e-02 
2.0500170e-01 1.6954267e-01 -1.5023238e-02 
2.0396683e-01 1.6927293e-01 8.4212795e-04 
2.0448926e-01 1.6943347e-01 -6.7711929e-03 
2.0412821e-01 1.6812962e-01 -2.4806613e-02 
2.0389019e-01 1.6880640e-01 -1.0792016e-02 
2.0335287e-01 1.6870102e-01 -1.0935665e-04 
2.0320305e-01 1.6802570e-01 -1.4430252e-02 
2.0202625e-01 1.6819403e-01 9.0864981e-03 
2.0436794e-01 1.6871604e-01 -1.6659861e-02 
2.0224595e-01 1.6779651e-01 1.7558619e-03 
2.0115641e-01 1.6709103e-01 6.3269441e-03 
2.0088616e-01 1.6644205e-01 -6.7504067e-03 
2.0007995e-01 1.6640310e-01 8.8977190e-03 
1.9927326e-01 1.6437000e-01 -2.4677761e-02 
1.9909672e-01 1.6447178e-01 -2.1457611e-02 
1.9864851e-01 1.6467547e-01 -6.4499960e-03 
1.9950442e-01 1.6502967e-01 -1.2817805e-02 
1.9839096e-01 1.6413195e-01 -1.7360946e-02 
1.9915102e-01 1.6484720e-01 -1.1166951e-02 
1.9813682e-01 1.6342647e-01 -1.9592589e-02 
1.9730903e-01 1.6433707e-01 9.8859631e-03 
1.9763550e-01 1.6371009e-01 -1.2724697e-02 
1.9721715e-01 1.6332343e-01 -9.9107726e-03 
1.9678250e-01 1.6346966e-01 -2.3063091e-03 
1.9621293e-01 1.6350073e-01 6.1031692e-03 
1.9641893e-01 1.6316393e-01 9.1356935e-04 
1.9548973e-01 1.6176490e-01 -1.2532292e-02 
1.9478332e-01 1.6186495e-01 4.1967654e-03 
1.9457434e-01 1.6109192e-01 -1.4244633e-02 
1.9366834e-01 1.6116799e-01 7.4360063e-03 
1.9336416e-01 1.6082114e-01 1.7691731e-03 
1.9410089e-01 1.6108662e-01 -6.1194804e-03 
1.9381216e-01 1.5983084e-01 -2.3974711e-02 
1.9338678e-01 1.6050461e-01 -5.0959117e-03 
1.9260845e-01 1.6045208e-01 9.4537232e-03 
1.9292518e-01 1.5945134e-01 -2.2547580e-02 
1.9236848e-01 1.5907876e-01 -1.7207218e-02 
1.9164181e-01 1.5991345e-01 8.9591416e-03 
1.9396299e-01 1.6042311e-01 -1.5530010e-02 
1.9187252e-01 1.5880792e-01 -1.9347763e-02 
1.9133767e-01 1.5888916e-01 -3.3539287e-03 
1.9114406e-01 1.5840368e-01 -1.5220841e-02 
1.9033796e-01 1.5856367e-01 2.2134047e-03 
1.9045471e-01 1.5802063e-01 -1.0631749e-02 
1.8974085e-01 1.5718892e-01 -1.1819836e-02 
1.8956973e-01 1.5748724e-01 -3.4140146e-03 
1.8920097e-01 1.5675144e-01 -1.4490135e-02 
1.8891340e-01 1.5672186e-01 -1.0780361e-02 
1.8898962e-01 1.5615569e-01 -2.3832748e-02 
1.8921562e-01 1.5683724e-01 -1.1809823e-02 
1.8781880e-01 1.5608953e-01 -3.9324281e-03 
1.8887360e-01 1.5665530e-01 -1.0278411e-02 
1.8807025e-01 1.5536793e-01 -1.9574327e-02 
1.8713036e-01 1.5615293e-01 9.6979784e-03 
1.8741983e-01 1.5601920e-01 5.6445496e-03 
1.8741830e-01 1.5509300e-01 -1.4606164e-02 
1.8649928e-01 1.5507770e-01 -2.3340925e-03 
1.8603477e-01 1.5535405e-01 6.3782884e-03 
1.8637113e-01 1.5535480e-01 8.3227670e-03 
1.8619719e-01 1.5490776e-01 1.6082588e-03 
1.8544306e-01 1.5356466e-01 -2.1047683e-02 
1.8527971e-01 1.5392762e-01 -8.6257998e-03 
1.8499902e-01 1.5379770e-01 -4.3821973e-03 
1.8503639e-01 1.5349892e-01 -1.1329150e-02 
1.8475606e-01 1.5322296e-01 -1.7283102e-02 
1.8393664e-01 1.5300016e-01 -5.4932982e-03 
1.8332022e-01 1.5225810e-01 -1.0586952e-02 
1.8358763e-01 1.5171456e-01 -2.3026986e-02 
1.8263969e-01 1.5172076e-01 -1.2145202e-02 
1.8163118e-01 1.5180814e-01 9.0098577e-03 
1.8225870e-01 1.5106890e-01 -1.6042253e-02 
1.8383744e-01 1.5237813e-01 -1.4405748e-02 
1.8128721e-01 1.5076169e-01 -5.5299271e-03 
1.8118909e-01 1.5093255e-01 3.1539698e-03 
1.8069488e-01 1.5034840e-01 -5.2111177e-03 
1.8021169e-01 1.5030959e-01 6.7610494e-03 
1.7914845e-01 1.4944181e-01 -8.2224462e-04 
1.7893572e-01 1.4818451e-01 -2.3037715e-02 
1.7922616e-01 1.4889222e-01 -1.0815596e-02 
1.7847565e-01 1.4809661e-01 -1.9091778e-02 
1.7889661e-01 1.4871107e-01 -9.3922429e-03 
1.7802691e-01 1.4737768e-01 -1.8639620e-02 
1.7765498e-01 1.4787048e-01 -6.4966814e-03 
1.7719425e-01 1.4814515e-01 9.5929671e-03 
1.7726944e-01 1.4733267e-01 -1.5035360e-02 
1.7612413e-01 1.4742532e-01 6.4227725e-03 
1.7504981e-01 1.4571369e-01 -6.9045550e-03 
1.7521176e-01 1.4582516e-01 -1.1136135e-02 
1.7508587e-01 1.4589962e-01 -5.4886369e-03 
1.7495203e-01 1.4546408e-01 -1.0467046e-02 
1.7444223e-01 1.4535801e-01 -4.9740891e-03 
1.7431912e-01 1.4485376e-01 -1.4135716e-02 
1.7409779e-01 1.4530310e-01 4.8879776e-03 
1.7406604e-01 1.4478934e-01 -1.1977387e-02 
1.7369865e-01 1.4387135e-01 -2.2198282e-02 
1.7318553e-01 1.4415312e-01 -1.1871411e-02 
1.7255753e-01 1.4442945e-01 3.3113009e-03 
1.7295380e-01 1.4417870e-01 -4.0009934e-03 
1.7199869e-01 1.4406344e-01 8.9026755e-03 
1.7400862e-01 1.4459780e-01 -1.3301614e-02 
1.7200565e-01 1.4384164e-01 8.1517510e-03 
1.7230077e-01 1.4309241e-01 -2.0578660e-02 
1.7148751e-01 1.4296107e-01 -5.1509002e-03 
1.7162153e-01 1.4275327e-01 -1.7135756e-02 
1.7092991e-01 1.4237553e-01 -1.3290083e-02 
1.7047578e-01 1.4215159e-01 -6.6728946e-03 
1.6987172e-01 1.4161263e-01 -1.0236847e-02 
1.6902211e-01 1.4051791e-01 -1.3566919e-02 
1.6913804e-01 1.4043486e-01 -2.2193339e-02 
1.6843027e-01 1.4068691e-01 -6.6735677e-04 
1.6952755e-01 1.4122856e-01 -9.8509919e-03 
1.6818428e-01 1.4043199e-01 -2.9144862e-03 
1.6921076e-01 1.4105046e-01 -8.5196877e-03 
1.6820584e-01 1.3961625e-01 -1.7762464e-02 
1.6761111e-01 1.4046930e-01 9.4417017e-03 
1.6712770e-01 1.3979588e-01 6.1041177e-03 
1.6651250e-01 1.3972522e-01 6.4083152e-03 
1.6709758e-01 1.3901605e-01 -1.5134045e-02 
1.6675317e-01 1.3937533e-01 2.4192787e-03 
1.6617066e-01 1.3920702e-01 8.5077779e-03 
1.6622247e-01 1.3880715e-01 -5.1020575e-03 
1.6580538e-01 1.3811138e-01 -1.4360365e-02 
1.6555049e-01 1.3784951e-01 -1.8762190e-02 
1.6532041e-01 1.3784012e-01 -9.6145663e-03 
1.6487892e-01 1.3747981e-01 -1.5253563e-02 
1.6472541e-01 1.3754351e-01 -8.6311754e-03 
1.6453093e-01 1.3756178e-01 -4.2045084e-03 
1.6419324e-01 1.3705149e-01 -1.1270611e-02 
1.6412422e-01 1.3630103e-01 -2.1213481e-02 
1.6289081e-01 1.3623188e-01 -2.1764296e-03 
1.6299780e-01 1.3606088e-01 -1.0304307e-02 
1.6240227e-01 1.3646582e-01 8.9123864e-03 
1.6448410e-01 1.3708661e-01 -1.2225070e-02 
1.6266140e-01 1.3591121e-01 -7.2213924e-03 
1.6199169e-01 1.3542542e-01 -4.7872146e-03 
1.6140778e-01 1.3503410e-01 -4.3147416e-03 
1.6118415e-01 1.3498418e-01 4.3998971e-03 
1.6054052e-01 1.3428406e-01 -5.8966256e-03 
1.6035064e-01 1.3448676e-01 7.1001998e-03 
1.6000763e-01 1.3422877e-01 2.8612561e-05 
1.5962322e-01 1.3307029e-01 -2.0012628e-02 
1.5969357e-01 1.3298710e-01 -2.1391427e-02 
1.6013065e-01 1.3381152e-01 -8.8944677e-03 
1.5879387e-01 1.3300872e-01 -1.3908524e-03 
1.5895306e-01 1.3272496e-01 -1.6890839e-02 
1.5982720e-01 1.3363846e-01 -7.6503525e-03 
1.5886246e-01 1.3224842e-01 -1.6886499e-02 
1.5820418e-01 1.3301146e-01 9.3174027e-03 
1.5828347e-01 1.3233504e-01 -1.3336959e-02 
1.5782690e-01 1.3228533e-01 -1.7074146e-03 
1.5721941e-01 1.3234654e-01 6.4608776e-03 
1.5761630e-01 1.3191880e-01 -9.4728731e-03 
1.5712565e-01 1.3136435e-01 -1.1765608e-02 
1.5708518e-01 1.3156813e-01 -4.8822081e-03 
1.5644658e-01 1.3096410e-01 -8.6303717e-03 
1.5588926e-01 1.3067810e-01 -2.2308545e-03 
1.5626085e-01 1.3102065e-01 -4.1509327e-03 
1.5444916e-01 1.2999947e-01 3.6512299e-03 
1.5463229e-01 1.2982596e-01 5.3739706e-03 
1.5512228e-01 1.2985785e-01 -8.4380843e-03 
1.5476790e-01 1.2895830e-01 -2.0412600e-02 
1.5404089e-01 1.2953091e-01 7.9001170e-03 
1.5430622e-01 1.2888651e-01 -1.6781926e-02 
1.5349574e-01 1.2865874e-01 -5.8550579e-03 
1.5324871e-01 1.2914741e-01 8.7054037e-03 
1.5525043e-01 1.2985024e-01 -1.1184542e-02 
1.5298420e-01 1.2839726e-01 -3.2156324e-03 
1.5315370e-01 1.2805858e-01 -1.8323550e-02 
1.5249695e-01 1.2769154e-01 -1.5085282e-02 
1.5227282e-01 1.2738380e-01 -1.0776169e-02 
1.5192367e-01 1.2755249e-01 -5.0535885e-04 
1.5186018e-01 1.2731633e-01 -1.1512756e-02 
1.5072607e-01 1.2647097e-01 -8.7261256e-03 
1.5057372e-01 1.2572435e-01 -1.6479019e-02 
1.5046977e-01 1.2572695e-01 -2.0564409e-02 
1.5004706e-01 1.2595145e-01 -7.0875064e-03 
1.5105858e-01 1.2670340e-01 -8.0312314e-03 
1.5076335e-01 1.2653580e-01 -6.8469797e-03 
1.4913623e-01 1.2580182e-01 9.1809351e-03 
1.4929436e-01 1.2540780e-01 -4.6633580e-03 
1.4912698e-01 1.2505247e-01 -1.1601677e-02 
1.4882962e-01 1.2514381e-01 -1.4856278e-03 
1.4871807e-01 1.2510185e-01 2.9469118e-03 
1.4829525e-01 1.2522031e-01 6.4258734e-03 
1.4805733e-01 1.2468286e-01 6.4444742e-03 
1.4812633e-01 1.2426331e-01 -8.9989407e-03 
1.4745815e-01 1.2350408e-01 -1.9292111e-02 
1.4771366e-01 1.2404562e-01 -7.7737174e-03 
1.4680655e-01 1.2314431e-01 -1.6581917e-02 
1.4619203e-01 1.2278777e-01 -1.3368397e-02 
1.4637090e-01 1.2328640e-01 -2.9675334e-03 
1.4553036e-01 1.2235738e-01 -9.7593982e-03 
1.4581718e-01 1.2191345e-01 -1.9538874e-02 
1.4512311e-01 1.2224547e-01 3.0710292e-04 
1.4433391e-01 1.2212531e-01 8.6443052e-03 
1.4631121e-01 1.2285781e-01 -1.0213739e-02 
1.4285506e-01 1.2017255e-01 -1.0217298e-02 
1.4255112e-01 1.2005075e-01 -5.4179612e-03 
1.4233015e-01 1.2001275e-01 4.3099970e-03 
1.4220837e-01 1.2018375e-01 7.1993365e-04 
1.4177857e-01 1.1976910e-01 7.2880825e-03 
1.4158425e-01 1.1932376e-01 -4.7725798e-03 
1.4145835e-01 1.1861535e-01 -1.4503187e-02 
1.4154910e-01 1.1877713e-01 -1.9816587e-02 
1.4222075e-01 1.1977619e-01 -7.1899774e-03 
1.4127719e-01 1.1872666e-01 -1.7787464e-02 
1.4193034e-01 1.1961091e-01 -6.0442598e-03 
1.4035375e-01 1.1883456e-01 8.8844253e-03 
1.4065188e-01 1.1840040e-01 -1.4910440e-02 
1.4001320e-01 1.1819775e-01 -1.2724798e-03 
1.4000621e-01 1.1799980e-01 -1.1600142e-02 
1.3956985e-01 1.1837208e-01 6.6350093e-03 
1.3833191e-01 1.1672291e-01 -7.2768508e-03 
1.3822263e-01 1.1646814e-01 -8.2635628e-03 
1.3788937e-01 1.1649703e-01 -7.8375917e-04 
1.3859545e-01 1.1714523e-01 -2.8884173e-03 
1.3847615e-01 1.1676633e-01 -7.1041062e-03 
1.3790411e-01 1.1603414e-01 -1.5172035e-02 
1.3712770e-01 1.1587697e-01 1.9722965e-03 
1.3644026e-01 1.1578324e-01 4.1035446e-03 
1.3699254e-01 1.1505648e-01 -1.8737592e-02 
1.3640179e-01 1.1536261e-01 5.7148528e-03 
1.3624565e-01 1.1507396e-01 -5.4471875e-03 
1.3576865e-01 1.1531730e-01 8.4934300e-03 
1.3761675e-01 1.1605348e-01 -9.2235915e-03 
1.3556683e-01 1.1491117e-01 7.9156738e-03 
1.3586101e-01 1.1441872e-01 -1.8599030e-02 
1.3529377e-01 1.1442250e-01 -3.6079504e-03 
1.3524325e-01 1.1408494e-01 -1.6248384e-02 
1.3461390e-01 1.1371616e-01 -1.3266980e-02 
1.3448653e-01 1.1368746e-01 -9.7484533e-03 
1.3305061e-01 1.1236881e-01 -1.2252475e-02 
1.3296463e-01 1.1206522e-01 -1.8943338e-02 
1.3372993e-01 1.1313532e-01 -6.3939914e-03 
1.3343506e-01 1.1297236e-01 -5.2743512e-03 
1.3198659e-01 1.1217558e-01 8.7411739e-03 
1.3229536e-01 1.1150359e-01 -1.4472816e-02 
1.3171050e-01 1.1124024e-01 -1.2520759e-02 
1.3172029e-01 1.1124116e-01 -9.5718857e-03 
1.3146058e-01 1.1123451e-01 -1.0116549e-02 
1.3114522e-01 1.1167666e-01 6.5994370e-03 
1.3108788e-01 1.1109427e-01 -2.8204564e-03 
1.3095333e-01 1.1092314e-01 -6.4816326e-03 
1.3060725e-01 1.1089460e-01 6.7305295e-03 
1.3032831e-01 1.1059069e-01 -1.0686852e-03 
1.3037467e-01 1.1056259e-01 3.7471310e-03 
1.2997647e-01 1.0988015e-01 -1.7263018e-02 
1.3015220e-01 1.1026051e-01 -6.4643156e-03 
1.2933019e-01 1.0954221e-01 -1.4658790e-02 
1.2942477e-01 1.0999602e-01 -1.8167273e-03 
1.2866078e-01 1.0911889e-01 -1.1275257e-02 
1.2864415e-01 1.0853536e-01 -1.7818455e-02 
1.2777425e-01 1.0848355e-01 -4.6212445e-03 
1.2747855e-01 1.0874027e-01 8.3021503e-03 
1.2923756e-01 1.0950113e-01 -8.2806787e-03 
1.2711534e-01 1.0796391e-01 -2.4059764e-03 
1.2627009e-01 1.0709041e-01 -1.0531686e-02 
1.2568717e-01 1.0672329e-01 -8.7686032e-03 
1.2546335e-01 1.0705876e-01 1.5196627e-03 
1.2527555e-01 1.0654388e-01 2.0193455e-03 
1.2522765e-01 1.0654878e-01 4.9814675e-03 
1.2444597e-01 1.0615175e-01 7.2795753e-03 
1.2549271e-01 1.0668184e-01 -5.6403270e-03 
1.2477279e-01 1.0562284e-01 -1.8191123e-02 
1.2520464e-01 1.0652205e-01 -4.5265416e-03 
1.2420986e-01 1.0545698e-01 -1.5780026e-02 
1.2375534e-01 1.0574283e-01 8.6026220e-03 
1.2412270e-01 1.0508402e-01 -1.2997989e-02 
1.2356140e-01 1.0507243e-01 -1.3140182e-02 
1.2323838e-01 1.0496229e-01 -2.4793453e-03 
1.2316038e-01 1.0539404e-01 6.6828253e-03 
1.2295236e-01 1.0467547e-01 -1.0069923e-02 
1.2228422e-01 1.0418443e-01 -9.3072397e-04 
1.2226731e-01 1.0414185e-01 -2.5616509e-03 
1.2199648e-01 1.0395334e-01 -4.2716176e-03 
1.2237255e-01 1.0417079e-01 -5.9323506e-03 
1.2207323e-01 1.0423759e-01 -1.6431515e-03 
1.2085488e-01 1.0307003e-01 -7.6067075e-03 
1.2040605e-01 1.0316856e-01 4.5403927e-03 
1.2016216e-01 1.0252253e-01 2.9103199e-03 
1.2052448e-01 1.0225417e-01 -1.7193135e-02 
1.2003872e-01 1.0234264e-01 -7.4480828e-03 
1.1961988e-01 1.0217605e-01 -6.9192448e-04 
1.1958268e-01 1.0256393e-01 8.2349526e-03 
1.2114614e-01 1.0317758e-01 -7.3692659e-03 
1.1900759e-01 1.0179131e-01 6.0795336e-03 
1.1918829e-01 1.0146679e-01 -1.6700000e-02 
1.1839454e-01 1.0114208e-01 -3.1816750e-03 
1.1855903e-01 1.0111304e-01 -1.4339235e-02 
1.1832933e-01 1.0092139e-01 -8.5031381e-03 
1.1820340e-01 1.0100032e-01 -1.4580043e-03 
1.1796254e-01 1.0074238e-01 -1.1639724e-02 
1.1734850e-01 1.0031765e-01 -8.5854186e-03 
1.1702566e-01 9.9918067e-02 -9.8223947e-03 
1.1749739e-01 1.0047674e-01 -4.8516435e-03 
1.1673590e-01 9.9448219e-02 -1.7565776e-02 
1.1721875e-01 1.0032299e-01 -3.7445936e-03 
1.1591477e-01 9.9515028e-02 8.3469059e-03 
1.1626881e-01 9.8987676e-02 -1.3127303e-02 
1.1546053e-01 9.8850496e-02 -4.4805356e-03 
1.1572281e-01 9.8741837e-02 -8.2618687e-03 
1.1522619e-01 9.9200644e-02 6.7930436e-03 
1.1463445e-01 9.8152325e-02 -6.7515559e-03 
1.1453926e-01 9.8201863e-02 4.1930671e-03 
1.1389678e-01 9.7781152e-02 6.7273588e-03 
1.1417250e-01 9.7814091e-02 -5.1194183e-03 
1.1365472e-01 9.7224265e-02 -1.5329366e-02 
1.1327910e-01 9.7148955e-02 -1.8753543e-03 
1.1307998e-01 9.6880741e-02 -1.2918361e-02 
1.1347806e-01 9.7579136e-02 -6.2269636e-04 
1.1248670e-01 9.6498825e-02 -1.0111486e-02 
1.1229207e-01 9.6392259e-02 -1.3560570e-03 
1.1278535e-01 9.6236333e-02 -1.6473515e-02 
1.1221535e-01 9.6076585e-02 -1.1537700e-02 
1.1182161e-01 9.6467279e-02 8.2176263e-03 
1.1332999e-01 9.7116381e-02 -6.4565092e-03 
1.1136287e-01 9.5638193e-02 -4.9298760e-03 
1.1133348e-01 9.5634356e-02 -7.8340266e-03 
1.1106128e-01 9.5298767e-02 -5.2023106e-03 
1.0970414e-01 9.4352573e-02 1.8391890e-03 
1.0969777e-01 9.4297267e-02 -7.5074276e-03 
1.0987578e-01 9.4889924e-02 2.2745086e-03 
1.0906798e-01 9.3937047e-02 5.6324350e-03 
1.0986592e-01 9.4528966e-02 -4.1370331e-03 
1.0909686e-01 9.3528360e-02 -1.6795227e-02 
1.0891745e-01 9.3486466e-02 -1.6046626e-02 
1.0959543e-01 9.4384037e-02 -3.0232079e-03 
1.0836492e-01 9.3406931e-02 2.4631398e-03 
1.0834394e-01 9.3590014e-02 8.0527486e-03 
1.0857448e-01 9.2977487e-02 -1.1850365e-02 
1.0834091e-01 9.3186267e-02 -1.3976116e-02 
1.0785083e-01 9.2894591e-02 -1.8448957e-03 
1.0780863e-01 9.3368083e-02 6.8298015e-03 
1.0772695e-01 9.2801064e-02 -1.1515674e-02 
1.0714002e-01 9.2361771e-02 -8.6816009e-03 
1.0686284e-01 9.2019938e-02 -9.6352892e-03 
1.0700173e-01 9.2191420e-02 -4.6833931e-03 
1.0675190e-01 9.2293642e-02 -4.7951302e-04 
1.0610265e-01 9.1351114e-02 -8.5347900e-03 
1.0577813e-01 9.1276892e-02 -5.0645522e-03 
1.0527444e-01 9.1435403e-02 5.0801449e-03 
1.0526687e-01 9.0372145e-02 -1.5713103e-02 
1.0446882e-01 9.0294071e-02 -4.3996060e-03 
1.0445050e-01 9.0243153e-02 3.3897960e-03 
1.0442403e-01 9.0594098e-02 8.1314547e-03 
1.0585249e-01 9.1321059e-02 -5.6109112e-03 
1.0387687e-01 8.9734055e-02 -4.6707448e-03 
1.0371722e-01 8.9530490e-02 -1.4806422e-02 
1.0351887e-01 8.9616947e-02 6.3967546e-03 
1.0336243e-01 8.9382015e-02 -2.2182693e-03 
1.0312382e-01 8.9159235e-02 -1.2649567e-02 
1.0258327e-01 8.8801332e-02 -1.0154706e-02 
1.0177022e-01 8.8083081e-02 -8.5720019e-03 
1.0253321e-01 8.8843256e-02 -3.4913113e-03 
1.0174663e-01 8.7834328e-02 -1.6123442e-02 
1.0121832e-01 8.7791368e-02 -7.8212805e-03 
1.0226797e-01 8.8706940e-02 -2.3461769e-03 
1.0127021e-01 8.7618828e-02 -1.0000665e-02 
1.0109460e-01 8.7864436e-02 7.8201583e-03 
1.0135211e-01 8.7391183e-02 -1.1949811e-02 
1.0073727e-01 8.7411851e-02 -2.6745070e-04 
1.0047896e-01 8.7174825e-02 -4.4794572e-03 
1.0044592e-01 8.7613493e-02 6.8882620e-03 
1.0065623e-01 8.7123647e-02 -8.8956561e-03 
1.0084672e-01 8.7141901e-02 -7.0979516e-03 
9.9881060e-02 8.6637422e-02 8.1835606e-04 
9.9388860e-02 8.6266287e-02 4.4944156e-03 
9.9246286e-02 8.5992903e-02 -1.5382391e-02 
9.9417344e-02 8.6329512e-02 -3.9598709e-03 
9.8767377e-02 8.5942850e-02 6.7078928e-03 
9.8677039e-02 8.5670695e-02 -1.3551352e-02 
9.8790795e-02 8.6146265e-02 4.5606392e-04 
9.8095112e-02 8.5287616e-02 -1.1376291e-02 
9.8068759e-02 8.4866121e-02 -1.4992898e-02 
9.7534202e-02 8.4887825e-02 -8.7972591e-03 
9.7348690e-02 8.5043699e-02 7.8125419e-03 
9.7297952e-02 8.4660240e-02 -7.3574571e-04 
9.8644100e-02 8.5740745e-02 -4.8297402e-03 
9.6919574e-02 8.4401533e-02 -1.6719096e-03 
9.6432075e-02 8.4094651e-02 -6.3032837e-04 
9.5954649e-02 8.3508007e-02 -9.3592722e-03 
9.5460266e-02 8.3648749e-02 2.9438410e-03 
9.5016494e-02 8.2889028e-02 -5.3279796e-03 
9.4904184e-02 8.2748696e-02 2.6059255e-03 
9.4617657e-02 8.2603738e-02 -4.3285899e-03 
9.5428564e-02 8.3318047e-02 -2.8927380e-03 
9.4411395e-02 8.2411349e-02 -4.0937043e-03 
9.4723530e-02 8.2357168e-02 -1.5540253e-02 
9.4435789e-02 8.2442395e-02 5.3612455e-03 
9.5174052e-02 8.3188221e-02 -1.7067475e-03 
9.4325170e-02 8.2238413e-02 -1.4335404e-02 
9.4243951e-02 8.2502194e-02 7.6863151e-03 
9.4468005e-02 8.1988387e-02 -1.0515591e-02 
9.3830675e-02 8.2050912e-02 6.3085022e-06 
9.3744330e-02 8.1880651e-02 -1.2371148e-02 
9.3766056e-02 8.1808157e-02 -5.4434896e-03 
9.3590602e-02 8.2185127e-02 6.7242794e-03 
9.3182720e-02 8.1493057e-02 -1.0113041e-02 
9.3178570e-02 8.1526764e-02 2.7497890e-03 
9.2665195e-02 8.1110291e-02 -7.5821504e-03 
9.2445955e-02 8.0826767e-02 -8.4310099e-03 
9.2874192e-02 8.1202373e-02 -3.5673904e-03 
9.2522956e-02 8.0731139e-02 -1.0286392e-02 
9.2542648e-02 8.1262536e-02 5.9632037e-04 
9.1332518e-02 8.0438085e-02 5.2982629e-03 
9.1268562e-02 7.9572029e-02 -1.4221630e-02 
9.0829372e-02 7.9588145e-02 -4.0626936e-03 
9.0521425e-02 7.9359531e-02 -2.1186443e-04 
9.0675935e-02 7.9804845e-02 7.6378686e-03 
9.1733634e-02 8.0370568e-02 -4.0513379e-03 
9.0354644e-02 7.9248175e-02 -1.2120763e-03 
9.0520844e-02 7.9247035e-02 -1.1808543e-02 
9.0123005e-02 7.9006724e-02 3.7647437e-03 
9.0248294e-02 7.9207793e-02 -1.3069955e-03 
8.9623369e-02 7.8691036e-02 -8.0211321e-03 
8.9546539e-02 7.8557655e-02 -1.3138718e-02 
8.9544095e-02 7.8657664e-02 6.1651808e-03 
8.8676453e-02 7.8097023e-02 -2.2804830e-03 
8.7976485e-02 7.7162281e-02 -1.4827291e-02 
8.7556578e-02 7.7112675e-02 -7.6518748e-03 
8.8429138e-02 7.7979483e-02 -1.0692067e-03 
8.7604351e-02 7.7330068e-02 7.4603572e-03 
8.7675825e-02 7.6736599e-02 -1.0618698e-02 
8.7091051e-02 7.7123806e-02 6.7974925e-03 
8.7324604e-02 7.6686352e-02 -5.9454180e-03 
8.6959131e-02 7.6560915e-02 -7.2647342e-03 
8.6468406e-02 7.6246187e-02 -1.1420318e-02 
8.6142249e-02 7.5890280e-02 1.9719426e-03 
8.5808046e-02 7.5729318e-02 -4.1891099e-03 
8.5872330e-02 7.5810552e-02 1.1017532e-03 
8.5674524e-02 7.5562954e-02 4.8498707e-03 
8.6022787e-02 7.5954989e-02 -2.7805159e-03 
8.5197203e-02 7.5228088e-02 -3.0893504e-03 
8.5267030e-02 7.5347483e-02 6.3404148e-03 
8.5159458e-02 7.5063020e-02 -1.4194068e-02 
8.5330479e-02 7.5727828e-02 1.3912423e-03 
8.4539190e-02 7.4781440e-02 -9.3531962e-03 
8.4759071e-02 7.4439041e-02 -1.3693832e-02 
8.4174864e-02 7.4805841e-02 7.5924760e-03 
8.4090814e-02 7.4359149e-02 8.0333202e-04 
8.5157506e-02 7.5292096e-02 -3.3166392e-03 
8.3456144e-02 7.3885888e-02 -1.2650403e-02 
8.3440170e-02 7.3759764e-02 -5.4265643e-03 
8.2668021e-02 7.3343493e-02 -7.1211075e-03 
8.2928412e-02 7.3407717e-02 -8.9361751e-03 
8.2392506e-02 7.3529623e-02 3.5453674e-03 
8.1966214e-02 7.2730206e-02 -5.3209430e-03 
8.1772193e-02 7.2503611e-02 1.2846295e-04 
8.1840068e-02 7.2582364e-02 5.3332653e-03 
8.1722282e-02 7.2446197e-02 3.1229977e-03 
8.1579417e-02 7.2485417e-02 -1.0850566e-02 
8.2312427e-02 7.3148102e-02 -1.7553754e-03 
8.1504732e-02 7.2314046e-02 -3.9858450e-03 
8.1636265e-02 7.2241478e-02 -1.4148334e-02 
8.2060412e-02 7.3037200e-02 -4.8996508e-04 
8.1260629e-02 7.2322741e-02 7.1022101e-03 
8.1063233e-02 7.2061144e-02 3.3109554e-03 
8.1320457e-02 7.1731374e-02 -1.0177978e-02 
8.0550462e-02 7.1518898e-02 -1.3528116e-02 
8.0438405e-02 7.1368113e-02 -5.7210196e-03 
8.0086783e-02 7.1237214e-02 -2.7546498e-03 
8.0319487e-02 7.1849503e-02 7.0090760e-03 
8.0023780e-02 7.1242981e-02 -3.5967823e-04 
7.9701424e-02 7.1067162e-02 -8.8077141e-03 
7.9771027e-02 7.1042925e-02 -2.5014256e-03 
7.9031907e-02 7.0433877e-02 -6.7001763e-03 
7.8849874e-02 7.0285276e-02 -2.1476590e-04 
7.8739755e-02 7.0207603e-02 -1.2016272e-02 
7.8679815e-02 7.0025094e-02 -9.5425947e-03 
7.8634501e-02 6.9869459e-02 -1.0761023e-02 
7.7902578e-02 6.9585808e-02 -4.0972368e-03 
7.8584403e-02 6.9677182e-02 -1.2947793e-02 
7.8237854e-02 7.0008405e-02 1.2632166e-03 
7.8146324e-02 7.0011713e-02 7.3366603e-03 
7.8930192e-02 7.0457354e-02 -2.6258822e-03 
7.7768832e-02 6.9459401e-02 5.9591578e-03 
7.7533543e-02 6.9153167e-02 1.2882201e-03 
7.7608928e-02 6.9241583e-02 4.1816812e-03 
7.7285253e-02 6.9069214e-02 -4.9416129e-03 
7.7504255e-02 6.9322430e-02 3.5756486e-05 
7.7363826e-02 6.9585294e-02 5.4333126e-03 
7.6903030e-02 6.8878829e-02 -1.0175454e-02 
7.7418856e-02 6.9541506e-02 1.5356124e-03 
7.6221116e-02 6.8206802e-02 -7.8020063e-03 
7.5916439e-02 6.8035647e-02 -1.0089572e-04 
7.5915299e-02 6.7923069e-02 -1.2872165e-02 
7.6241679e-02 6.8437606e-02 -1.2740707e-03 
7.5326346e-02 6.7514107e-02 -2.3600028e-03 
7.5098589e-02 6.7495130e-02 -8.2140472e-03 
7.5555719e-02 6.7552291e-02 -1.3404947e-02 
7.5999819e-02 6.8335719e-02 5.5740642e-05 
7.5270899e-02 6.7623220e-02 6.8142414e-03 
7.5531453e-02 6.7523330e-02 -4.5249611e-03 
7.4853934e-02 6.7142956e-02 -6.2817289e-04 
7.4866645e-02 6.7556098e-02 6.7762518e-03 
7.4064523e-02 6.6452250e-02 -3.5282297e-04 
7.4156918e-02 6.6659190e-02 -1.1388885e-02 
7.4075267e-02 6.6397451e-02 2.4473267e-03 
7.4107066e-02 6.6544555e-02 4.8362506e-03 
7.4203469e-02 6.6535212e-02 -6.7335726e-03 
7.3467344e-02 6.6157959e-02 -1.8861871e-03 
7.2779506e-02 6.5571859e-02 -4.5270841e-03 
7.3339522e-02 6.5640390e-02 -9.1785276e-03 
7.2416872e-02 6.5366156e-02 -9.6385991e-03 
7.2369687e-02 6.5252423e-02 5.0818391e-05 
7.2619602e-02 6.5104507e-02 -1.2378134e-02 
7.2212107e-02 6.5368667e-02 7.1286783e-03 
7.2992228e-02 6.5850325e-02 -2.0134964e-03 
7.2041996e-02 6.4867735e-02 -3.8970893e-03 
7.1790457e-02 6.4786136e-02 -7.3965243e-03 
7.1572609e-02 6.4656198e-02 -1.2433652e-03 
7.1556695e-02 6.4545870e-02 -1.2296884e-02 
7.0901923e-02 6.4120211e-02 -3.9854944e-03 
7.0705302e-02 6.4033195e-02 -7.6857978e-03 
7.0242047e-02 6.3430205e-02 3.5858918e-03 
7.0114173e-02 6.3496873e-02 -5.8976696e-03 
7.0314504e-02 6.3608669e-02 5.5257138e-03 
7.0002444e-02 6.3264593e-02 6.1274355e-04 
7.0405625e-02 6.3861839e-02 -8.6389662e-04 
6.9808438e-02 6.3308485e-02 -1.0734407e-02 
6.9741994e-02 6.3581534e-02 5.3514107e-03 
7.0170566e-02 6.3778706e-02 5.3880643e-04 
6.9878720e-02 6.3124590e-02 -1.2847681e-02 
6.9656491e-02 6.3210070e-02 6.5155281e-03 
6.9558233e-02 6.3483253e-02 4.3916730e-03 
6.9446161e-02 6.3373044e-02 2.9385886e-03 
6.8885908e-02 6.2474109e-02 -1.4453167e-04 
6.8464175e-02 6.2195916e-02 -4.2074830e-03 
6.8161331e-02 6.2039156e-02 -9.0968674e-03 
6.8528011e-02 6.1956044e-02 -5.8451104e-03 
6.8392068e-02 6.1748281e-02 -1.0610227e-02 
6.8111755e-02 6.1769404e-02 -3.8552633e-03 
6.7812316e-02 6.1992265e-02 6.6103209e-03 
6.7726284e-02 6.1556678e-02 -6.9245561e-03 
6.7278422e-02 6.1259009e-02 -1.1677953e-02 
6.7310147e-02 6.1264805e-02 -2.2314976e-03 
6.7226678e-02 6.0856231e-02 -7.9935184e-03 
6.6855527e-02 6.0918353e-02 2.6888414e-03 
6.6470042e-02 6.0745396e-02 -7.1703373e-03 
6.6773638e-02 6.0734503e-02 4.7970363e-03 
6.7353308e-02 6.1440606e-02 -1.4341400e-03 
6.6556156e-02 6.0765732e-02 2.9123730e-03 
6.6256575e-02 6.0323775e-02 2.0923202e-03 
6.6098481e-02 6.0318723e-02 -4.7481316e-03 
6.6558711e-02 6.0791235e-02 -1.0373081e-03 
6.6248871e-02 6.0317490e-02 -5.0156782e-03 
6.6045925e-02 6.0206480e-02 -3.8740244e-03 
6.5649003e-02 6.0069531e-02 -1.0217980e-02 
6.5318510e-02 5.9703201e-02 -7.2146002e-03 
6.4654440e-02 5.9238613e-02 -3.8855127e-03 
6.4710125e-02 5.9328970e-02 5.5887853e-04 
6.4355910e-02 5.8956876e-02 -3.8824191e-03 
6.4529188e-02 5.8953337e-02 -1.2277724e-02 
6.4036891e-02 5.8839139e-02 -8.5575590e-03 
6.4432114e-02 5.9022527e-02 6.1527942e-03 
6.3670218e-02 5.8408272e-02 -1.7468513e-03 
6.3616559e-02 5.8628973e-02 6.8047284e-03 
6.3536927e-02 5.8664192e-02 6.3678306e-03 
6.3412316e-02 5.8699191e-02 5.8279764e-03 
6.3340403e-02 5.8652446e-02 5.1485226e-03 
6.3472115e-02 5.8573432e-02 1.5914683e-03 
6.3259266e-02 5.8131754e-02 -1.1076727e-02 
6.3339517e-02 5.8017392e-02 -8.6792661e-03 
6.3103847e-02 5.7922207e-02 -1.8010479e-03 
6.2908337e-02 5.7685543e-02 2.4526985e-04 
6.3076809e-02 5.7781123e-02 3.2994812e-03 
6.3314520e-02 5.7792343e-02 -1.0897718e-02 
6.3250124e-02 5.7761628e-02 -8.7369187e-03 
6.3214585e-02 5.7735763e-02 -6.4195548e-03 
6.2845945e-02 5.8262605e-02 4.2339722e-03 
6.2490556e-02 5.7634618e-02 -6.6703726e-03 
6.2838264e-02 5.7688888e-02 -7.6035671e-03 
6.3031085e-02 5.7674233e-02 -4.6572750e-03 
6.2307004e-02 5.7391752e-02 -7.1324976e-03 
6.2332544e-02 5.7790004e-02 3.2141518e-03 
6.2443472e-02 5.7364143e-02 -2.7120872e-03 
6.1835043e-02 5.6924794e-02 -1.1796249e-02 
6.1777085e-02 5.6856230e-02 -2.3739715e-03 
6.1859120e-02 5.6996040e-02 -1.2961790e-03 
6.1898246e-02 5.7166029e-02 -9.3577622e-04 
6.1307158e-02 5.6686956e-02 -3.2493335e-04 
6.0636207e-02 5.5892862e-02 -5.7065655e-03 
6.0407739e-02 5.5917129e-02 1.3580187e-03 
5.9950273e-02 5.5638168e-02 9.4006257e-04 
5.9124198e-02 5.4852482e-02 -3.7849892e-03 
5.9161685e-02 5.5008277e-02 -7.2669103e-03 
5.9319645e-02 5.4849077e-02 1.6309626e-03 
5.9271388e-02 5.5071488e-02 -9.2467498e-03 
5.9391268e-02 5.4976132e-02 4.1601849e-03 
5.9384067e-02 5.5061262e-02 -1.0892818e-02 
5.9452057e-02 5.4991569e-02 -1.1677848e-02 
5.9348218e-02 5.5022441e-02 5.9379423e-03 
5.9453201e-02 5.4874949e-02 -1.1045919e-02 
5.9214864e-02 5.5017959e-02 6.5388787e-03 
5.9385058e-02 5.4688096e-02 -9.5652817e-03 
5.9062909e-02 5.5064011e-02 6.4903237e-03 
5.9123091e-02 5.4506309e-02 -7.1226233e-03 
5.8745708e-02 5.4960255e-02 6.0940869e-03 
5.8836978e-02 5.4380968e-02 -5.1411176e-03 
5.8447450e-02 5.4725435e-02 5.5047008e-03 
5.8058698e-02 5.4001339e-02 -4.4221175e-03 
5.8490139e-02 5.4173902e-02 -3.3229254e-03 
5.8133509e-02 5.4550767e-02 4.8883972e-03 
5.8157932e-02 5.3972118e-02 -5.8148666e-03 
5.8101851e-02 5.3957887e-02 -1.6929740e-03 
5.7780668e-02 5.4277930e-02 3.9600083e-03 
5.7655748e-02 5.3736780e-02 -4.9494504e-04 
5.7442199e-02 5.3913638e-02 2.9349222e-03 
5.7204027e-02 5.3332131e-02 -7.0485207e-03 
5.7184376e-02 5.3411637e-02 1.0559993e-03 
5.7225976e-02 5.3503927e-02 1.2147061e-04 
5.7147507e-02 5.3555392e-02 1.5371179e-03 
5.7051141e-02 5.3318102e-02 -3.8170477e-04 
5.6687426e-02 5.2801419e-02 -4.6299277e-03 
5.6519970e-02 5.2761812e-02 -1.0983597e-02 
5.6412112e-02 5.2655265e-02 9.3105715e-04 
5.6241211e-02 5.2511517e-02 -2.3150705e-03 
5.5685680e-02 5.2275140e-02 -6.3801305e-03 
5.5775080e-02 5.2341443e-02 -8.1066312e-03 
5.5882525e-02 5.2150276e-02 2.8828967e-03 
5.5875611e-02 5.2372500e-02 -9.7892433e-03 
5.5704780e-02 5.1989034e-02 1.8956936e-04 
5.5928051e-02 5.2194770e-02 4.7841985e-03 
5.5677764e-02 5.2322492e-02 1.6982798e-03 
5.5380605e-02 5.1895961e-02 -5.3494391e-03 
5.5681348e-02 5.1847640e-02 -1.0061947e-02 
5.4937609e-02 5.1548690e-02 -3.9103054e-03 
5.5412769e-02 5.1569942e-02 -7.9568215e-03 
5.4965377e-02 5.1237047e-02 -5.7414835e-03 
5.4755323e-02 5.1273208e-02 -1.1219596e-02 
5.4646574e-02 5.1328186e-02 5.5574551e-03 
5.4580465e-02 5.1528111e-02 6.1551724e-03 
5.4526370e-02 5.1022775e-02 -3.9600977e-03 
5.3816415e-02 5.0672390e-02 -3.6937732e-03 
5.4388303e-02 5.0938580e-02 -2.2203950e-03 
5.4194946e-02 5.1323134e-02 5.8942949e-03 
5.3761296e-02 5.0601821e-02 -2.8184815e-03 
5.4101974e-02 5.0877549e-02 -8.1590645e-04 
5.3840548e-02 5.0789520e-02 1.4144862e-04 
5.3639799e-02 5.0959699e-02 5.3464086e-03 
5.3616595e-02 5.0611768e-02 6.3497550e-03 
5.3452320e-02 5.0849445e-02 4.6181339e-03 
5.3296726e-02 5.0681584e-02 3.7228612e-03 
5.3171732e-02 5.0174102e-02 -1.0237990e-02 
5.2730735e-02 4.9917445e-02 -8.9218793e-03 
5.2587137e-02 4.9824044e-02 -7.4436329e-03 
5.2716170e-02 4.9601935e-02 1.5817675e-03 
5.2874770e-02 4.9723983e-02 3.7018156e-03 
5.2704334e-02 4.9686719e-02 -8.0771919e-04 
5.2640155e-02 4.9648955e-02 -7.7734343e-03 
5.2007437e-02 4.9341749e-02 -5.8600535e-03 
5.2558415e-02 4.9470037e-02 -7.4565238e-03 
5.2399687e-02 4.9685102e-02 1.5608236e-04 
5.1825363e-02 4.9080588e-02 -6.0604401e-03 
5.1634092e-02 4.8945416e-02 -5.0312518e-03 
5.1448427e-02 4.8771556e-02 -3.7573329e-03 
5.1720276e-02 4.9308926e-02 2.2864044e-03 
5.1790670e-02 4.9016312e-02 -8.0341072e-04 
5.1771287e-02 4.8861694e-02 -3.3108883e-03 
5.1448729e-02 4.8886381e-02 1.3331039e-03 
5.1300939e-02 4.8324220e-02 -8.7728007e-03 
5.0904818e-02 4.8262171e-02 -2.5170397e-03 
5.0879695e-02 4.8263736e-02 -1.2282172e-03 
5.0838634e-02 4.7908936e-02 -6.5733306e-03 
5.0394882e-02 4.7929414e-02 1.2216904e-03 
5.0404396e-02 4.7829732e-02 -1.0675153e-02 
5.0378963e-02 4.7854297e-02 5.4052807e-03 
4.9868438e-02 4.7616787e-02 -9.2919264e-03 
4.9719505e-02 4.7539540e-02 -7.9895249e-03 
5.0002292e-02 4.7650509e-02 -1.0289834e-02 
5.0325990e-02 4.7594305e-02 -4.5225057e-03 
4.9579836e-02 4.7413267e-02 -6.4403629e-03 
4.9652562e-02 4.7180664e-02 -2.2698010e-05 
4.9876746e-02 4.7270220e-02 2.5996012e-03 
4.9973618e-02 4.7433954e-02 4.3058177e-03 
5.0028838e-02 4.7772471e-02 6.2264032e-03 
4.9968928e-02 4.7432635e-02 -2.6626401e-03 
4.9848001e-02 4.7563810e-02 4.4408125e-06 
4.9486589e-02 4.7504816e-02 6.0271821e-03 
4.8722349e-02 4.6619494e-02 -3.6528304e-03 
4.8753798e-02 4.6522655e-02 -1.7681593e-04 
4.8862554e-02 4.7095571e-02 5.6345183e-03 
4.8607230e-02 4.6400037e-02 8.1278413e-04 
4.8482109e-02 4.6847966e-02 4.4146646e-03 
4.8494764e-02 4.6809547e-02 3.4325803e-03 
4.8475675e-02 4.6796326e-02 5.0095045e-03 
4.8342638e-02 4.6303213e-02 6.0477052e-03 
4.8252527e-02 4.6243701e-02 1.4458477e-03 
4.7941577e-02 4.5998465e-02 -5.9483498e-03 
4.8384771e-02 4.6069000e-02 -9.5628798e-03 
4.7706332e-02 4.5784742e-02 -3.6443009e-03 
4.8318811e-02 4.6425384e-02 5.3705933e-04 
4.8012719e-02 4.5975912e-02 -7.1776202e-03 
4.7447748e-02 4.5507669e-02 1.7321181e-03 
4.6995360e-02 4.5359779e-02 -8.4463889e-03 
4.6864290e-02 4.5257982e-02 -7.0803612e-03 
4.6940017e-02 4.4949017e-02 1.2951444e-03 
4.7111787e-02 4.5073468e-02 3.2879142e-03 
4.6993859e-02 4.5293722e-02 -9.6250782e-03 
4.6566077e-02 4.4988081e-02 -5.6944229e-03 
4.6620604e-02 4.4781286e-02 -1.0011881e-03 
4.6931904e-02 4.5026608e-02 -3.4723338e-03 
4.6692479e-02 4.4893079e-02 -2.2850127e-03 
4.6932947e-02 4.5012176e-02 -2.3137925e-03 
4.6593595e-02 4.5188736e-02 2.4802997e-03 
4.6583686e-02 4.5031589e-02 7.7124801e-04 
4.6471760e-02 4.4781391e-02 -6.7692134e-04 
4.6321206e-02 4.4581287e-02 -1.0168157e-02 
4.6269581e-02 4.4456027e-02 5.0533507e-03 
4.6309285e-02 4.4316452e-02 -7.5575938e-03 
4.5821846e-02 4.4158433e-02 -1.3338262e-03 
4.6031728e-02 4.4559345e-02 6.0284915e-03 
4.5162641e-02 4.3768212e-02 -4.2411829e-03 
4.5306507e-02 4.3866068e-02 -6.5491288e-03 
4.5241099e-02 4.3916903e-02 2.9667297e-03 
4.5288492e-02 4.3496966e-02 -4.1235844e-03 
4.4442244e-02 4.3302745e-02 -8.7638218e-03 
4.4603802e-02 4.3312375e-02 -9.6363435e-03 
4.4289716e-02 4.3215413e-02 -7.6045259e-03 
4.4137739e-02 4.3077242e-02 -6.1602988e-03 
4.4657476e-02 4.3719538e-02 3.8400281e-03 
4.4179395e-02 4.2754624e-02 -1.8955347e-04 
4.4391256e-02 4.2867552e-02 2.2366175e-03 
4.4504177e-02 4.2939823e-02 3.9223665e-03 
4.3813687e-02 4.2671733e-02 -3.5137383e-03 
4.4318933e-02 4.2999744e-02 -6.2355874e-03 
4.4211667e-02 4.2821899e-02 1.0112331e-03 
4.4415314e-02 4.2881582e-02 -9.1586495e-03 
4.4277150e-02 4.2963348e-02 5.6762444e-03 
4.4449475e-02 4.3295171e-02 8.9232798e-04 
4.3950465e-02 4.3051179e-02 5.6938645e-03 
4.3474630e-02 4.2409755e-02 -5.3960802e-03 
4.3185450e-02 4.2054698e-02 -1.9150383e-03 
4.3496117e-02 4.2355489e-02 6.7551143e-04 
4.2817499e-02 4.2194776e-02 5.1546060e-03 
4.2877451e-02 4.2026106e-02 9.7877206e-04 
4.2811014e-02 4.1904625e-02 5.8977492e-03 
4.2691626e-02 4.2027839e-02 2.6370827e-03 
4.2490397e-02 4.1514162e-02 -9.7292885e-03 
4.2477474e-02 4.1351676e-02 4.7444357e-03 
4.2296581e-02 4.1333947e-02 -4.4705854e-03 
4.2323999e-02 4.1372195e-02 1.4168733e-03 
4.2131018e-02 4.1230284e-02 -4.6083154e-03 
4.2499050e-02 4.1203465e-02 -6.7197527e-03 
4.1979522e-02 4.1262057e-02 -8.9629143e-03 
4.1838452e-02 4.1197449e-02 -8.0099571e-03 
4.1681852e-02 4.1105855e-02 -6.7939460e-03 
4.1548863e-02 4.0950734e-02 -5.3500850e-03 
4.1836865e-02 4.0942878e-02 -1.4935826e-03 
4.1755475e-02 4.0720560e-02 1.0581720e-03 
4.1583911e-02 4.0673040e-02 -1.0597443e-03 
4.1946169e-02 4.0825978e-02 3.0205625e-03 
4.2037752e-02 4.1156758e-02 -8.2263059e-04 
4.0874660e-02 4.0259868e-02 -3.5092742e-03 
4.0931262e-02 4.0350307e-02 -4.7541112e-03 
4.1006751e-02 4.0344127e-02 -7.5523369e-03 
4.1071415e-02 4.0797580e-02 4.0055132e-03 
4.0855557e-02 4.0205333e-02 6.1672821e-04 
4.0753059e-02 3.9915033e-02 -8.7289615e-03 
4.0670652e-02 4.0017709e-02 5.4490385e-03 
4.0893890e-02 4.0400151e-02 1.1890038e-03 
4.0448014e-02 3.9677646e-02 -3.7067961e-03 
3.9975464e-02 3.9369624e-02 1.7405375e-03 
3.9799847e-02 3.9294202e-02 -3.3378727e-03 
3.9839469e-02 3.9134178e-02 3.5957107e-03 
3.9464317e-02 3.9272763e-02 -8.3023235e-03 
3.9323106e-02 3.9177526e-02 -7.2297249e-03 
3.9612517e-02 3.9322075e-02 -9.0903277e-03 
3.9185822e-02 3.9041933e-02 -5.9361765e-03 
3.9088842e-02 3.8821325e-02 -3.4134830e-03 
3.9179474e-02 3.8682796e-02 -3.4794057e-04 
3.9424259e-02 3.8766034e-02 1.9956699e-03 
3.9007884e-02 3.8562536e-02 -3.3289270e-04 
3.9440949e-02 3.9189927e-02 1.1509261e-03 
3.9095782e-02 3.8712010e-02 -6.2484653e-03 
3.9073918e-02 3.8653813e-02 -1.5011615e-03 
3.9253157e-02 3.9193384e-02 2.8758144e-03 
3.8687788e-02 3.8501933e-02 -6.0693570e-03 
3.8923126e-02 3.8456481e-02 4.4809482e-03 
3.8923874e-02 3.8650300e-02 -9.2202816e-03 
3.8913824e-02 3.8477644e-02 -4.3578506e-03 
3.9054286e-02 3.8390752e-02 -6.4179460e-03 
3.8839824e-02 3.8644880e-02 5.8251321e-03 
3.8460851e-02 3.8277283e-02 -6.5555451e-03 
3.8127385e-02 3.7838988e-02 2.9296265e-05 
3.7835196e-02 3.7812524e-02 -4.6829414e-03 
3.7719902e-02 3.7687827e-02 -3.5164189e-03 
3.8150962e-02 3.7939973e-02 -2.5905404e-04 
3.7504233e-02 3.7414066e-02 -2.6551413e-03 
3.7492152e-02 3.7197266e-02 2.7182361e-03 
3.7640605e-02 3.7940353e-02 5.1315241e-03 
3.7716839e-02 3.7979312e-02 4.2011454e-03 
3.7106592e-02 3.7351940e-02 -7.5905723e-03 
3.7248325e-02 3.7436727e-02 -8.5011851e-03 
3.6972228e-02 3.7238669e-02 -6.4665577e-03 
3.6834132e-02 3.7093777e-02 -5.1265969e-03 
3.6932625e-02 3.6882192e-02 -1.0962430e-03 
3.7298903e-02 3.7396193e-02 -8.9625791e-03 
3.7018161e-02 3.6841057e-02 8.5586467e-04 
3.7337318e-02 3.7176404e-02 -8.3086919e-03 
3.7250929e-02 3.7180740e-02 5.2870652e-03 
3.7526004e-02 3.7646752e-02 1.4478340e-03 
3.7046608e-02 3.7007507e-02 -1.1678606e-03 
3.6881447e-02 3.6913060e-02 1.2920726e-03 
3.6369689e-02 3.6425773e-02 -8.7244611e-04 
3.6474526e-02 3.6680393e-02 -6.4137890e-03 
3.6170732e-02 3.6313727e-02 -1.9754933e-03 
3.6575943e-02 3.6768969e-02 2.9144918e-03 
3.6237251e-02 3.6342602e-02 -5.2079540e-03 
3.5582099e-02 3.5955157e-02 -4.0924209e-03 
3.6146488e-02 3.6474019e-02 1.2752890e-03 
3.5961084e-02 3.6480229e-02 3.0713605e-03 
3.5618063e-02 3.5705164e-02 4.2420472e-03 
3.5603043e-02 3.5931487e-02 -8.8399770e-03 
3.5492953e-02 3.5872020e-02 5.6828535e-03 
3.5357971e-02 3.5620920e-02 1.2932718e-03 
3.4952000e-02 3.5186637e-02 -2.3605501e-04 
3.5609886e-02 3.5683069e-02 -6.3806814e-03 
3.5117924e-02 3.5229594e-02 1.8539167e-03 
3.5006631e-02 3.5601918e-02 -7.8720897e-03 
3.5120696e-02 3.5337005e-02 1.4516738e-03 
3.4858353e-02 3.5517402e-02 -6.9048633e-03 
3.5136446e-02 3.5637125e-02 -8.5957292e-03 
3.4701463e-02 3.5365362e-02 -5.6804325e-03 
3.4597963e-02 3.5129245e-02 -3.3087051e-03 
3.4631722e-02 3.5011258e-02 -1.2214052e-03 
3.4962814e-02 3.5138689e-02 -3.1262387e-03 
3.4697928e-02 3.5364583e-02 5.7328260e-03 
3.4812335e-02 3.5274368e-02 -1.5104837e-04 
3.4197316e-02 3.4822706e-02 -5.0366241e-03 
3.4510404e-02 3.5363551e-02 4.3414175e-03 
3.3839028e-02 3.4500990e-02 -5.8675520e-03 
3.4349393e-02 3.5019550e-02 1.6994340e-03 
3.4037810e-02 3.4492899e-02 5.0042146e-03 
3.4151603e-02 3.4553371e-02 -7.9612480e-03 
3.3396218e-02 3.4120683e-02 -3.4814517e-03 
3.2911401e-02 3.3445273e-02 7.6041603e-04 
3.3056535e-02 3.3524357e-02 2.5101276e-03 
3.2814473e-02 3.3793673e-02 -7.2414507e-03 
3.2681882e-02 3.3687171e-02 -6.1906613e-03 
3.2689437e-02 3.3350781e-02 -1.0742208e-03 
3.2568149e-02 3.3554491e-02 -4.9373689e-03 
3.2848477e-02 3.3776540e-02 -8.1065204e-03 
3.3051569e-02 3.3883158e-02 1.3881254e-03 
3.2886013e-02 3.3898544e-02 3.2404042e-03 
3.2455157e-02 3.3189274e-02 3.9613267e-04 
3.2527890e-02 3.3112135e-02 4.0270290e-03 
3.2492410e-02 3.3349987e-02 -8.5160928e-03 
3.2004945e-02 3.2853033e-02 -1.9490470e-03 
3.2437582e-02 3.3207551e-02 -4.3717101e-03 
3.2674447e-02 3.3184439e-02 -5.9025483e-03 
3.2495838e-02 3.3327714e-02 5.5417079e-03 
3.2317493e-02 3.3238579e-02 2.8478545e-03 
3.1658296e-02 3.2486092e-02 1.0982171e-04 
3.1882633e-02 3.2729976e-02 9.0101594e-04 
3.1427450e-02 3.2479018e-02 -4.0154355e-03 
3.1504810e-02 3.2571428e-02 -4.9533071e-03 
3.1909321e-02 3.2709781e-02 -3.5227512e-04 
3.1503376e-02 3.2753088e-02 4.4519790e-03 
3.1070139e-02 3.1851184e-02 1.6457929e-03 
3.1212315e-02 3.1953346e-02 3.1108966e-03 
3.0791629e-02 3.1706732e-02 -3.5636386e-04 
3.0907325e-02 3.2196403e-02 -7.4752937e-03 
3.0754471e-02 3.2090329e-02 -6.5679178e-03 
3.0626442e-02 3.1948216e-02 -5.4589398e-03 
3.0991053e-02 3.2184049e-02 -8.1527615e-03 
3.1206002e-02 3.2517526e-02 5.2620699e-03 
3.1389691e-02 3.2510169e-02 1.9096130e-03 
3.1101778e-02 3.1981830e-02 4.8472974e-03 
3.1179648e-02 3.2069162e-02 -7.6586683e-03 
3.0326204e-02 3.1546161e-02 -3.2139071e-03 
3.0466834e-02 3.1567391e-02 -2.8272793e-03 
3.0242184e-02 3.1493206e-02 -5.5481573e-03 
2.9867023e-02 3.0941978e-02 8.1700535e-04 
3.0084234e-02 3.1156849e-02 -1.7177266e-03 
2.9560257e-02 3.0934997e-02 -4.4539543e-03 
2.9872313e-02 3.1044932e-02 -4.6965005e-03 
2.9445551e-02 3.0799329e-02 -3.4518421e-03 
3.0178621e-02 3.1425688e-02 1.5031648e-03 
3.0022131e-02 3.1454690e-02 3.3744811e-03 
2.9697431e-02 3.0698996e-02 3.7487966e-03 
2.9639201e-02 3.0951111e-02 -8.1759701e-03 
2.9581152e-02 3.0759005e-02 -3.1973948e-04 
2.9430974e-02 3.0611163e-02 1.4240497e-03 
2.9675566e-02 3.0737909e-02 -5.9529687e-03 
2.9046906e-02 3.0131992e-02 6.9885416e-04 
2.8935600e-02 3.0531079e-02 -6.8791909e-03 
2.9063141e-02 3.0599808e-02 -7.6236189e-03 
2.8816286e-02 3.0432824e-02 -5.9122238e-03 
2.8695190e-02 3.0284567e-02 -4.7513261e-03 
2.9397955e-02 3.0627571e-02 5.3322143e-03 
2.8933702e-02 3.0219276e-02 -1.3137120e-03 
2.9101769e-02 3.0153630e-02 2.4929685e-03 
2.8682305e-02 2.9958621e-02 -1.0880854e-03 
2.9279349e-02 3.0351320e-02 -2.8759078e-03 
2.9113244e-02 3.0357189e-02 8.0034424e-06 
2.8750725e-02 3.0451406e-02 4.5653027e-03 
2.8399395e-02 2.9886747e-02 -6.5675643e-03 
2.8618084e-02 3.0159820e-02 2.0694467e-03 
2.8351843e-02 2.9608274e-02 4.6016728e-03 
2.8397186e-02 2.9708270e-02 -7.3092822e-03 
2.8255906e-02 2.9720129e-02 3.4619088e-03 
2.7690917e-02 2.9303649e-02 -3.9251661e-03 
2.7829457e-02 2.9427085e-02 -5.2582556e-03 
2.7540125e-02 2.9101167e-02 -2.4729720e-03 
2.8156083e-02 2.9753644e-02 5.6055104e-03 
2.7811613e-02 2.9303875e-02 -3.5614304e-03 
2.7976153e-02 2.9423853e-02 2.0352236e-03 
2.7644172e-02 2.9046249e-02 1.4181918e-04 
2.7363271e-02 2.8664554e-02 1.4827906e-03 
2.7195590e-02 2.9023690e-02 -7.0639728e-03 
2.7084764e-02 2.8944593e-02 -6.2695118e-03 
2.6961159e-02 2.8810795e-02 -5.2268798e-03 
2.7070867e-02 2.8543297e-02 -3.5030130e-04 
2.7321883e-02 2.9070495e-02 -7.7033988e-03 
2.7346687e-02 2.8868297e-02 -2.2504793e-03 
2.7103215e-02 2.8617349e-02 -8.6661277e-04 
2.7316518e-02 2.8876582e-02 -5.6110630e-03 
2.7478928e-02 2.9136751e-02 1.5738251e-03 
2.7323844e-02 2.9180415e-02 3.4896380e-03 
2.6999114e-02 2.8372439e-02 3.5364570e-03 
2.6972551e-02 2.8658055e-02 -7.7877408e-03 
2.6296385e-02 2.8105158e-02 -3.1113185e-03 
2.7026895e-02 2.8597154e-02 5.2255820e-03 
2.7065424e-02 2.8440328e-02 -5.4524462e-03 
2.6802314e-02 2.8305899e-02 1.4180270e-03 
2.6561275e-02 2.8192801e-02 -1.6636135e-03 
2.6556317e-02 2.8294805e-02 -5.8304928e-03 
2.6699375e-02 2.8246557e-02 -1.2376636e-03 
2.6004037e-02 2.7877919e-02 -4.3342062e-03 
2.5918907e-02 2.7763212e-02 -3.3998073e-03 
2.6215950e-02 2.7894797e-02 -2.6343620e-04 
2.6145352e-02 2.8222259e-02 4.6238904e-03 
2.5984963e-02 2.7624486e-02 -2.3950355e-03 
2.5739323e-02 2.7260773e-02 2.1353948e-03 
2.5550423e-02 2.7302761e-02 -1.4161834e-03 
2.5438219e-02 2.7532134e-02 -6.5408209e-03 
2.5582535e-02 2.7604414e-02 -7.2178175e-03 
2.5325900e-02 2.7425468e-02 -5.6554643e-03 
2.5705319e-02 2.7630568e-02 -7.5833006e-03 
2.5520338e-02 2.7098063e-02 6.3004089e-04 
2.5216401e-02 2.7287520e-02 -4.5499434e-03 
2.6008261e-02 2.7934983e-02 2.2174774e-03 
2.5813827e-02 2.7539110e-02 2.0372726e-03 
2.5784303e-02 2.7385406e-02 4.3916041e-03 
2.5672821e-02 2.7481388e-02 -6.2666787e-03 
2.5817400e-02 2.7466008e-02 -6.9790278e-03 
2.5625473e-02 2.7393449e-02 -3.5723662e-03 
2.5810668e-02 2.7875518e-02 5.3864284e-03 
2.5002504e-02 2.6783058e-02 -1.0737815e-03 
2.4934901e-02 2.6955515e-02 -5.0033657e-03 
2.4646789e-02 2.6520792e-02 -1.6204616e-03 
2.4929447e-02 2.6699902e-02 6.0551561e-04 
2.4947986e-02 2.6939228e-02 1.6173482e-03 
2.4798164e-02 2.6986627e-02 3.5775194e-03 
2.4245810e-02 2.6328059e-02 -3.7228663e-03 
2.4536561e-02 2.6200790e-02 3.3020324e-03 
2.4532255e-02 2.6535064e-02 -7.3975413e-03 
2.4316784e-02 2.6354192e-02 -5.2671046e-03 
2.4067113e-02 2.6040237e-02 -2.0947137e-03 
2.4446150e-02 2.6189284e-02 -5.5446858e-03 
2.4334680e-02 2.6182545e-02 4.9689892e-03 
2.3992851e-02 2.5749318e-02 1.3749297e-03 
2.3902172e-02 2.6161646e-02 -6.7345784e-03 
2.3750909e-02 2.6069205e-02 -5.9794467e-03 
2.4030924e-02 2.6199432e-02 -7.2803120e-03 
2.3743447e-02 2.5624841e-02 -3.3046244e-04 
2.3452008e-02 2.5767455e-02 -4.9386215e-03 
2.3584312e-02 2.5435839e-02 1.6617354e-03 
2.3298049e-02 2.5518136e-02 -4.5665400e-03 
2.3674592e-02 2.6046336e-02 4.6719001e-03 
2.3787206e-02 2.5787771e-02 1.9141419e-04 
2.3210188e-02 2.5239786e-02 -1.1503589e-03 
2.3572719e-02 2.5799403e-02 2.3447152e-03 
2.3385203e-02 2.5439087e-02 -4.8081418e-03 
2.3413092e-02 2.5260793e-02 4.2023542e-03 
2.3461252e-02 2.5446704e-02 -6.6877888e-03 
2.2845270e-02 2.5088301e-02 -3.3316766e-03 
2.3289269e-02 2.5309246e-02 -6.9643289e-04 
2.3356257e-02 2.5296969e-02 -2.5739269e-03 
2.3299478e-02 2.5277272e-02 -3.2739725e-03 
2.3311082e-02 2.5389777e-02 3.5349892e-03 
2.2966299e-02 2.5032233e-02 -9.6447143e-04 
2.3255512e-02 2.5461635e-02 5.4666633e-03 
2.3309601e-02 2.5147522e-02 -2.7930117e-03 
2.2515051e-02 2.4782130e-02 -2.9726508e-03 
2.3172187e-02 2.5264820e-02 4.4053688e-04 
2.3049371e-02 2.5078302e-02 2.0899668e-03 
2.2687379e-02 2.4918618e-02 -4.8761484e-03 
2.2776296e-02 2.4932826e-02 1.2449938e-03 
2.2669794e-02 2.4779513e-02 -8.2224031e-04 
2.2534352e-02 2.4430163e-02 1.9786940e-03 
2.2277175e-02 2.4745179e-02 -6.2169842e-03 
2.2409488e-02 2.4824299e-02 -6.8240752e-03 
2.2152370e-02 2.4620531e-02 -5.3897710e-03 
2.2332961e-02 2.4317767e-02 5.3059688e-04 
2.2484664e-02 2.4503957e-02 1.6588679e-03 
2.2594122e-02 2.4854109e-02 1.6714695e-03 
2.1851851e-02 2.4315977e-02 -4.5050811e-03 
2.2453949e-02 2.4918232e-02 3.6228965e-03 
2.2581670e-02 2.4537276e-02 -5.2308021e-03 
2.2247400e-02 2.4173014e-02 3.0518165e-03 
2.2219852e-02 2.4504593e-02 -7.0896694e-03 
2.2284606e-02 2.4381118e-02 4.8447908e-03 
2.1742126e-02 2.4121935e-02 -4.1522798e-03 
2.1627665e-02 2.3804164e-02 -1.0891347e-03 
2.1812504e-02 2.3881476e-02 9.3395880e-04 
2.1130105e-02 2.3548840e-02 -3.1787248e-03 
2.1072153e-02 2.3340654e-02 -1.3828313e-03 
2.1482432e-02 2.3895836e-02 2.5355204e-03 
2.1438966e-02 2.3627212e-02 -1.5231528e-04 
2.1339385e-02 2.3801854e-02 2.4443092e-03 
2.1163784e-02 2.3189873e-02 2.4874876e-03 
2.1044666e-02 2.3412487e-02 -4.1404120e-03 
2.0885479e-02 2.3484606e-02 -6.3691335e-03 
2.0779235e-02 2.3400286e-02 -5.6878305e-03 
2.1021280e-02 2.3526983e-02 -6.8393154e-03 
2.0631686e-02 2.3177046e-02 -3.9254967e-03 
2.0674253e-02 2.3293005e-02 -4.8175477e-03 
2.1204049e-02 2.3843199e-02 4.5096460e-03 
2.0966530e-02 2.3059007e-02 1.2056730e-03 
2.1223431e-02 2.3321889e-02 3.9358702e-03 
2.1254545e-02 2.3465583e-02 -6.3546211e-03 
2.0754574e-02 2.2949139e-02 -3.5718043e-04 
2.0797770e-02 2.3074728e-02 -5.7414448e-04 
2.0685650e-02 2.3168569e-02 -5.1802699e-03 
2.0921784e-02 2.3115480e-02 -2.1392570e-03 
2.0813402e-02 2.3103314e-02 2.0390309e-03 
2.0290934e-02 2.2820642e-02 -3.7421975e-03 
2.0623783e-02 2.2988325e-02 3.0923202e-03 
2.0460557e-02 2.3125477e-02 5.2685854e-03 
2.0329695e-02 2.2705171e-02 -4.0527405e-03 
2.0469517e-02 2.2924077e-02 1.7131392e-03 
2.0235019e-02 2.2471402e-02 9.3887252e-04 
2.0312537e-02 2.2998491e-02 3.6705958e-03 
2.0147257e-02 2.2274232e-02 2.8503730e-03 
2.0128323e-02 2.2606565e-02 -6.8071121e-03 
2.0250693e-02 2.2402352e-02 -4.6903552e-03 
1.9974586e-02 2.2266718e-02 4.5934478e-03 
1.9466477e-02 2.2185957e-02 -5.9029926e-03 
1.9583225e-02 2.2258759e-02 -6.4433962e-03 
1.9347645e-02 2.2089800e-02 -5.1336940e-03 
1.9685918e-02 2.1851564e-02 1.7916687e-03 
1.9253494e-02 2.1956710e-02 -4.2275465e-03 
1.9728376e-02 2.2024522e-02 1.6914557e-03 
1.9837739e-02 2.2262253e-02 9.6785265e-04 
1.9466842e-02 2.1915277e-02 -1.7222486e-03 
1.9484077e-02 2.1723783e-02 4.6419440e-04 
1.9027051e-02 2.1634119e-02 -2.9052056e-03 
1.8975664e-02 2.1390278e-02 -8.4339391e-04 
1.9384395e-02 2.2187324e-02 4.6502100e-03 
1.9475253e-02 2.1908036e-02 3.3382486e-04 
1.8926401e-02 2.1545004e-02 -3.2938174e-03 
1.8971136e-02 2.1613833e-02 -4.0122555e-03 
1.9079538e-02 2.1442233e-02 -2.4541141e-04 
1.9281222e-02 2.1938637e-02 2.5325525e-03 
1.9046502e-02 2.1623887e-02 -5.5047721e-03 
1.8995641e-02 2.1423299e-02 -6.0036354e-04 
1.9215021e-02 2.1472801e-02 3.6870206e-03 
1.9217690e-02 2.1600598e-02 -6.0819220e-03 
1.9112106e-02 2.1591993e-02 3.4899183e-03 
1.9097365e-02 2.1487374e-02 -2.7419454e-03 
1.8700674e-02 2.1144757e-02 -9.0795540e-04 
1.9070191e-02 2.1639504e-02 5.0971014e-03 
1.9128148e-02 2.1384267e-02 -2.5715644e-03 
1.8725188e-02 2.1351390e-02 -4.5931637e-03 
1.8879529e-02 2.1335980e-02 -2.0562010e-03 
1.8911829e-02 2.1319045e-02 2.0834957e-03 
1.8789107e-02 2.1096349e-02 1.5011494e-03 
1.8738305e-02 2.1244995e-02 -3.1472780e-03 
1.8427668e-02 2.0720942e-02 1.0735098e-03 
1.8658694e-02 2.1040041e-02 -2.0802619e-03 
1.8362051e-02 2.1078210e-02 -6.4609153e-03 
1.8222665e-02 2.1032417e-02 -6.0329875e-03 
1.8106572e-02 2.0944774e-02 -5.3908885e-03 
1.8019035e-02 2.0841563e-02 -4.5911511e-03 
1.8442295e-02 2.0945778e-02 1.1901978e-04 
1.8481372e-02 2.1113554e-02 1.7664967e-03 
1.8061392e-02 2.0483010e-02 -3.4793350e-04 
1.8320626e-02 2.0853344e-02 -4.6915882e-03 
1.8342381e-02 2.1193502e-02 3.7040922e-03 
1.8514745e-02 2.0844065e-02 -4.7669946e-03 
1.8261330e-02 2.0999633e-02 3.4260093e-03 
1.7732402e-02 2.0524915e-02 -3.8228529e-03 
1.8210597e-02 2.0492518e-02 2.5994054e-03 
1.8191380e-02 2.0815212e-02 -6.4676125e-03 
1.7737271e-02 2.0300386e-02 -1.5997589e-03 
1.8103294e-02 2.0554535e-02 1.0516454e-03 
1.8269710e-02 2.0706050e-02 4.4810823e-03 
1.8099017e-02 2.0785971e-02 2.2954391e-03 
1.7747009e-02 2.0471659e-02 -4.2310338e-03 
1.7554905e-02 2.0276759e-02 -3.0947099e-03 
1.7806595e-02 2.0455642e-02 -4.9496619e-03 
1.7464556e-02 2.0061385e-02 -1.7357208e-03 
1.7457552e-02 2.0100880e-02 -2.4535463e-03 
1.7525258e-02 2.0007370e-02 -2.1525260e-04 
1.7643778e-02 2.0276606e-02 1.7867128e-03 
1.7367242e-02 1.9702239e-02 1.7128575e-03 
1.7242812e-02 1.9878257e-02 -2.8949853e-03 
1.7402384e-02 2.0201931e-02 2.6040142e-03 
1.7482756e-02 1.9978499e-02 7.3448937e-05 
1.7315477e-02 2.0241084e-02 4.4470094e-03 
1.7346505e-02 1.9719603e-02 3.5219043e-03 
1.7169349e-02 1.9628670e-02 7.6667033e-04 
1.7044323e-02 1.9458050e-02 4.8057234e-04 
1.7366344e-02 1.9890809e-02 -5.7453057e-03 
1.6934318e-02 1.9836465e-02 -5.5786232e-03 
1.6776724e-02 1.9648721e-02 -4.1601476e-03 
1.7045600e-02 1.9888956e-02 -6.0933623e-03 
1.6833389e-02 1.9737713e-02 -4.8958487e-03 
1.7171061e-02 1.9926198e-02 -6.3222824e-03 
1.7157895e-02 1.9877074e-02 2.2979940e-03 
1.6720045e-02 1.9299515e-02 -1.0367292e-03 
1.6969550e-02 1.9578539e-02 -3.0125056e-03 
1.7006729e-02 1.9566776e-02 2.1324218e-03 
1.6975267e-02 1.9509906e-02 -1.5437206e-03 
1.6663475e-02 1.9243736e-02 -7.0823694e-04 
1.6417872e-02 1.9034483e-02 -1.2854408e-03 
1.6704371e-02 1.9620391e-02 5.0302432e-03 
1.6688464e-02 1.9411337e-02 1.7779717e-03 
1.6208079e-02 1.9005518e-02 -3.1930530e-03 
1.6500143e-02 1.9223774e-02 -4.8320764e-03 
1.6557524e-02 1.9501382e-02 3.6913354e-03 
1.6275620e-02 1.9064283e-02 -4.4725207e-03 
1.6178731e-02 1.9012960e-02 -4.1376585e-03 
1.6421231e-02 1.8798124e-02 2.3816598e-03 
1.6408898e-02 1.9130537e-02 -6.1820745e-03 
1.6532743e-02 1.8953077e-02 -4.2800908e-03 
1.5806429e-02 1.8610721e-02 -2.7384309e-03 
1.6254239e-02 1.8768055e-02 1.3258923e-03 
1.6270697e-02 1.8839633e-02 -3.2019818e-03 
1.6288428e-02 1.8806780e-02 4.1960250e-03 
1.6029254e-02 1.8462164e-02 1.1416166e-03 
1.6154503e-02 1.8812882e-02 -4.4856770e-03 
1.5992789e-02 1.8845193e-02 -6.0950820e-03 
1.5835874e-02 1.8777506e-02 -5.6856065e-03 
1.5719792e-02 1.8697631e-02 -5.1238723e-03 
1.5634283e-02 1.8588956e-02 -4.3626828e-03 
1.5934419e-02 1.8520406e-02 -6.4226205e-04 
1.5854429e-02 1.8573927e-02 -2.3569630e-03 
1.5748182e-02 1.8276041e-02 -1.5010782e-04 
1.5795873e-02 1.8794324e-02 4.5424416e-03 
1.5816195e-02 1.8454434e-02 4.9654685e-04 
1.5684767e-02 1.8559830e-02 2.6350114e-03 
1.5529176e-02 1.8240035e-02 -3.0764437e-03 
1.5661197e-02 1.8101133e-02 3.2850006e-03 
1.5661353e-02 1.8260237e-02 -5.4529025e-03 
1.5565373e-02 1.8234365e-02 6.2966731e-04 
1.5550632e-02 1.8225439e-02 3.4112975e-03 
1.5528253e-02 1.8280709e-02 4.8519340e-03 
1.5471051e-02 1.8041683e-02 -1.0216844e-03 
1.5320008e-02 1.8095177e-02 -5.0572730e-03 
1.4987238e-02 1.7740723e-02 -2.1041457e-03 
1.5380274e-02 1.7960001e-02 2.0354760e-03 
1.5043596e-02 1.7905725e-02 -3.7919432e-03 
1.4993452e-02 1.7828867e-02 -3.1433946e-03 
1.5017706e-02 1.7677348e-02 -1.1213529e-03 
1.5356917e-02 1.7865151e-02 -1.7015092e-03 
1.4950692e-02 1.7796559e-02 -4.0866337e-03 
1.5075056e-02 1.7933168e-02 2.4960393e-03 
1.4758737e-02 1.7514531e-02 -2.1717707e-03 
1.4995907e-02 1.7639235e-02 5.4140290e-04 
1.4802360e-02 1.7311947e-02 5.5125798e-04 
1.4686136e-02 1.7675761e-02 -5.2869865e-03 
1.5024101e-02 1.7808845e-02 1.7783350e-03 
1.4592255e-02 1.7593665e-02 -4.6543861e-03 
1.4514903e-02 1.7476268e-02 -3.8689827e-03 
1.4894846e-02 1.7918725e-02 3.6629925e-03 
1.4750868e-02 1.7678415e-02 -5.7769115e-03 
1.4521856e-02 1.7145241e-02 -8.1344612e-04 
1.5022756e-02 1.7533522e-02 -4.2109075e-03 
1.4778535e-02 1.7236864e-02 2.2171570e-03 
1.4772300e-02 1.7556502e-02 -5.8678053e-03 
1.4598290e-02 1.7187269e-02 4.8138874e-04 
1.4859575e-02 1.7427495e-02 4.0962440e-03 
1.4590706e-02 1.7244473e-02 -2.1765210e-05 
1.4150097e-02 1.7051743e-02 -3.1944069e-03 
1.4383028e-02 1.7122842e-02 -2.3760174e-03 
1.4121905e-02 1.6887005e-02 -1.8620765e-03 
1.4083251e-02 1.6941633e-02 -2.7913139e-03 
1.3995494e-02 1.6751714e-02 -1.8353197e-03 
1.4017406e-02 1.6888628e-02 -3.2981138e-03 
1.4447439e-02 1.7073682e-02 2.8821110e-04 
1.4028114e-02 1.6912486e-02 -3.9558690e-03 
1.4127038e-02 1.6970094e-02 -4.5025856e-03 
1.4128736e-02 1.6914891e-02 2.3554952e-03 
1.4108868e-02 1.7026952e-02 2.6490588e-03 
1.4054191e-02 1.7093008e-02 4.3340577e-03 
1.4066619e-02 1.6717819e-02 -1.2841320e-03 
1.3899550e-02 1.6394189e-02 1.1398403e-03 
1.4068683e-02 1.6552208e-02 3.1297135e-03 
1.4112403e-02 1.6744586e-02 -5.1849815e-03 
1.3932209e-02 1.6625157e-02 -2.9249671e-03 
1.3485365e-02 1.6446386e-02 -3.5784971e-03 
1.3720039e-02 1.6695710e-02 -5.3761993e-03 
1.3613545e-02 1.6631987e-02 -4.8538838e-03 
1.3513707e-02 1.6525285e-02 -4.1695377e-03 
1.3952457e-02 1.6865361e-02 3.7266407e-03 
1.3636309e-02 1.6205456e-02 -2.1916561e-05 
1.3699329e-02 1.6584899e-02 -5.6866156e-03 
1.3360256e-02 1.6085956e-02 -1.4627838e-03 
1.3792315e-02 1.6435914e-02 2.1701201e-03 
1.3479822e-02 1.6214356e-02 -1.7883056e-03 
1.3232965e-02 1.6098371e-02 -2.8826648e-03 
1.3362380e-02 1.5988402e-02 -3.9167900e-04 
1.3562334e-02 1.6521638e-02 4.8151165e-03 
1.3374471e-02 1.6137384e-02 -2.5131758e-03 
1.3522109e-02 1.6310345e-02 1.7562985e-03 
1.3513975e-02 1.6348870e-02 2.3664699e-03 
1.3402531e-02 1.6420016e-02 3.6236597e-03 
1.2880459e-02 1.5754420e-02 -2.6035302e-03 
1.3260273e-02 1.5737295e-02 2.0256185e-03 
1.3290576e-02 1.6065292e-02 -5.6124884e-03 
1.3066213e-02 1.5947537e-02 -4.0769684e-03 
1.3387852e-02 1.5905505e-02 -3.8856340e-03 
1.3135033e-02 1.5718717e-02 1.2713295e-03 
1.3041675e-02 1.5873479e-02 -4.3843975e-03 
1.2783336e-02 1.5536546e-02 -1.6932661e-03 
1.3185077e-02 1.5758475e-02 3.8108716e-03 
1.2688711e-02 1.5694657e-02 -5.0087585e-03 
1.2798335e-02 1.5741490e-02 -5.3884606e-03 
1.2584903e-02 1.5597417e-02 -4.4237543e-03 
1.2797372e-02 1.5327758e-02 5.9300842e-04 
1.2513967e-02 1.5488199e-02 -3.6877946e-03 
1.2539486e-02 1.5180399e-02 -6.2339776e-04 
1.2721459e-02 1.5582133e-02 -5.5284631e-03 
1.2772957e-02 1.5812993e-02 4.3550739e-03 
1.2715714e-02 1.5436745e-02 -3.8810356e-03 
1.2835457e-02 1.5472336e-02 5.3301983e-04 
1.2677883e-02 1.5583948e-02 2.6350883e-03 
1.2336573e-02 1.5225908e-02 -3.5868979e-03 
1.2468659e-02 1.5057225e-02 4.7939183e-04 
1.2626149e-02 1.5110067e-02 2.9127230e-03 
1.2679512e-02 1.5291868e-02 -4.9464777e-03 
1.2299788e-02 1.4962715e-02 -7.9503376e-04 
1.2558234e-02 1.5293582e-02 4.5518228e-03 
1.2479011e-02 1.5160424e-02 8.1545138e-04 
1.2312891e-02 1.4997358e-02 -4.4628078e-04 
1.1993690e-02 1.4853008e-02 -2.8011242e-03 
1.2357751e-02 1.5160238e-02 2.5930912e-03 
1.2445360e-02 1.4958098e-02 -1.5984797e-03 
1.2254425e-02 1.4876722e-02 2.1174129e-03 
1.2145821e-02 1.4828934e-02 1.5456527e-03 
1.1962378e-02 1.4650006e-02 -1.0012945e-03 
1.2134817e-02 1.4898577e-02 1.7189250e-03 
1.1989945e-02 1.4470114e-02 1.1455151e-03 
1.1865278e-02 1.4619965e-02 -1.8672070e-03 
1.2018484e-02 1.5007504e-02 3.5719979e-03 
1.1622492e-02 1.4553904e-02 -3.3402015e-03 
1.2128179e-02 1.4703992e-02 -1.3510756e-03 
1.1819971e-02 1.4775486e-02 -5.0765187e-03 
1.1727017e-02 1.4709288e-02 -4.6061780e-03 
1.1932094e-02 1.4805482e-02 -5.3552827e-03 
1.1650870e-02 1.4622106e-02 -3.9659683e-03 
1.1770749e-02 1.4322687e-02 6.9707567e-05 
1.2170396e-02 1.4653154e-02 -3.8247912e-03 
1.1894094e-02 1.4342966e-02 1.8420439e-03 
1.1897023e-02 1.4663917e-02 -5.3219190e-03 
1.1828115e-02 1.4423802e-02 1.0198810e-03 
1.1968173e-02 1.4531367e-02 3.7109309e-03 
1.1521685e-02 1.4202563e-02 -1.1905585e-03 
1.1900011e-02 1.4531113e-02 -2.8228455e-03 
1.1858283e-02 1.4674203e-02 2.4098584e-03 
1.1575182e-02 1.4142605e-02 2.5583451e-04 
1.1539647e-02 1.4365199e-02 -4.0456783e-03 
1.1213046e-02 1.3988650e-02 -2.0997410e-03 
1.1307099e-02 1.3982049e-02 -1.1746916e-03 
1.1640589e-02 1.4230817e-02 2.9375555e-04 
1.1190175e-02 1.4039354e-02 -3.4891726e-03 
1.1350011e-02 1.4228591e-02 2.6049067e-03 
1.1317370e-02 1.4309590e-02 4.1622915e-03 
1.1311282e-02 1.3755045e-02 2.7213530e-03 
1.1196822e-02 1.3878109e-02 -2.7127333e-03 
1.1340700e-02 1.3945622e-02 -4.7101043e-03 
1.0921116e-02 1.3856889e-02 -4.7265603e-03 
1.1015715e-02 1.3898992e-02 -5.0661955e-03 
1.0833837e-02 1.3780916e-02 -4.1890028e-03 
1.1110946e-02 1.3916115e-02 -5.2335826e-03 
1.0762356e-02 1.3674906e-02 -3.5299396e-03 
1.1016250e-02 1.3499064e-02 6.5149937e-04 
1.0802777e-02 1.3369095e-02 -4.5304550e-04 
1.0978904e-02 1.3725871e-02 3.2732834e-03 
1.0999469e-02 1.3625125e-02 2.7997587e-03 
1.0632500e-02 1.3425104e-02 -2.7232927e-03 
1.0906023e-02 1.3798999e-02 4.5849038e-03 
1.0433603e-02 1.3235427e-02 -2.4616856e-03 
1.0668467e-02 1.3480542e-02 -3.8145590e-03 
1.0842686e-02 1.3579890e-02 1.6818009e-03 
1.0856769e-02 1.3546285e-02 1.4007122e-03 
1.0744098e-02 1.3688594e-02 3.4991286e-03 
1.0648589e-02 1.3377573e-02 -4.0881336e-03 
1.0400582e-02 1.3060085e-02 -1.4411218e-03 
1.0619149e-02 1.3026094e-02 1.6905856e-03 
1.0657277e-02 1.3360730e-02 -5.0791353e-03 
1.0746743e-02 1.3202208e-02 -3.5181174e-03 
1.0397237e-02 1.2974410e-02 -4.5487710e-04 
1.0521752e-02 1.3004826e-02 1.1799780e-03 
1.0437923e-02 1.3021660e-02 -8.1541413e-04 
1.0611193e-02 1.3066344e-02 3.4116434e-03 
1.0450591e-02 1.3080293e-02 -3.7292514e-03 
1.0292597e-02 1.3088926e-02 -5.0484105e-03 
1.0152799e-02 1.3021740e-02 -4.7710417e-03 
1.0059937e-02 1.2958885e-02 -4.3600826e-03 
9.9908663e-03 1.2882420e-02 -3.7803054e-03 
1.0312019e-02 1.3089811e-02 2.3101461e-03 
1.0170967e-02 1.2843563e-02 -2.2835296e-03 
1.0256109e-02 1.2845006e-02 -1.9394476e-03 
1.0110449e-02 1.2578063e-02 1.6861531e-04 
1.0200828e-02 1.3131445e-02 4.1748583e-03 
1.0133442e-02 1.2958171e-02 2.5687367e-03 
1.0277124e-02 1.2840416e-02 5.2033016e-04 
9.8498091e-03 1.2551358e-02 -2.0505933e-03 
9.8893009e-03 1.2467065e-02 -9.7860699e-04 
9.9187503e-03 1.2560425e-02 -1.6235289e-03 
9.7396625e-03 1.2569227e-02 -3.1586045e-03 
1.0087418e-02 1.2742539e-02 1.9171032e-03 
1.0111877e-02 1.2466387e-02 2.5235913e-03 
9.7836079e-03 1.2555530e-02 -3.1187392e-03 
9.9877929e-03 1.2608748e-02 -2.7633370e-03 
9.8404232e-03 1.2609291e-02 -3.5558017e-03 
1.0149327e-02 1.2672370e-02 -4.4737249e-03 
9.8737525e-03 1.2594333e-02 -3.7084650e-03 
1.0071836e-02 1.2609959e-02 3.1093564e-03 
9.6766734e-03 1.2424971e-02 -2.7080681e-03 
1.0096142e-02 1.2692149e-02 4.1831788e-03 
9.9345762e-03 1.2397060e-02 1.8663998e-03 
9.9408757e-03 1.2437002e-02 -1.4167207e-03 
9.8499218e-03 1.2504930e-02 -4.2363605e-03 
9.9297594e-03 1.2373829e-02 -1.4318910e-03 
9.7279986e-03 1.2191725e-02 3.9383784e-04 
9.4976984e-03 1.2077564e-02 -1.2531463e-03 
9.6622929e-03 1.2339994e-02 1.6562075e-03 
9.6527571e-03 1.2185475e-02 8.7361591e-04 
9.5721781e-03 1.2441074e-02 3.4169010e-03 
9.2789680e-03 1.1849690e-02 -1.3177963e-03 
9.2476290e-03 1.1917296e-02 -2.1714985e-03 
9.3455585e-03 1.2165442e-02 -4.4560512e-03 
9.4336458e-03 1.2204823e-02 -4.7604572e-03 
9.2570186e-03 1.2093073e-02 -3.9764964e-03 
9.4396165e-03 1.1815887e-02 7.0398435e-04 
9.1720922e-03 1.1975037e-02 -3.4136407e-03 
9.6768178e-03 1.2081572e-02 -3.4582133e-03 
9.4877528e-03 1.1813639e-02 1.5353137e-03 
9.5120892e-03 1.2232401e-02 3.0465638e-03 
9.5112408e-03 1.2126008e-02 -4.8093027e-03 
9.5904563e-03 1.1965753e-02 3.3470215e-03 
9.2447679e-03 1.1697845e-02 -3.2037223e-04 
9.0592792e-03 1.1764058e-02 -3.2753209e-03 
9.1238124e-03 1.1811883e-02 -3.6169752e-03 
9.2529701e-03 1.1734857e-02 2.8268987e-04 
9.0823974e-03 1.1558660e-02 -2.7331663e-04 
9.2189880e-03 1.1717685e-02 -3.1691755e-03 
9.1143502e-03 1.1726544e-02 -3.9015512e-03 
9.1284337e-03 1.1800442e-02 2.2681970e-03 
8.8536926e-03 1.1506196e-02 -2.4987864e-03 
9.0233134e-03 1.1758792e-02 2.5220113e-03 
8.9920452e-03 1.1481039e-02 -1.1254214e-03 
8.9904713e-03 1.1823060e-02 3.9444673e-03 
8.7598749e-03 1.1232841e-02 -8.0033130e-04 
8.8370126e-03 1.1392807e-02 -2.2525222e-03 
9.0061044e-03 1.1288516e-02 2.3629153e-03 
9.0445885e-03 1.1456382e-02 -4.2480077e-03 
8.9484677e-03 1.1357098e-02 2.0281551e-03 
8.8509694e-03 1.1212518e-02 8.1047660e-04 
8.4829340e-03 1.1116728e-02 -2.3252396e-03 
8.6700385e-03 1.1389115e-02 -4.4757607e-03 
8.5812975e-03 1.1334138e-02 -4.1020773e-03 
8.5104303e-03 1.1251310e-02 -3.5260476e-03 
8.8201100e-03 1.1322250e-02 6.9572765e-04 
8.6328974e-03 1.0961236e-02 2.4228673e-04 
8.6903721e-03 1.1319185e-02 -4.6917601e-03 
8.5064322e-03 1.1130421e-02 -3.3059183e-03 
8.4149633e-03 1.0861394e-02 -7.8413659e-04 
8.6955316e-03 1.1187834e-02 2.4998765e-03 
8.5497862e-03 1.1132351e-02 -3.5479281e-03 
8.6601013e-03 1.1356760e-02 4.2998348e-03 
8.6020548e-03 1.1167602e-02 1.6049255e-03 
8.5186642e-03 1.1283178e-02 3.3268025e-03 
8.3978204e-03 1.0910709e-02 -1.7831785e-03 
8.4803784e-03 1.0881954e-02 5.0325633e-04 
8.4602414e-03 1.0912138e-02 2.8138395e-04 
8.4138326e-03 1.0646056e-02 1.4168337e-03 
8.1031695e-03 1.0688467e-02 -2.3659565e-03 
8.4459661e-03 1.0937198e-02 -4.5886985e-03 
8.5263448e-03 1.0803588e-02 -3.2032400e-03 
8.2586892e-03 1.0597263e-02 1.3741889e-04 
8.1034731e-03 1.0688295e-02 -2.6573890e-03 
8.3092032e-03 1.0818026e-02 -3.6781353e-03 
8.4129311e-03 1.0676795e-02 3.0255113e-03 
8.0071576e-03 1.0480058e-02 -1.5184535e-03 
8.2259504e-03 1.0572121e-02 -1.5279388e-03 
7.9544997e-03 1.0614634e-02 -4.1835825e-03 
8.0395881e-03 1.0649593e-02 -4.4635301e-03 
7.8771412e-03 1.0555597e-02 -3.7548337e-03 
7.8158891e-03 1.0468364e-02 -3.1842045e-03 
8.0437548e-03 1.0268952e-02 7.3364144e-04 
8.1052873e-03 1.0664254e-02 2.1295659e-03 
8.0789514e-03 1.0802643e-02 3.9201938e-03 
7.9524554e-03 1.0328013e-02 -6.4194220e-04 
8.0049084e-03 1.0627117e-02 2.4496235e-03 
8.1102327e-03 1.0484860e-02 4.7407529e-04 
7.8587895e-03 1.0151674e-02 -1.8933101e-04 
8.0205193e-03 1.0537675e-02 -4.5435536e-03 
8.0697658e-03 1.0453186e-02 -3.4974581e-03 
7.9048201e-03 1.0356225e-02 -2.3430982e-03 
7.6701250e-03 1.0077575e-02 -1.2331575e-03 
7.9983873e-03 1.0153047e-02 2.2035073e-03 
7.5753843e-03 1.0144753e-02 -2.6570167e-03 
8.0197314e-03 1.0320942e-02 -4.0220264e-03 
7.7048331e-03 1.0249525e-02 -3.1171697e-03 
7.7530523e-03 1.0278284e-02 -3.4103331e-03 
7.9555921e-03 1.0285761e-02 2.8817675e-03 
7.8228349e-03 1.0085454e-02 7.6068769e-04 
7.9763513e-03 1.0340786e-02 3.8165250e-03 
7.7788006e-03 1.0265060e-02 -3.6351432e-03 
7.8374194e-03 1.0181176e-02 1.0552908e-03 
7.5583123e-03 1.0065939e-02 -2.3536424e-03 
7.6799882e-03 9.9716326e-03 -2.2365899e-04 
7.8065111e-03 1.0339412e-02 2.8255929e-03 
7.8212665e-03 1.0083816e-02 1.7134417e-03 
7.8350957e-03 1.0056717e-02 -1.3121070e-03 
7.5259777e-03 9.8875761e-03 -1.0295730e-03 
7.5096469e-03 9.9517815e-03 -2.0280103e-03 
7.5875819e-03 9.9148648e-03 -4.7044895e-04 
7.6129977e-03 1.0056227e-02 1.5265055e-03 
7.5434786e-03 1.0194109e-02 3.2285515e-03 
7.3532811e-03 9.8950546e-03 -4.1991742e-03 
7.2756321e-03 9.8518673e-03 -3.8628273e-03 
7.4387249e-03 9.9181393e-03 -4.3756338e-03 
7.2049825e-03 9.7767534e-03 -3.3857240e-03 
7.1625160e-03 9.6925879e-03 -2.7828375e-03 
7.6424405e-03 9.8197516e-03 -3.1717676e-03 
7.4314917e-03 9.5552905e-03 1.2717345e-03 
7.4797831e-03 9.8442156e-03 -4.3433332e-03 
7.3090610e-03 9.4851209e-03 3.1143310e-04 
7.5366837e-03 9.6920365e-03 2.9715213e-03 
7.1364716e-03 9.3947006e-03 -6.1807735e-04 
7.0125153e-03 9.4284564e-03 -2.1318498e-03 
7.1221483e-03 9.4787637e-03 -1.9547057e-03 
7.2294399e-03 9.7067636e-03 2.3371412e-03 
7.1045309e-03 9.5437728e-03 -3.1908192e-03 
7.2673652e-03 9.5161665e-03 2.3614355e-04 
6.8806899e-03 9.3085933e-03 -2.1568446e-03 
7.1735424e-03 9.5234504e-03 -3.3779123e-03 
7.0478679e-03 9.4223246e-03 -3.0664068e-03 
6.9896551e-03 9.2226118e-03 -5.3755840e-04 
7.0656496e-03 9.5504653e-03 2.3561595e-03 
6.8809181e-03 9.3041379e-03 -2.6271627e-03 
7.0770946e-03 9.4338441e-03 1.7576780e-03 
7.0291497e-03 9.6037816e-03 3.6843645e-03 
7.0923949e-03 9.2519131e-03 -1.4833424e-03 
7.0368284e-03 9.0905670e-03 2.0456209e-03 
6.9048642e-03 9.1116643e-03 -2.6341021e-04 
7.0823589e-03 9.2665888e-03 -3.8093268e-03 
7.0012077e-03 9.1891773e-03 -2.0893321e-03 
6.6518923e-03 9.1238059e-03 -3.0049880e-03 
6.8741548e-03 9.1351280e-03 -1.7448991e-03 
6.7673130e-03 9.0628862e-03 -1.5369952e-03 
6.7120972e-03 9.1765206e-03 -3.9149676e-03 
6.6369241e-03 9.1178874e-03 -3.5211141e-03 
6.7941947e-03 9.2122722e-03 -4.1651400e-03 
6.8706186e-03 9.2196343e-03 -4.2503010e-03 
6.7686872e-03 8.8764280e-03 4.6177435e-04 
6.8887272e-03 9.0565858e-03 1.9988469e-03 
6.6127805e-03 8.8695372e-03 -1.2732162e-03 
6.6325166e-03 8.7509323e-03 -9.6329401e-05 
6.7596221e-03 9.1837449e-03 4.0130629e-03 
6.7211390e-03 9.0204468e-03 1.4630482e-03 
6.6477489e-03 9.1466084e-03 3.1202848e-03 
6.4375820e-03 8.7505290e-03 -2.6763044e-03 
6.5368940e-03 8.5311215e-03 1.1228228e-03 
6.6003809e-03 8.8229552e-03 -4.0899431e-03 
6.3270680e-03 8.6430851e-03 -2.3523876e-03 
6.6685593e-03 8.6846491e-03 -2.8857589e-03 
6.5112757e-03 8.7021468e-03 -2.8748335e-03 
6.5099509e-03 8.6619509e-03 5.0339793e-05 
6.4100381e-03 8.6992029e-03 -3.2751537e-03 
6.5884618e-03 8.5710445e-03 2.6682818e-03 
6.4639575e-03 8.5159186e-03 1.3524900e-03 
6.4267064e-03 8.6302627e-03 2.4388812e-03 
6.1123264e-03 8.4685842e-03 -2.6997703e-03 
6.3597327e-03 8.6819995e-03 2.1453626e-03 
6.1406237e-03 8.2760397e-03 -8.9938025e-04 
6.1193192e-03 8.4865382e-03 -3.6118303e-03 
6.1911121e-03 8.5382191e-03 -3.9172824e-03 
6.2712445e-03 8.6870836e-03 3.6168185e-03 
6.0545644e-03 8.4280297e-03 -3.1751492e-03 
6.2799724e-03 8.5512176e-03 -4.0778862e-03 
6.2121064e-03 8.5535124e-03 2.2715223e-03 
6.3122809e-03 8.4148375e-03 4.2058702e-04 
6.1224978e-03 8.2295490e-03 -8.5479289e-04 
6.1208024e-03 8.1560221e-03 4.9901858e-04 
6.0445159e-03 8.1308428e-03 -6.0556678e-04 
6.2051145e-03 8.1042042e-03 1.8773681e-03 
6.2573133e-03 8.2895560e-03 -3.6016854e-03 
6.0996986e-03 8.1460085e-03 5.5551104e-04 
6.2249643e-03 8.2862992e-03 3.4629884e-03 
5.9317537e-03 8.1725093e-03 -2.6873911e-03 
5.9844838e-03 7.9481713e-03 1.9645406e-04 
6.1377794e-03 8.1821224e-03 -2.0621289e-03 
6.0249185e-03 8.1675900e-03 -2.0601256e-03 
6.0931309e-03 8.0413921e-03 -1.1904327e-03 
6.0095186e-03 8.1214299e-03 7.4640894e-04 
6.0291407e-03 7.9880906e-03 -1.5077512e-03 
5.7433737e-03 7.8245504e-03 -1.0102100e-03 
5.8348700e-03 8.0309873e-03 -3.0854985e-03 
5.8882162e-03 8.0442969e-03 -3.2040561e-03 
5.8928491e-03 8.0488613e-03 1.3995420e-03 
5.8297925e-03 8.1643621e-03 2.9895962e-03 
5.5907834e-03 7.7753216e-03 -2.0237542e-03 
5.8909482e-03 7.8874370e-03 2.1499943e-03 
5.9477547e-03 7.8288335e-03 -2.8174894e-03 
5.6296978e-03 7.8778705e-03 -3.6514427e-03 
5.5530542e-03 7.8198146e-03 -3.2991546e-03 
5.7022288e-03 7.9030702e-03 -3.8724486e-03 
5.5024559e-03 7.7439616e-03 -2.8196606e-03 
5.7769502e-03 7.8969933e-03 -3.9398014e-03 
5.7472633e-03 7.5878608e-03 1.0041841e-03 
5.6710001e-03 7.6055103e-03 1.1015664e-04 
5.8021559e-03 7.8574233e-03 -3.8727154e-03 
5.8377380e-03 7.6974966e-03 2.6397030e-03 
5.5166655e-03 7.5768447e-03 -1.4264241e-03 
5.4421797e-03 7.4835834e-03 -1.1754312e-03 
5.6653754e-03 7.6724649e-03 -2.5586861e-03 
5.4579931e-03 7.4010515e-03 -4.5997847e-04 
5.5719228e-03 7.7421889e-03 1.9639004e-03 
5.4184408e-03 7.5428002e-03 -2.3279861e-03 
5.6132791e-03 7.5663519e-03 2.2783611e-04 
5.6049363e-03 7.4766045e-03 1.4387482e-03 
5.4269065e-03 7.5596604e-03 -2.7673792e-03 
5.4560327e-03 7.2940104e-03 3.2127075e-04 
5.3978888e-03 7.3424308e-03 -5.1671459e-04 
5.4254769e-03 7.6191770e-03 2.1847414e-03 
5.4992987e-03 7.5066006e-03 1.1556646e-03 
5.3884690e-03 7.3778313e-03 -1.4221078e-03 
5.3936238e-03 7.4187047e-03 -1.9653097e-03 
5.4064672e-03 7.3357294e-03 -3.8135651e-04 
5.4250718e-03 7.6727970e-03 3.4213683e-03 
5.2099205e-03 7.2014737e-03 -1.2502102e-03 
5.4417178e-03 7.3559056e-03 -1.4955063e-04 
5.3879721e-03 7.3125251e-03 1.0128521e-04 
5.1579396e-03 7.2321878e-03 -2.0329650e-03 
5.1324284e-03 7.1604094e-03 -1.5524355e-03 
5.4242047e-03 7.1583926e-03 1.7430879e-03 
5.4808059e-03 7.3361965e-03 -3.3794127e-03 
5.4174080e-03 7.2860681e-03 -1.2945762e-03 
5.0992169e-03 7.2331843e-03 -3.3602673e-03 
5.1686615e-03 7.2695175e-03 -3.6481267e-03 
5.0397213e-03 7.1779131e-03 -2.9645483e-03 
4.9967309e-03 7.1016075e-03 -2.4562152e-03 
5.2586240e-03 7.1608233e-03 1.0519950e-03 
5.1879291e-03 7.0840027e-03 -8.4289524e-04 
5.2203089e-03 7.1912082e-03 -3.2134915e-03 
5.2001011e-03 7.2301393e-03 -3.7763854e-03 
5.1729209e-03 7.2477506e-03 2.3034760e-03 
5.1418324e-03 7.1363365e-03 1.3475738e-03 
4.9730702e-03 6.8762847e-03 -1.0006382e-03 
5.2128877e-03 7.3028542e-03 3.6318460e-03 
5.0793998e-03 7.2580543e-03 2.8669597e-03 
4.9603451e-03 6.9085895e-03 -1.5425286e-03 
5.0535216e-03 6.8343771e-03 2.1387529e-04 
4.9632862e-03 6.7501678e-03 -1.9827727e-04 
4.9643884e-03 6.9651599e-03 -2.8053341e-03 
5.0094631e-03 6.6854907e-03 8.9072768e-04 
4.7946493e-03 6.7279711e-03 -1.5207679e-03 
5.0715143e-03 6.9433074e-03 -3.6262679e-03 
4.8429524e-03 6.6928496e-03 -8.3039701e-04 
5.1353159e-03 6.8340842e-03 -2.5804169e-03 
4.7747632e-03 6.7525189e-03 -2.3228137e-03 
5.0439155e-03 6.6979853e-03 2.3394392e-03 
4.9660108e-03 6.6760662e-03 1.2158534e-03 
4.8170360e-03 6.7087100e-03 -1.7324171e-03 
4.8870477e-03 6.7961114e-03 -3.0164779e-03 
4.8726951e-03 6.8416893e-03 1.7879724e-03 
4.8505594e-03 6.6482802e-03 -2.1473453e-03 
4.7875424e-03 6.8853013e-03 3.3322433e-03 
4.8645958e-03 6.6125062e-03 1.7592449e-03 
4.7248052e-03 6.7369547e-03 2.0901379e-03 
4.7007692e-03 6.5064714e-03 -7.7414658e-04 
4.8089707e-03 6.5953638e-03 3.5569191e-04 
4.6661738e-03 6.6653402e-03 -3.3849692e-03 
4.6085375e-03 6.6265259e-03 -3.0602051e-03 
4.7289031e-03 6.6832560e-03 -3.5849046e-03 
4.5277192e-03 6.4583831e-03 -1.8575850e-03 
4.5545753e-03 6.5591028e-03 -2.6223748e-03 
4.8027155e-03 6.6896868e-03 -3.6230581e-03 
4.6944288e-03 6.4873639e-03 6.0724287e-04 
4.5721438e-03 6.4763501e-03 -2.5536101e-03 
4.6195961e-03 6.4340695e-03 -1.8850985e-03 
4.7451509e-03 6.2997341e-03 1.6002021e-03 
4.4979667e-03 6.2431581e-03 -7.0434710e-04 
4.7889217e-03 6.4871013e-03 -3.1925887e-03 
4.7704303e-03 6.4777033e-03 3.0890007e-03 
4.6101226e-03 6.2538134e-03 5.8815972e-04 
4.6821153e-03 6.3790111e-03 -1.8956671e-03 
4.4891606e-03 6.1260099e-03 3.9491752e-05 
4.4174814e-03 6.2161582e-03 -1.3469445e-03 
4.6555265e-03 6.2619243e-03 -1.1166530e-03 
4.5807245e-03 6.1956169e-03 -1.3957833e-03 
4.4574337e-03 6.2827971e-03 1.2637333e-03 
4.4684750e-03 6.3803927e-03 2.1583501e-03 
4.5124656e-03 6.2117307e-03 -3.2623296e-04 
4.4685118e-03 6.1375331e-03 2.4508245e-04 
4.4029783e-03 6.4134495e-03 2.7361112e-03 
4.4181822e-03 6.2405304e-03 -2.8396968e-03 
4.5323279e-03 6.0719298e-03 -2.5008963e-03 
4.3372288e-03 5.8496413e-03 7.9357409e-04 
4.2002122e-03 6.0960446e-03 -3.1191399e-03 
4.2671743e-03 6.1270962e-03 -3.3593057e-03 
4.1443482e-03 6.0416302e-03 -2.7518237e-03 
4.3336963e-03 6.1312481e-03 -3.4703766e-03 
4.1089617e-03 5.9762830e-03 -2.2931476e-03 
4.4572665e-03 5.9621930e-03 2.3035575e-03 
4.4141216e-03 6.1323345e-03 -3.4082036e-03 
4.3551326e-03 5.9977327e-03 -2.3307593e-03 
4.2592562e-03 5.9123891e-03 -6.1562739e-04 
4.2001107e-03 5.9221876e-03 -1.7099530e-03 
4.3061115e-03 6.0083154e-03 2.0898234e-03 
4.1898843e-03 5.7878145e-03 -2.3019373e-04 
4.0705991e-03 5.7772351e-03 -1.1681234e-03 
4.2089098e-03 6.0162111e-03 1.6181219e-03 
4.2536771e-03 5.9463293e-03 1.0448999e-03 
4.2384164e-03 5.8477037e-03 1.5545974e-04 
4.2233276e-03 5.8874763e-03 -2.1554998e-03 
4.0548542e-03 5.6465887e-03 -4.3504298e-04 
4.0185195e-03 5.7796533e-03 -2.0061450e-03 
4.0414794e-03 5.8174273e-03 -2.3493839e-03 
4.0708445e-03 5.9217885e-03 1.9907393e-03 
4.0799798e-03 5.8480902e-03 -2.6062597e-03 
4.1969828e-03 5.7090386e-03 1.2707021e-03 
4.0557189e-03 5.5377977e-03 2.4791565e-04 
4.0883631e-03 5.9802937e-03 3.0879762e-03 
3.9289086e-03 5.5556116e-03 -8.9981727e-04 
4.0946719e-03 5.4862113e-03 1.4694994e-03 
4.1535785e-03 5.6614853e-03 -2.9725484e-03 
3.8937132e-03 5.4700188e-03 -7.7087595e-04 
3.9304844e-03 5.5292179e-03 8.1408460e-04 
3.8238529e-03 5.5801310e-03 -3.1210033e-03 
3.7673530e-03 5.5440804e-03 -2.8282630e-03 
3.8946085e-03 5.6070453e-03 -3.2973753e-03 
3.7209676e-03 5.4774648e-03 -2.4314760e-03 
3.9696014e-03 5.6131748e-03 -3.3400175e-03 
3.9093946e-03 5.6287763e-03 2.1207635e-03 
3.8302741e-03 5.4858136e-03 1.1967064e-03 
3.9361371e-03 5.6529697e-03 3.2761432e-03 
3.6568164e-03 5.3314851e-03 -1.7139851e-03 
3.7994955e-03 5.6111161e-03 2.5861582e-03 
3.9315219e-03 5.3947312e-03 2.0830571e-03 
3.8451599e-03 5.3380919e-03 -1.0862526e-03 
3.6477488e-03 5.2036326e-03 -8.7993999e-04 
3.6733090e-03 5.1176143e-03 -1.5470666e-04 
3.7755093e-03 5.3675673e-03 -2.7114977e-03 
3.7109274e-03 5.3452374e-03 -2.5986612e-03 
3.7302300e-03 5.0742510e-03 7.1117945e-04 
3.8232252e-03 5.3360169e-03 -3.1932697e-03 
3.8609428e-03 5.2051689e-03 -2.2586365e-03 
3.6177936e-03 5.2325018e-03 -2.1300265e-03 
3.5927526e-03 5.0868574e-03 -6.5248972e-04 
3.6981101e-03 5.0720577e-03 7.7808520e-04 
3.7880270e-03 5.0935838e-03 2.0136512e-03 
3.5184429e-03 5.1314519e-03 -1.9292536e-03 
3.5965212e-03 5.0962102e-03 -1.8496988e-03 
3.4992886e-03 5.1575289e-03 1.8748483e-03 
3.5755446e-03 5.2908612e-03 2.9872577e-03 
3.5735110e-03 5.0062235e-03 3.0394434e-04 
3.5890932e-03 5.1439889e-03 -3.2033881e-03 
3.6131886e-03 5.0547775e-03 -2.3028720e-03 
3.4219658e-03 5.0708824e-03 -2.8747024e-03 
3.4848081e-03 5.0947727e-03 -3.0857446e-03 
3.3676582e-03 5.0214268e-03 -2.5375525e-03 
3.3289525e-03 4.9567861e-03 -2.1118424e-03 
3.5421255e-03 4.9547269e-03 1.3107278e-04 
3.4612059e-03 4.8112301e-03 2.1521255e-04 
3.5187348e-03 4.7355946e-03 1.3400735e-03 
3.2689278e-03 4.7557591e-03 -1.1485724e-03 
3.5942090e-03 4.9137571e-03 -2.7667766e-03 
3.5648108e-03 4.8969761e-03 2.6992392e-03 
3.3801137e-03 4.9193213e-03 1.5759791e-03 
3.2761870e-03 4.6730391e-03 -6.3697412e-04 
3.4302783e-03 4.8505804e-03 7.4510503e-04 
3.3257476e-03 4.6353065e-03 1.0467612e-05 
3.4458123e-03 4.7153579e-03 1.2767797e-03 
3.3043716e-03 4.7062659e-03 -7.2127092e-04 
3.4738805e-03 4.7182660e-03 -1.0285738e-03 
3.3466513e-03 4.8803752e-03 1.9863984e-03 
3.2059932e-03 4.6726298e-03 -1.3893399e-03 
3.2892588e-03 4.7421795e-03 1.1034317e-03 
3.2530520e-03 4.8724376e-03 2.4248757e-03 
3.3235752e-03 4.6428475e-03 2.3027202e-04 
3.1645703e-03 4.5623216e-03 -8.9481036e-04 
3.1706188e-03 4.6762493e-03 -2.0149981e-03 
3.2996940e-03 4.7287447e-03 -2.5114757e-03 
3.2070684e-03 4.7078501e-03 -2.2899848e-03 
3.1858836e-03 4.5176535e-03 -3.8894071e-04 
3.3524185e-03 4.6137767e-03 -1.1162723e-03 
3.2756627e-03 4.6105566e-03 1.3890177e-03 
3.1863065e-03 4.3591429e-03 6.2100810e-04 
3.3057800e-03 4.4386825e-03 1.9633078e-03 
3.2927531e-03 4.6061859e-03 -2.9777633e-03 
3.1072153e-03 4.6161208e-03 -2.8663913e-03 
3.0436607e-03 4.5814640e-03 -2.6031227e-03 
3.1722083e-03 4.6247263e-03 -3.0089365e-03 
2.9941555e-03 4.5200922e-03 -2.2373807e-03 
3.3337227e-03 4.4807806e-03 -2.1019140e-03 
3.2344114e-03 4.6071634e-03 -3.0480193e-03 
3.0982525e-03 4.4881678e-03 -1.4826797e-03 
2.9276013e-03 4.3754815e-03 -1.5749178e-03 
3.1958015e-03 4.4425614e-03 -1.6009705e-03 
2.9869822e-03 4.2357184e-03 -2.7258723e-04 
3.1028590e-03 4.3566762e-03 1.1199449e-04 
3.0489739e-03 4.2457730e-03 1.9228438e-04 
3.1036381e-03 4.2791851e-03 6.8526721e-04 
2.9840572e-03 4.4525298e-03 1.7482931e-03 
2.8961624e-03 4.2280545e-03 -9.3615329e-04 
3.0543688e-03 4.5692045e-03 2.8048393e-03 
3.0046671e-03 4.3845093e-03 -2.3843774e-03 
2.9127575e-03 4.2565227e-03 -1.2153029e-03 
3.0109542e-03 4.3155397e-03 -1.6896107e-03 
2.9354165e-03 4.1877027e-03 -4.7127370e-04 
3.0484528e-03 4.3107495e-03 -2.2956578e-03 
2.9243964e-03 4.1733151e-03 -6.1782857e-04 
3.0023193e-03 4.0454823e-03 1.2230152e-03 
2.9887499e-03 4.1409358e-03 -3.7391152e-04 
3.0823881e-03 4.2087915e-03 -2.5969145e-03 
2.8857458e-03 4.2334069e-03 1.3996559e-03 
2.8901643e-03 4.1187587e-03 5.0644088e-04 
2.7917668e-03 4.1426145e-03 -1.9961104e-03 
2.8941152e-03 4.0799240e-03 3.7949652e-05 
2.7365638e-03 3.9941086e-03 -8.7222114e-04 
2.8877964e-03 4.1619679e-03 1.8769284e-03 
2.8543775e-03 4.2196051e-03 1.9351996e-03 
2.9047604e-03 4.2675533e-03 2.9139786e-03 
2.7739678e-03 4.0641152e-03 1.0109913e-03 
2.7450642e-03 4.1398690e-03 -2.6268749e-03 
2.8066954e-03 4.1586133e-03 -2.8100552e-03 
2.6874689e-03 4.1009779e-03 -2.3282079e-03 
2.6497978e-03 4.0384778e-03 -1.9456452e-03 
2.7510023e-03 4.1980394e-03 2.2723277e-03 
2.8476773e-03 3.9630155e-03 1.0556838e-03 
2.8503826e-03 4.1277818e-03 -2.8968726e-03 
2.6021148e-03 3.8703270e-03 -1.1229010e-03 
2.6237844e-03 3.8202202e-03 -6.9977809e-04 
2.6909891e-03 3.7778837e-03 -2.4553217e-05 
2.7678965e-03 4.0194127e-03 -2.2965614e-03 
2.6927101e-03 3.8187453e-03 -4.9286755e-05 
2.7006033e-03 3.8928732e-03 8.4015797e-04 
2.5940863e-03 3.8826987e-03 -1.7198548e-03 
2.5646000e-03 3.8263621e-03 -1.3283312e-03 
2.6947937e-03 3.6914188e-03 5.4369838e-04 
2.6041919e-03 3.7325786e-03 -3.8190559e-04 
2.6352704e-03 3.8573265e-03 -1.3597661e-03 
2.8059259e-03 3.9347205e-03 -2.7627947e-03 
2.6692492e-03 3.6840879e-03 6.7038869e-04 
2.5546295e-03 3.7238332e-03 -8.1517996e-04 
2.7541912e-03 3.7089158e-03 1.7229069e-03 
2.6793187e-03 3.8325724e-03 -2.2682338e-03 
2.6138364e-03 3.9797635e-03 2.5904721e-03 
2.6199021e-03 3.7290028e-03 2.0970448e-04 
2.5540187e-03 3.8010913e-03 -2.0872348e-03 
2.6250225e-03 3.6971448e-03 8.7596170e-05 
2.5664794e-03 3.6047865e-03 9.5281721e-05 
2.5042100e-03 3.7986164e-03 1.6153996e-03 
2.6686986e-03 3.7334911e-03 -1.9314728e-03 
2.4324935e-03 3.5779073e-03 -8.5233478e-04 
2.7185131e-03 3.6314905e-03 -1.8175895e-03 
2.5946505e-03 3.5912495e-03 -7.8262109e-04 
2.4696093e-03 3.7235490e-03 -2.5998023e-03 
2.4049187e-03 3.6829514e-03 -2.3704229e-03 
2.5314279e-03 3.7346487e-03 -2.7311423e-03 
2.3620327e-03 3.6337208e-03 -2.0490163e-03 
2.5939585e-03 3.7177475e-03 -2.7549886e-03 
2.3296298e-03 3.5402377e-03 -1.4300632e-03 
2.5364016e-03 3.4720385e-03 -6.3164363e-04 
2.4703448e-03 3.5612509e-03 -1.5798048e-03 
2.4636697e-03 3.6615499e-03 1.7912484e-03 
2.5184064e-03 3.3956084e-03 1.1068980e-03 
2.4191975e-03 3.5906327e-03 1.2266730e-03 
2.3373207e-03 3.3821827e-03 -4.0572259e-04 
2.3969198e-03 3.3554800e-03 1.4829816e-04 
2.4628669e-03 3.4933193e-03 4.5929221e-05 
2.6175289e-03 3.5609556e-03 -2.3959097e-03 
2.5890879e-03 3.5455192e-03 2.3261525e-03 
2.2696666e-03 3.3763361e-03 -9.4306417e-04 
2.4483963e-03 3.3699477e-03 1.1089838e-03 
2.4079583e-03 3.4233716e-03 -6.8749802e-04 
2.3806824e-03 3.5112875e-03 -2.1619124e-03 
2.4225174e-03 3.5102416e-03 -2.2210758e-03 
2.3294555e-03 3.4325041e-03 9.1285008e-04 
2.3012725e-03 3.5592017e-03 2.1126228e-03 
2.3985519e-03 3.4714206e-03 1.9268289e-03 
2.2689712e-03 3.2385536e-03 -1.5683702e-04 
2.2122380e-03 3.3381297e-03 -1.6243830e-03 
2.2320023e-03 3.2890572e-03 -1.6840256e-03 
2.2499114e-03 3.1552303e-03 3.8608743e-04 
2.2339358e-03 3.0835224e-03 4.7623456e-04 
2.1294900e-03 3.1723252e-03 -1.0374164e-03 
2.3716653e-03 3.1547288e-03 1.6458166e-03 
2.2444318e-03 3.4383845e-03 2.4912581e-03 
2.3648692e-03 3.3127277e-03 -2.5603175e-03 
2.3377389e-03 3.1907444e-03 -1.3517215e-03 
2.1516790e-03 3.2887205e-03 -2.3696255e-03 
2.2097465e-03 3.3100371e-03 -2.5393758e-03 
2.1033902e-03 3.2552006e-03 -2.1016076e-03 
2.2685491e-03 3.3102508e-03 -2.6089731e-03 
2.0632083e-03 3.2010432e-03 -1.7568369e-03 
2.2056999e-03 3.1295605e-03 -2.5984285e-05 
2.1812394e-03 3.0972960e-03 6.1265346e-05 
2.1816737e-03 3.1188773e-03 6.9279305e-04 
2.0993412e-03 2.9762576e-03 -5.9006350e-05 
2.0846755e-03 3.1968486e-03 1.4885803e-03 
2.0013379e-03 2.9417628e-03 -6.5624411e-04 
2.1942456e-03 3.1193793e-03 -2.1439183e-03 
2.1188303e-03 2.9974452e-03 3.8195463e-04 
2.0422030e-03 2.9571808e-03 -5.2410795e-04 
2.0411797e-03 2.9914225e-03 -1.0034885e-03 
2.1321988e-03 2.9508709e-03 -4.3312248e-04 
2.0798517e-03 2.9960698e-03 -1.4382361e-03 
2.1025341e-03 2.8163686e-03 1.0003167e-03 
2.0119913e-03 2.9954920e-03 1.0724505e-03 
1.9583341e-03 2.9673569e-03 -1.6683378e-03 
2.1004854e-03 2.9635692e-03 1.5354914e-03 
2.0265891e-03 2.9972370e-03 -2.0232501e-03 
2.1848977e-03 2.9543345e-03 -2.2202029e-03 
1.8281429e-03 2.8210487e-03 -1.2770665e-03 
2.0975147e-03 3.0207499e-03 2.4429758e-03 
1.9739270e-03 2.9162252e-03 1.3327866e-03 
1.9214696e-03 2.8514049e-03 8.2197355e-04 
2.1109441e-03 2.9111395e-03 2.2573387e-03 
1.9050263e-03 2.9739609e-03 1.9430968e-03 
1.9183190e-03 2.9229473e-03 -2.3257260e-03 
1.8623431e-03 2.8981224e-03 -2.1208269e-03 
1.9794756e-03 2.9327075e-03 -2.4428489e-03 
1.8183097e-03 2.8468317e-03 -1.8322384e-03 
2.0330851e-03 2.9167342e-03 -2.4643326e-03 
2.0317973e-03 2.6886910e-03 -1.2930841e-03 
1.8628003e-03 2.8016847e-03 -1.8079114e-03 
1.8514262e-03 2.6208046e-03 -2.1669584e-05 
1.7920551e-03 2.6044860e-03 -3.8268414e-04 
2.0265207e-03 2.6710464e-03 1.7381997e-03 
2.0148130e-03 2.6678306e-03 -1.7779772e-03 
1.9153011e-03 2.6776521e-03 -3.7311367e-04 
1.7481776e-03 2.6494467e-03 -1.1678917e-03 
1.8446667e-03 2.5234949e-03 4.2463810e-04 
1.8917547e-03 2.7410202e-03 -2.0199562e-03 
1.8691656e-03 2.5931259e-03 -2.6916777e-04 
1.9666776e-03 2.7332471e-03 -2.3329940e-03 
1.7046026e-03 2.5735542e-03 -8.2463445e-04 
1.7971913e-03 2.6287299e-03 -1.3755520e-03 
1.8413751e-03 2.6682268e-03 1.5099832e-03 
1.8531434e-03 2.6015677e-03 -1.6202271e-03 
1.7042820e-03 2.6393572e-03 1.3522437e-03 
1.6916823e-03 2.4811423e-03 -5.4516859e-04 
1.7773458e-03 2.7178244e-03 2.2645302e-03 
1.6951313e-03 2.4310709e-03 -2.0445857e-04 
1.7435808e-03 2.3984094e-03 4.6797667e-04 
1.7960995e-03 2.4561230e-03 -1.0614614e-03 
1.7844081e-03 2.5921315e-03 -2.3343463e-03 
1.6436561e-03 2.5568709e-03 -2.1084335e-03 
1.7039108e-03 2.5679681e-03 -2.2564016e-03 
1.5895694e-03 2.5165556e-03 -1.8749852e-03 
1.5541798e-03 2.4605095e-03 -1.5616985e-03 
1.6892907e-03 2.4188068e-03 1.7611888e-04 
1.6465338e-03 2.4549905e-03 9.3679770e-04 
1.6978286e-03 2.3756530e-03 5.2549847e-04 
1.5889026e-03 2.2649511e-03 -9.3247254e-05 
1.5278592e-03 2.2791035e-03 -5.9061422e-04 
1.5939079e-03 2.4012469e-03 -1.8020154e-03 
1.5473940e-03 2.3229972e-03 7.3096924e-04 
1.5148793e-03 2.3322334e-03 -1.3949252e-03 
1.5480411e-03 2.3677838e-03 -1.6167322e-03 
1.5457593e-03 2.2875369e-03 -1.0824786e-03 
1.6678186e-03 2.2532297e-03 1.2516722e-03 
1.6488287e-03 2.1442175e-03 1.0505506e-03 
1.5638878e-03 2.2350941e-03 -6.5276079e-04 
1.4157405e-03 2.2184171e-03 -1.1496408e-03 
1.5697385e-03 2.1990666e-03 -6.4662308e-04 
1.5827828e-03 2.2889089e-03 -1.8281615e-03 
1.5214933e-03 2.2029912e-03 4.4468979e-04 
1.4755119e-03 2.3193306e-03 1.8020495e-03 
1.6652843e-03 2.2834004e-03 2.1279687e-03 
1.4895045e-03 2.0185562e-03 3.7716259e-04 
1.5306636e-03 2.1815915e-03 6.1110075e-04 
1.4731472e-03 2.2731519e-03 -2.0665203e-03 
1.6647406e-03 2.1836411e-03 1.8980058e-03 
1.4164919e-03 2.0990260e-03 -4.8708695e-04 
1.6315026e-03 2.1009846e-03 1.5584219e-03 
1.5954698e-03 2.3301931e-03 2.2014524e-03 
1.6084221e-03 2.2129554e-03 -2.1351688e-03 
1.5511059e-03 2.0643191e-03 -9.2364609e-04 
1.5936672e-03 2.0624208e-03 -1.4056655e-03 
1.3871804e-03 2.2076294e-03 -1.8744427e-03 
1.5018502e-03 2.2336505e-03 -2.1538676e-03 
1.3446891e-03 2.1650570e-03 -1.6062793e-03 
1.5538866e-03 2.2050710e-03 -2.1677853e-03 
1.4705537e-03 2.0473220e-03 -2.6839494e-04 
1.6051426e-03 2.0996109e-03 -1.7714422e-03 
1.3729242e-03 2.1451970e-03 1.1861632e-03 
1.3294539e-03 1.9534340e-03 -2.9659181e-04 
1.2831814e-03 1.9912599e-03 -7.8892935e-04 
1.4591360e-03 2.2334845e-03 2.0415129e-03 
1.3643404e-03 1.9186860e-03 7.6012642e-05 
1.3722477e-03 1.9397842e-03 -1.4415197e-04 
1.3848745e-03 2.0254597e-03 -1.2540232e-03 
1.3849478e-03 2.0888732e-03 1.4684058e-03 
1.3903332e-03 1.8950802e-03 5.6646060e-04 
1.3808568e-03 1.9124022e-03 -4.0282280e-04 
1.2655249e-03 1.9532610e-03 -1.0478443e-03 
1.4271893e-03 1.9981349e-03 -1.6488880e-03 
1.3218131e-03 1.9592824e-03 5.7111029e-04 
1.4383735e-03 2.0269470e-03 1.5364339e-03 
1.2882781e-03 1.9752688e-03 -1.3293789e-03 
1.4377367e-03 1.9584743e-03 1.4382326e-03 
1.4192977e-03 1.9069470e-03 -1.1718473e-03 
1.2993198e-03 1.9815450e-03 -1.6297918e-03 
1.1845448e-03 1.7918410e-03 -6.3733361e-04 
1.1953377e-03 1.7426916e-03 -2.5878198e-04 
1.3460562e-03 1.7654501e-03 1.1046637e-03 
1.2110797e-03 1.7871716e-03 7.4023381e-04 
1.0586804e-03 1.7102803e-03 -1.0101837e-03 
1.0652962e-03 1.6427219e-03 -5.5851927e-04 
1.0870656e-03 1.7926600e-03 -1.4978893e-03 
1.1086368e-03 1.5955265e-03 -1.0411377e-04 
1.1662568e-03 1.8342438e-03 -1.8433868e-03 
1.1680737e-03 1.5753140e-03 3.3890945e-04 
1.2381664e-03 1.5640025e-03 8.1038574e-04 
1.2470712e-03 1.8137954e-03 -1.9846035e-03 
1.3050385e-03 1.5975017e-03 1.2204332e-03 
1.3008810e-03 1.7676081e-03 -1.9235014e-03 
1.3392158e-03 1.6663531e-03 1.5789260e-03 
1.3282938e-03 1.7110659e-03 -1.7504728e-03 
1.3051631e-03 1.6358581e-03 -1.4759069e-03 
1.3372896e-03 1.7311416e-03 1.8327661e-03 
1.1784262e-03 1.6694074e-03 -7.5128430e-04 
1.2479261e-03 1.5876640e-03 -1.0802383e-03 
1.2923277e-03 1.8044689e-03 1.9486132e-03 
1.1832598e-03 1.5595583e-03 -5.4768351e-04 
1.2211284e-03 1.8243169e-03 1.9399022e-03 
1.1183210e-03 1.5740881e-03 1.2430458e-05 
1.1524468e-03 1.8086765e-03 1.7492750e-03 
1.0756063e-03 1.6344961e-03 5.5790797e-04 
1.0973198e-03 1.7602632e-03 1.4330874e-03 
1.0838404e-03 1.7036917e-03 1.0028351e-03 
1.0395955e-03 1.6281563e-03 -9.7943866e-04 
1.1472537e-03 1.5916318e-03 6.6825462e-04 
1.0658231e-03 1.5607812e-03 -3.7368311e-04 
1.1170707e-03 1.5691184e-03 -9.2021328e-05 
1.0786090e-03 1.4888376e-03 1.5359980e-04 
1.1845620e-03 1.5461199e-03 -1.2366415e-03 
1.0761922e-03 1.4920776e-03 2.8953553e-04 
1.0425389e-03 1.5805719e-03 -1.1589722e-03 
1.1114748e-03 1.4463350e-03 6.7451701e-04 
1.0286889e-03 1.4913130e-03 2.2200892e-04 
1.0534304e-03 1.6176903e-03 1.2090903e-03 
1.1504970e-03 1.5635551e-03 1.3363824e-03 
1.0988495e-03 1.4822778e-03 -1.3772792e-03 
8.9751388e-04 1.4012521e-03 -6.1528658e-04 
1.0910764e-03 1.3942324e-03 1.0990768e-03 
9.8707422e-04 1.4192377e-03 6.5137818e-04 
1.0313400e-03 1.5023698e-03 1.3371544e-03 
9.9516648e-04 1.3343839e-03 -3.6430219e-04 
8.4778876e-04 1.2589642e-03 -2.6678180e-04 
1.0798118e-03 1.3256205e-03 -1.4583665e-03 
9.1055257e-04 1.2873475e-03 8.6112806e-05 
9.5624692e-04 1.2972020e-03 -5.9209485e-04 
8.7178219e-04 1.4474983e-03 1.4216648e-03 
8.5044972e-04 1.2425944e-03 2.6398955e-04 
1.0347664e-03 1.2125677e-03 1.2441663e-03 
1.0161235e-03 1.2108622e-03 -1.1213969e-03 
1.0421636e-03 1.2721235e-03 1.5043472e-03 
8.9778367e-04 1.4335330e-03 1.6209339e-03 
8.4465160e-04 1.0942419e-03 3.0394114e-04 
9.7114267e-04 1.3962393e-03 1.7089141e-03 
8.6371211e-04 1.1460640e-03 -2.2861231e-04 
9.1466139e-04 1.0999971e-03 7.8980118e-04 
9.3093753e-04 1.1339848e-03 -7.0807635e-04 
8.8209478e-04 1.3551830e-03 -1.6537484e-03 
1.0094567e-03 1.3246007e-03 1.6527522e-03 
9.8888855e-04 1.2954443e-03 -1.6389375e-03 
7.0703129e-04 1.2175904e-03 -8.5295876e-04 
9.1871206e-04 1.1805964e-03 -9.9112559e-04 
7.3509844e-04 1.2373291e-03 8.5770013e-04 
7.2442845e-04 1.2551163e-03 -1.3283029e-03 
8.0506306e-04 1.2445078e-03 1.0526201e-03 
7.2574260e-04 1.1338186e-03 -5.8690726e-04 
8.5268356e-04 1.0775427e-03 -6.6552183e-04 
7.6733658e-04 1.1015657e-03 -1.0604814e-04 
7.0560130e-04 1.0039706e-03 -3.4264722e-05 
7.1055215e-04 1.0033349e-03 1.2929246e-04 
7.6422555e-04 1.0648221e-03 1.0455552e-03 
7.4799958e-04 9.3720586e-04 6.6571118e-04 
8.3016627e-04 9.5082965e-04 -1.2392948e-03 
5.5136479e-04 8.6318026e-04 -2.4651739e-04 
7.7659648e-04 9.6881081e-04 1.0626658e-03 
6.5592647e-04 9.2114188e-04 1.5294224e-04 
6.0347747e-04 1.0622019e-03 1.2168761e-03 
7.4019009e-04 8.2960061e-04 -8.1634615e-04 
6.0920854e-04 9.2747406e-04 5.1272474e-04 
6.1031716e-04 9.0427295e-04 -6.7090587e-04 
6.7211653e-04 9.2855794e-04 -1.0075251e-03 
6.2995334e-04 8.4814097e-04 -5.5034569e-05 
7.3647959e-04 7.8783144e-04 8.7485206e-04 
6.4163114e-04 1.0313001e-03 1.3810481e-03 
7.5052917e-04 8.2750170e-04 1.1323356e-03 
5.4311397e-04 7.6126034e-04 2.4738563e-05 
5.9597095e-04 6.9275592e-04 -3.7838856e-04 
5.8618211e-04 7.7366701e-04 4.1396587e-04 
5.9228943e-04 7.6217757e-04 -5.6548353e-04 
4.8967113e-04 6.0966407e-04 2.3499747e-04 
6.5176835e-04 8.1961823e-04 -1.2910811e-03 
3.7766219e-04 7.4132322e-04 -6.6093873e-04 
4.9104623e-04 7.8722055e-04 7.9925900e-04 
3.9686458e-04 7.4555189e-04 6.5322343e-04 
5.2000227e-04 6.1284588e-04 -4.6954842e-04 
4.8644791e-04 6.8421324e-04 3.7002156e-04 
4.2287610e-04 6.3102273e-04 -2.4311496e-04 
4.2413810e-04 5.7849649e-04 -1.7067303e-05 
5.3218787e-04 7.6942344e-04 1.2030443e-03 
5.8452314e-04 6.6420622e-04 1.1051736e-03 
3.9217449e-04 7.3898357e-04 -1.0937166e-03 
4.5579005e-04 5.8210170e-04 3.7505469e-04 
4.1281979e-04 5.8888848e-04 -3.6539487e-04 
4.8118332e-04 5.7008024e-04 -7.7504001e-04 
2.7673287e-04 4.6425886e-04 -1.3179061e-04 
3.3472868e-04 4.4968547e-04 5.1996405e-05 
4.5488341e-04 4.1084862e-04 -6.9934624e-04 
4.5618278e-04 4.0191578e-04 7.2613673e-04 
3.1178634e-04 4.8379632e-04 3.1239164e-04 
3.2636142e-04 4.3172465e-04 -1.7025121e-04 
3.1978119e-04 6.1617797e-04 9.5573749e-04 
2.6932760e-04 3.6309348e-04 -6.4488151e-05 
2.2960911e-04 3.9270308e-04 -4.2672502e-04 
3.1509862e-04 3.7145536e-04 5.4732297e-04 
2.8219426e-04 3.8173370e-04 -6.0581259e-04 
2.3137417e-04 3.0156414e-04 8.3246217e-05 
1.8446756e-04 1.7660329e-04 1.2593319e-04 
3.3052190e-04 3.6119286e-04 -7.6782616e-04 
1.7158962e-04 3.0217279e-04 -1.9351994e-04 
6.6945235e-05 2.8177164e-04 -3.9466182e-04 
8.0199599e-05 2.9857695e-04 3.9652307e-04 
2.0417607e-04 1.9569430e-04 2.6851147e-04 
2.0033940e-04 2.2789417e-04 -2.8985957e-04 
1.3856665e-04 2.0426184e-04 -1.9802109e-04 
1.5139015e-04 2.7287981e-04 3.6091698e-04 
1.5714084e-04 3.5537087e-04 -6.2914198e-04 
1.2101652e-04 1.7758901e-04 3.5054571e-05 
2.7451833e-04 2.9495193e-04 6.9496298e-04 
2.8130686e-04 1.9746808e-04 5.6827569e-04 
2.0660594e-04 3.4454351e-04 6.9185317e-04 
1.0593345e-04 1.5509791e-04 1.0707547e-04 
1.7202881e-04 7.4512274e-05 -2.7232009e-04 
1.4418677e-05 7.6470584e-05 -9.8924691e-05 
1.8828345e-04 5.5566488e-05 3.1986908e-04 
2.2745886e-04 1.1445833e-04 -4.1000676e-04 
2.2193137e-05 6.6453351e-05 1.6941580e-05 
5.0906070e-05 2.5536111e-04 4.5046883e-04 
8.9026922e-05 1.6638667e-04 -2.4880021e-04 
1.5114860e-04 1.5805321e-04 3.7730482e-04 
9.7677490e-05 1.1863391e-04 -2.5122112e-04 
5.6596371e-05 8.1290542e-05 -4.6248835e-05 
5.3996897e-05 4.3024378e-05 -9.0464848e-05 
9.4573525e-06 3.3657834e-05 -5.2985284e-05 
7.1308597e-05 2.4192957e-05 1.1845211e-04 
3.3412668e-06 1.5171569e-04 -2.4916709e-04 
1.4825993e-05 9.1484435e-05 1.7145312e-04 
5.7865924e-05 6.6816508e-05 -6.4357919e-05 
8.9811612e-05 1.8574290e-04 -3.3525311e-04 
3.8740778e-05 -2.3120640e-05 5.8437065e-05 
-3.3268498e-05 8.8958121e-05 -1.7162404e-04 
7.7134027e-05 4.6749268e-05 -1.5694134e-04 
1.5438272e-04 1.2547814e-04 -3.2748483e-04 
1.0584053e-04 5.5243854e-05 1.9375236e-04 
1.7002465e-05 4.0100527e-05 -4.6324462e-06 
5.1414503e-05 9.9939854e-05 2.2371997e-04 
2.5801071e-05 5.2082367e-05 2.3027338e-05 
-4.1290346e-05 6.0249109e-05 1.6409923e-04 
1.4049486e-04 3.0506357e-05 2.1467614e-04 
1.3227126e-04 7.5557415e-05 2.4257558e-04 
7.9237099e-05 -1.7018434e-05 -1.4781700e-04 
9.8287142e-05 1.1481595e-04 2.5911120e-04 
1.4210599e-05 -2.1653361e-05 -5.8511538e-05 
4.8109050e-05 1.3660690e-04 2.5399114e-04 
7.8333069e-05 -2.6504820e-06 1.2454524e-04 
9.5780779e-05 2.1121510e-05 -1.5834671e-04 
-1.8033106e-05 -3.1932311e-06 1.0293305e-05 
2.3432463e-06 9.8613942e-05 1.7805363e-04 
1.8667834e-05 1.7835167e-05 4.4201770e-05 
4.5481775e-05 3.3603985e-05 1.0541731e-04 
0.0000000e+00 0.0000000e+00 0.0000000e+00 
0.0000000e+00 0.0000000e+00 0.0000000e+00 
0.0000000e+00 0.0000000e+00 0.0000000e+00 
0.0000000e+00 0.0000000e+00 0.0000000e+00 
0.0000000e+00 0.0000000e+00 0.0000000e+00 
0.0000000e+00 0.0000000e+00 0.0000000e+00 
0.0000000e+00 0.0000000e+00 0.0000000e+00 
0.0000000e+00 0.0000000e+00 0.0000000e+00 
0.0000000e+00 0.0000000e+00 0.0000000e+00 
0.0000000e+00 0.0000000e+00 0.0000000e+00 
0.0000000e+00 0.0000000e+00 0.0000000e+00 
0.0000000e+00 0.0000000e+00 0.0000000e+00 
0.0000000e+00 0.0000000e+00 0.0000000e+00 
0.0000000e+00 0.0000000e+00 0.0000000e+00 
0.0000000e+00 0.0000000e+00 0.0000000e+00 
0.0000000e+00 0.0000000e+00 0.0000000e+00 
0.0000000e+00 0.0000000e+00 0.0000000e+00 
0.0000000e+00 0.0000000e+00 0.0000000e+00 
0.0000000e+00 0.0000000e+00 0.0000000e+00 
0.0000000e+00 0.0000000e+00 0.0000000e+00 
0.0000000e+00 0.0000000e+00 0.0000000e+00 
0.0000000e+00 0.0000000e+00 0.0000000e+00 
0.0000000e+00 0.0000000e+00 0.0000000e+00 
0.0000000e+00 0.0000000e+00 0.0000000e+00 
0.0000000e+00 0.0000000e+00 0.0000000e+00 
0.0000000e+00 0.0000000e+00 0.0000000e+00 
0.0000000e+00 0.0000000e+00 0.0000000e+00 
0.0000000e+00 0.0000000e+00 0.0000000e+00 
0.0000000e+00 0.0000000e+00 0.0000000e+00 
0.0000000e+00 0.0000000e+00 0.0000000e+00 
0.0000000e+00 0.0000000e+00 0.0000000e+00 
0.0000000e+00 0.0000000e+00 0.0000000e+00 
0.0000000e+00 0.0000000e+00 0.0000000e+00 
VON_MISES_STRESS 1 4496  float
3.4032249e+01
5.3603333e+01
6.7396935e+01
4.7360020e+01
8.5413620e+01
9.0564957e+01
1.5463744e+02
9.0680573e+01
9.3664536e+01
1.1452442e+02
1.0092414e+02
1.6724370e+02
1.9443715e+02
1.5162093e+02
1.1103860e+02
1.3887643e+02
2.9120074e+02
1.1941862e+02
1.2921913e+02
1.6890555e+02
1.8163437e+02
3.1632974e+02
2.7952206e+02
1.9419810e+02
2.1016061e+02
1.8524457e+02
2.1742375e+02
3.4140460e+02
1.9564108e+02
2.2580357e+02
2.7667468e+02
3.2932379e+02
3.0203915e+02
2.4184441e+02
2.7158533e+02
2.9839426e+02
2.3132352e+02
2.1931638e+02
2.9467511e+02
2.2643173e+02
3.9758496e+02
2.2903098e+02
2.9364545e+02
2.7946326e+02
2.5096658e+02
3.3720871e+02
3.4287848e+02
4.6086115e+02
3.9640045e+02
3.3359378e+02
3.4900626e+02
1.8970976e+02
4.1593863e+02
2.3381433e+02
4.6409036e+02
3.9311703e+02
3.5086548e+02
4.1300153e+02
2.5713672e+02
2.5771436e+02
4.1788965e+02
4.0150589e+02
4.2455737e+02
4.8749777e+02
4.6207373e+02
4.2732187e+02
4.8857581e+02
4.1664856e+02
5.1729022e+02
5.7090552e+02
5.2195471e+02
5.0960547e+02
5.1749713e+02
5.5122699e+02
4.2782516e+02
5.5762854e+02
5.3100275e+02
6.1681934e+02
4.8508517e+02
2.6914676e+02
4.8392529e+02
3.2819699e+02
5.8098230e+02
6.8505023e+02
6.1293921e+02
5.6669342e+02
5.8453076e+02
5.9733612e+02
5.7266064e+02
5.7172559e+02
5.8007867e+02
6.9871100e+02
6.9079517e+02
7.1188416e+02
7.8274603e+02
7.0866687e+02
7.8851569e+02
7.4439771e+02
8.4516858e+02
7.0571198e+02
7.5908667e+02
7.6011493e+02
7.6008221e+02
7.6000806e+02
7.6403693e+02
8.9451123e+02
8.5552826e+02
7.5862036e+02
7.8176355e+02
8.2091034e+02
9.3300952e+02
8.5131305e+02
1.0324606e+03
8.2194855e+02
9.7184741e+02
9.8216455e+02
8.8959485e+02
1.0099099e+03
9.7641956e+02
1.1360784e+03
8.9850104e+02
9.6190015e+02
1.1181427e+03
1.2006798e+03
9.4953870e+02
1.2093073e+03
9.2847290e+02
1.0422854e+03
1.3197300e+03
1.1480529e+03
1.2515665e+03
1.0952529e+03
1.3913772e+03
1.1687075e+03
1.1747314e+03
1.1061693e+03
9.9647882e+02
1.1563110e+03
9.8634253e+02
1.5118230e+03
1.2995760e+03
1.4614325e+03
1.2647056e+03
1.3401014e+03
1.3213052e+03
1.1575538e+03
1.0776960e+03
1.3393640e+03
1.2220763e+03
1.3958206e+03
1.4134363e+03
1.4556340e+03
1.5113649e+03
1.3445267e+03
1.6708589e+03
1.3541614e+03
1.5652919e+03
1.3076216e+03
1.2204685e+03
1.4598514e+03
1.0226525e+03
1.5613862e+03
1.0289678e+03
1.5270291e+03
1.3967245e+03
1.3947314e+03
1.1557764e+03
8.3179028e+02
1.2291587e+03
1.9781083e+03
1.0821334e+03
1.5235121e+03
1.0738615e+03
1.5625452e+03
1.4032375e+03
1.7242212e+03
1.9446638e+03
1.4232837e+03
1.3632930e+03
1.4141097e+03
1.1485784e+03
1.3852056e+03
1.3430549e+03
1.6494354e+03
2.1571812e+03
1.7063756e+03
1.7191184e+03
1.6075259e+03
2.0085491e+03
1.5122267e+03
1.5654723e+03
1.7187412e+03
1.6630469e+03
1.5322271e+03
1.5307518e+03
1.9158528e+03
1.7567378e+03
2.2919050e+03
1.6866807e+03
1.4329686e+03
2.3791240e+03
1.6607188e+03
1.7950563e+03
1.9253026e+03
1.7414749e+03
1.6426465e+03
1.6431226e+03
1.2597483e+03
1.9293296e+03
2.1306562e+03
1.6947343e+03
1.7806652e+03
1.9419554e+03
2.2203645e+03
2.1034048e+03
2.0023673e+03
1.7880712e+03
1.7658220e+03
2.2824417e+03
2.0055551e+03
2.1860681e+03
2.0102719e+03
1.6800114e+03
2.0494380e+03
1.9977661e+03
1.9310980e+03
1.5500437e+03
2.0905159e+03
1.9187975e+03
2.1419751e+03
1.9421118e+03
2.3833228e+03
2.2616941e+03
2.2568748e+03
1.8943213e+03
2.1495386e+03
2.3003223e+03
2.3897817e+03
2.3376904e+03
2.0318574e+03
2.2902871e+03
2.5129778e+03
2.2441213e+03
2.1265994e+03
2.1479797e+03
1.7724198e+03
2.4871399e+03
2.4458733e+03
2.3137866e+03
2.2368882e+03
2.3632944e+03
2.1950823e+03
3.3286174e+03
2.4443633e+03
2.3456987e+03
2.4569158e+03
2.4859771e+03
2.3947500e+03
2.7240415e+03
2.7329597e+03
2.6354246e+03
3.1195618e+03
2.6426890e+03
2.3227231e+03
1.7141519e+03
2.8887034e+03
2.4429934e+03
2.3271885e+03
2.5312761e+03
2.9413792e+03
2.5761389e+03
2.3896804e+03
2.1764624e+03
2.5643511e+03
2.9791978e+03
2.5635847e+03
2.2806978e+03
2.8989612e+03
2.7052615e+03
2.2444973e+03
2.5733889e+03
2.5893516e+03
2.2725583e+03
1.9595302e+03
2.4342898e+03
2.6208245e+03
2.3223064e+03
2.9766956e+03
2.6652393e+03
2.3796582e+03
3.0499211e+03
2.3020869e+03
2.8913152e+03
2.5883181e+03
2.4236377e+03
2.6920039e+03
2.6941492e+03
2.8102000e+03
2.7615977e+03
3.1910718e+03
2.5371245e+03
2.0017067e+03
3.2881111e+03
2.9410342e+03
2.6537666e+03
2.8059055e+03
2.5641792e+03
2.9265049e+03
2.9069885e+03
2.5263127e+03
2.9189492e+03
3.7269607e+03
3.0845725e+03
2.5994126e+03
2.9281453e+03
2.5449031e+03
2.9787827e+03
2.5279680e+03
3.3861248e+03
2.4591367e+03
2.7748389e+03
2.5698149e+03
2.1363079e+03
3.0336995e+03
3.7250732e+03
2.7797339e+03
2.7002979e+03
2.6054021e+03
2.6248218e+03
2.1357253e+03
2.6104417e+03
2.2898215e+03
1.7550616e+03
3.4089988e+03
2.7473108e+03
3.4586853e+03
2.5490427e+03
2.8364822e+03
2.8441711e+03
2.7275254e+03
3.1730215e+03
3.8699211e+03
2.7134558e+03
2.3966755e+03
3.9508337e+03
3.1645403e+03
2.9549385e+03
3.0365117e+03
2.8267605e+03
3.2128359e+03
3.2538132e+03
3.1217805e+03
2.9749958e+03
2.2990027e+03
2.5742905e+03
3.0079939e+03
2.2711079e+03
2.3421021e+03
3.7797056e+03
2.9301101e+03
2.6346641e+03
2.6615183e+03
2.3596655e+03
1.7672742e+03
2.6215940e+03
2.9484998e+03
1.9971736e+03
2.4610515e+03
3.1704639e+03
2.3461326e+03
2.8571726e+03
3.3434458e+03
3.1393167e+03
2.5641213e+03
2.8089563e+03
1.9860841e+03
2.5784409e+03
2.6551785e+03
2.9975276e+03
3.4313840e+03
2.1483257e+03
2.8081484e+03
2.8120645e+03
2.8530818e+03
3.4038645e+03
3.4303962e+03
3.4724121e+03
3.1506858e+03
3.3171692e+03
3.1822944e+03
3.7258433e+03
3.7519075e+03
2.8435808e+03
3.2591372e+03
3.1022458e+03
3.7473010e+03
3.1462664e+03
2.4284402e+03
2.8357505e+03
3.3591450e+03
2.7956414e+03
2.4572666e+03
3.9184609e+03
2.6394878e+03
3.5491716e+03
2.6488789e+03
2.8169758e+03
2.7885586e+03
3.5615171e+03
3.4512539e+03
2.2707229e+03
3.2027134e+03
2.6915547e+03
2.8846118e+03
2.9942278e+03
3.2087249e+03
2.3212021e+03
2.9332964e+03
3.3615625e+03
3.4324712e+03
3.0375857e+03
2.7976685e+03
2.6090869e+03
3.3497466e+03
3.1754158e+03
3.1942737e+03
2.0938772e+03
3.1470974e+03
3.1272480e+03
4.0038481e+03
2.8127539e+03
2.1344136e+03
3.1465994e+03
2.7019983e+03
2.9688843e+03
2.6381221e+03
2.9749758e+03
2.5378044e+03
3.0998552e+03
3.6310955e+03
2.8673162e+03
3.5966709e+03
2.9335383e+03
2.7512678e+03
3.8119404e+03
2.9254995e+03
2.8350535e+03
3.2987280e+03
3.9571553e+03
3.2190415e+03
3.6857444e+03
2.3338521e+03
3.3419207e+03
3.8925632e+03
3.1883518e+03
3.1606555e+03
2.7493506e+03
4.8178330e+03
2.5540898e+03
3.9789541e+03
2.7560483e+03
3.0275801e+03
3.1020310e+03
4.4328315e+03
2.6051750e+03
3.8259719e+03
4.4725850e+03
3.1654070e+03
3.0935576e+03
3.0564702e+03
3.0213223e+03
3.8869312e+03
3.9260471e+03
2.7622600e+03
2.7130850e+03
3.5352375e+03
3.6529380e+03
4.4827124e+03
2.6362527e+03
3.9168113e+03
2.6551108e+03
5.3609453e+03
3.5537073e+03
2.6676133e+03
3.5191899e+03
3.7217114e+03
3.6218706e+03
4.5141050e+03
4.3442505e+03
3.2954963e+03
2.6595752e+03
2.9685657e+03
3.8941655e+03
3.7727981e+03
2.5056912e+03
3.2622310e+03
2.9968076e+03
4.4670420e+03
2.7055540e+03
3.5841082e+03
3.6648274e+03
2.9508281e+03
2.6547043e+03
4.1275044e+03
2.9360789e+03
3.5737368e+03
3.8681531e+03
3.1151887e+03
3.2397104e+03
4.4521162e+03
4.3278071e+03
4.5995615e+03
4.0128167e+03
2.5390308e+03
4.4685059e+03
2.9927876e+03
3.6917295e+03
2.4432363e+03
3.5434053e+03
3.0317205e+03
3.3967454e+03
2.8163896e+03
2.6961946e+03
3.1199141e+03
4.5709893e+03
3.5175723e+03
2.6548909e+03
3.2862451e+03
2.9705125e+03
3.4383000e+03
3.1316487e+03
3.3791514e+03
3.8734299e+03
4.7683501e+03
2.5582837e+03
5.2768169e+03
3.5992278e+03
2.4433821e+03
2.3451130e+03
3.1684563e+03
3.6007900e+03
2.8820813e+03
4.2602817e+03
3.7105701e+03
2.7124863e+03
3.3496829e+03
2.5891045e+03
3.2326052e+03
3.0964934e+03
2.8229817e+03
5.1364048e+03
3.5343320e+03
3.5966121e+03
3.5851572e+03
2.8142021e+03
2.4795571e+03
4.7674854e+03
4.9581230e+03
2.6653867e+03
3.3195576e+03
2.5151628e+03
3.0644651e+03
4.6071299e+03
2.6437214e+03
3.1723364e+03
3.0373066e+03
3.6436440e+03
2.3692568e+03
2.4735212e+03
3.5401260e+03
5.1262939e+03
3.4785959e+03
3.0550576e+03
4.0636189e+03
3.8464260e+03
2.6635898e+03
2.4575735e+03
3.3199229e+03
3.0591401e+03
2.4362561e+03
3.7541206e+03
2.6077234e+03
4.5881855e+03
4.4749541e+03
2.3367986e+03
2.4863875e+03
3.5423313e+03
3.0628655e+03
3.4804224e+03
2.6100732e+03
3.9658118e+03
3.7141956e+03
3.2777395e+03
4.2192607e+03
2.5173147e+03
3.0225864e+03
4.4463555e+03
4.5179995e+03
3.6620906e+03
4.4224814e+03
3.0899971e+03
4.9206494e+03
2.1432646e+03
3.0425684e+03
2.4621379e+03
3.2435276e+03
3.6421240e+03
4.1118555e+03
4.7690376e+03
4.3786685e+03
4.6206372e+03
3.9910671e+03
2.5737173e+03
4.2850269e+03
3.2450154e+03
3.1980325e+03
2.6520542e+03
3.5499871e+03
3.0287092e+03
2.6018391e+03
3.6054292e+03
4.1398071e+03
4.8934419e+03
2.8010383e+03
3.1330415e+03
2.9837576e+03
3.3464712e+03
3.3540186e+03
3.7718052e+03
3.8357102e+03
5.4210513e+03
4.6041768e+03
4.1336504e+03
3.7975471e+03
2.8029277e+03
2.7440979e+03
3.4643386e+03
4.4222837e+03
3.4949438e+03
4.4748174e+03
4.7516016e+03
4.1142324e+03
4.0585537e+03
3.4813970e+03
3.4179087e+03
3.1922136e+03
2.7084146e+03
3.3784817e+03
4.0443171e+03
3.2199714e+03
3.4469070e+03
2.5236323e+03
2.3719290e+03
5.5783408e+03
4.0704800e+03
3.4068474e+03
4.4369487e+03
2.2074106e+03
4.8117666e+03
2.7092410e+03
3.0827087e+03
3.5020938e+03
3.8782666e+03
2.7579978e+03
5.1732656e+03
2.6375332e+03
1.8668094e+03
2.2265039e+03
3.9132798e+03
3.7139355e+03
3.1573962e+03
4.3116001e+03
3.7948394e+03
2.4422339e+03
2.8539094e+03
2.6822834e+03
2.7862192e+03
2.8007617e+03
5.6561743e+03
4.2181924e+03
2.9694709e+03
3.5674805e+03
2.5182583e+03
3.2820562e+03
4.0699780e+03
3.8222263e+03
5.3266016e+03
6.2018726e+03
3.3588357e+03
2.7424065e+03
2.6585247e+03
4.7898438e+03
3.2352268e+03
3.2375427e+03
2.5858279e+03
2.1927705e+03
3.0627336e+03
6.4478071e+03
3.7287664e+03
2.4922686e+03
4.2323281e+03
4.1132451e+03
4.5743047e+03
3.4792649e+03
2.5834219e+03
2.7963276e+03
2.5635754e+03
5.3419058e+03
5.7864648e+03
4.3985664e+03
2.8790322e+03
3.1632366e+03
2.7682988e+03
3.8375186e+03
3.4339980e+03
2.9350112e+03
3.8799924e+03
5.8405205e+03
3.1665925e+03
2.6108428e+03
4.1308613e+03
3.5552444e+03
2.5080154e+03
3.1013140e+03
4.8078247e+03
3.7709170e+03
4.7229951e+03
3.8152795e+03
3.1021323e+03
3.9271416e+03
2.3723464e+03
3.0078945e+03
2.6394282e+03
2.2087432e+03
4.3866401e+03
2.6316304e+03
4.8560605e+03
2.6255862e+03
5.9222314e+03
4.0931416e+03
2.7200056e+03
3.8873757e+03
2.5509019e+03
6.3325752e+03
4.8717358e+03
3.3436870e+03
2.5813718e+03
3.1945901e+03
2.7467781e+03
5.0769419e+03
3.1811606e+03
4.1736172e+03
2.9247898e+03
6.5125156e+03
3.4029243e+03
2.3551335e+03
3.0565940e+03
5.0049653e+03
4.5533164e+03
2.5991089e+03
6.5864785e+03
7.1820459e+03
4.3314819e+03
2.6316196e+03
2.7024321e+03
5.1857109e+03
4.2549131e+03
2.5909485e+03
3.4480835e+03
2.4932009e+03
6.9458813e+03
3.2768701e+03
2.6342610e+03
3.1824399e+03
4.7899131e+03
2.7003955e+03
5.3427451e+03
4.1938701e+03
5.9967671e+03
5.8462109e+03
3.7369512e+03
2.8924194e+03
4.7017256e+03
3.5903682e+03
2.4740024e+03
2.9419785e+03
2.8411482e+03
5.0432930e+03
6.9934028e+03
4.5164492e+03
2.6416157e+03
3.3034033e+03
3.8975732e+03
4.9908628e+03
2.7731587e+03
6.5140889e+03
5.8199521e+03
3.5272969e+03
2.5776895e+03
2.9887183e+03
3.7153032e+03
4.5755195e+03
6.2395498e+03
4.3201504e+03
2.7050327e+03
2.8575259e+03
4.2338623e+03
3.8508630e+03
5.4666196e+03
4.7500928e+03
5.8227178e+03
6.0319326e+03
3.1258782e+03
2.7210657e+03
2.9797034e+03
5.0335444e+03
5.2364990e+03
4.5122773e+03
2.9248462e+03
7.4966392e+03
4.0817986e+03
2.8429714e+03
3.3134648e+03
5.6314619e+03
6.6261548e+03
6.7663818e+03
3.3275386e+03
2.6186267e+03
5.1757642e+03
3.1348699e+03
4.1974790e+03
4.5308525e+03
5.7362280e+03
3.2503350e+03
4.4796216e+03
2.7592612e+03
7.4353584e+03
3.3084011e+03
4.8530229e+03
5.6591333e+03
3.4178008e+03
3.6699207e+03
6.7171978e+03
6.3566362e+03
2.8154646e+03
4.1466108e+03
5.1660884e+03
5.4481050e+03
4.9946470e+03
3.6354971e+03
2.9998062e+03
5.1976782e+03
3.6030046e+03
3.6555513e+03
7.3221562e+03
3.9310171e+03
4.3725024e+03
5.3343745e+03
2.8979004e+03
5.9896675e+03
3.8416265e+03
6.0313003e+03
4.5470176e+03
4.1515752e+03
4.5491484e+03
5.0845811e+03
3.4635146e+03
3.1619077e+03
4.8390146e+03
3.6764971e+03
7.5203438e+03
4.4677686e+03
4.4139634e+03
3.7052314e+03
2.9528027e+03
6.2557769e+03
6.3729795e+03
5.4026997e+03
5.8849590e+03
4.7698564e+03
3.4046392e+03
3.8064932e+03
5.2495083e+03
5.2414775e+03
4.3059521e+03
3.7127610e+03
7.6978857e+03
6.4117354e+03
5.9518403e+03
3.7770349e+03
3.9061262e+03
3.3104731e+03
6.4844736e+03
6.6657412e+03
4.8743125e+03
4.4040620e+03
6.1600820e+03
3.4307407e+03
5.0588955e+03
5.3462163e+03
3.4860869e+03
3.8140803e+03
8.0387412e+03
5.2666201e+03
3.8253533e+03
5.1276250e+03
4.8274160e+03
3.7205117e+03
3.3290173e+03
6.7306934e+03
6.8822134e+03
4.4860781e+03
4.6670640e+03
3.4690325e+03
5.1100181e+03
5.4945815e+03
3.3227134e+03
5.7268071e+03
4.8736611e+03
8.2764727e+03
4.0123745e+03
3.6289988e+03
4.5924165e+03
3.9075728e+03
6.9170298e+03
7.1360176e+03
3.4570930e+03
3.4681775e+03
6.1639805e+03
5.1968594e+03
5.3685430e+03
5.1814771e+03
3.5806028e+03
8.5749355e+03
4.2020020e+03
6.4433174e+03
3.7056687e+03
4.1825718e+03
7.0383921e+03
7.5817290e+03
3.4579365e+03
6.0041147e+03
5.5544170e+03
3.3374771e+03
4.7688584e+03
6.0569526e+03
5.5176650e+03
3.4091350e+03
8.7700449e+03
4.7278213e+03
6.8195962e+03
3.8840500e+03
4.7711348e+03
5.4793281e+03
6.2137979e+03
4.2054790e+03
7.2887920e+03
7.7845820e+03
3.3269119e+03
4.9278125e+03
3.6272498e+03
6.4088354e+03
6.1428271e+03
4.3334834e+03
3.9694961e+03
8.8011406e+03
5.9668960e+03
5.6347217e+03
4.6681450e+03
4.1039482e+03
6.7419326e+03
4.5430493e+03
4.9838003e+03
7.4173145e+03
7.9353213e+03
3.4048101e+03
5.6364785e+03
3.7219846e+03
5.6161982e+03
5.9744009e+03
6.3659482e+03
4.0625198e+03
9.0336348e+03
5.2445356e+03
4.4308247e+03
4.1693184e+03
4.8405356e+03
4.6628462e+03
6.5766011e+03
5.7371855e+03
7.5920000e+03
8.2310850e+03
3.7904285e+03
5.6549614e+03
3.5507375e+03
5.0200015e+03
5.7617998e+03
6.3358794e+03
3.6715325e+03
9.3503350e+03
4.4903408e+03
5.1260903e+03
4.9406953e+03
6.3115640e+03
4.1375972e+03
4.1684868e+03
6.8661450e+03
7.9382700e+03
8.1671113e+03
3.6179590e+03
5.4443960e+03
4.9344277e+03
6.7875229e+03
4.4148525e+03
5.9408848e+03
3.7061953e+03
4.2987339e+03
9.0677812e+03
6.0120977e+03
4.2589033e+03
6.2358101e+03
4.9595078e+03
4.6323149e+03
4.2034048e+03
7.3174604e+03
7.6935820e+03
3.7978340e+03
8.0635244e+03
4.9634502e+03
5.1147656e+03
4.2261714e+03
6.8029360e+03
5.9731494e+03
5.8407769e+03
4.4748687e+03
4.4040322e+03
5.7986577e+03
8.8592412e+03
5.2746421e+03
3.6355168e+03
4.4354644e+03
4.1559756e+03
5.0042822e+03
7.3227461e+03
4.9146382e+03
3.8638806e+03
7.9329238e+03
7.8405581e+03
3.7148225e+03
5.7756401e+03
4.3642373e+03
5.9047490e+03
5.9534150e+03
6.6349341e+03
3.9134226e+03
4.8647852e+03
8.6025781e+03
4.5752769e+03
4.2237148e+03
4.6167383e+03
5.0131802e+03
6.6435249e+03
3.6888579e+03
5.3651304e+03
7.3278047e+03
7.6098916e+03
4.0994995e+03
5.6676533e+03
5.5575498e+03
4.4479893e+03
5.0239116e+03
6.0901353e+03
4.7533374e+03
5.3668159e+03
3.4981311e+03
9.0885029e+03
4.3015078e+03
4.6204077e+03
4.6509663e+03
5.5038931e+03
5.6419756e+03
6.6703755e+03
5.7954648e+03
4.0732561e+03
8.1183511e+03
7.6515640e+03
4.3301235e+03
4.8972725e+03
5.9223276e+03
4.9034468e+03
4.4090029e+03
5.7015542e+03
4.7200332e+03
3.7994348e+03
4.2337891e+03
5.6275601e+03
4.5921514e+03
9.6554482e+03
5.8207676e+03
4.6057305e+03
6.8860747e+03
3.6856135e+03
4.6785654e+03
4.0043960e+03
8.3722383e+03
8.0533550e+03
5.0597256e+03
6.0302539e+03
5.6821396e+03
3.8974629e+03
4.1390674e+03
6.4266143e+03
4.1652471e+03
2.8249221e+03
5.9306914e+03
3.9015876e+03
4.6504780e+03
9.1350527e+03
6.4427100e+03
4.6933755e+03
4.7113936e+03
3.7892458e+03
4.7655049e+03
3.8755840e+03
8.1457827e+03
8.0880693e+03
5.3751270e+03
5.4219375e+03
4.0460759e+03
5.5710854e+03
4.2471157e+03
3.4391416e+03
3.8415566e+03
6.6334214e+03
4.3748584e+03
4.5546851e+03
4.4878398e+03
6.4536182e+03
9.4089346e+03
4.7436982e+03
3.9186255e+03
4.5143247e+03
5.1403926e+03
8.5661514e+03
8.0165298e+03
5.8471899e+03
5.9610522e+03
4.9865825e+03
4.9929351e+03
4.0036824e+03
4.8051323e+03
3.6544331e+03
4.1329551e+03
5.8831724e+03
3.8128655e+03
6.4999849e+03
6.6911987e+03
4.6069067e+03
9.8127930e+03
5.9242676e+03
4.6324780e+03
3.6250864e+03
4.3736533e+03
5.4102769e+03
7.8441714e+03
7.5050444e+03
4.3711265e+03
4.1688643e+03
4.6961494e+03
4.7552051e+03
5.5391313e+03
6.1828130e+03
5.1859087e+03
5.2910229e+03
5.0724487e+03
4.3070127e+03
8.4373447e+03
3.8297312e+03
4.5942661e+03
6.9806509e+03
5.6963408e+03
5.8539053e+03
5.0497739e+03
4.6343511e+03
4.6125264e+03
4.0560879e+03
3.8051523e+03
3.3165032e+03
3.9378684e+03
4.2524844e+03
5.1216792e+03
5.4311216e+03
3.8835300e+03
7.1607280e+03
6.6613872e+03
8.0920664e+03
8.0676636e+03
9.0954531e+03
5.0172480e+03
5.1757368e+03
5.9326914e+03
4.1147373e+03
3.8338032e+03
4.7121895e+03
3.6110894e+03
4.2844102e+03
4.4696738e+03
5.9273701e+03
5.5997080e+03
3.5660217e+03
5.7412217e+03
5.0565005e+03
6.0752671e+03
4.7724038e+03
8.2934150e+03
7.1104351e+03
7.4328833e+03
3.7774094e+03
6.1267915e+03
4.1652607e+03
3.6913667e+03
4.6030913e+03
3.9413381e+03
5.2414346e+03
5.3430215e+03
3.7548721e+03
5.4292524e+03
6.2827773e+03
4.3721045e+03
6.3661250e+03
4.5742212e+03
8.0203232e+03
5.4265557e+03
3.7926636e+03
4.4268105e+03
3.6637832e+03
4.7707959e+03
5.7765444e+03
5.1161099e+03
5.1642168e+03
3.7361660e+03
5.3769800e+03
3.4681328e+03
7.0249912e+03
7.3313848e+03
3.8480710e+03
3.7299612e+03
4.3538618e+03
4.2493960e+03
4.4204951e+03
5.8749546e+03
6.1083306e+03
5.2577876e+03
4.2856621e+03
8.0340830e+03
3.6879390e+03
4.2951504e+03
5.2351294e+03
3.3947271e+03
6.1855713e+03
3.4710828e+03
6.7114258e+03
7.2126582e+03
4.4851235e+03
5.6231655e+03
4.5875830e+03
3.7151646e+03
4.3381533e+03
4.0111641e+03
5.3558809e+03
5.5161807e+03
4.3882266e+03
5.5713989e+03
4.5693350e+03
7.8428662e+03
4.1400381e+03
3.3858567e+03
4.2909873e+03
3.1400977e+03
4.9770093e+03
4.0757600e+03
5.8521851e+03
3.9590549e+03
6.4130684e+03
6.4435571e+03
5.0813394e+03
3.6088188e+03
5.2438828e+03
4.3582554e+03
4.8392852e+03
4.3156846e+03
3.7868030e+03
5.2576826e+03
4.6264873e+03
5.3497368e+03
7.5548354e+03
5.2324639e+03
3.4236450e+03
4.1691880e+03
5.5049316e+03
5.2853501e+03
4.8834351e+03
6.5027231e+03
6.6925503e+03
4.3512881e+03
5.8639204e+03
3.5951074e+03
4.2428882e+03
2.7064075e+03
4.3882715e+03
4.8290884e+03
3.9209902e+03
4.2787510e+03
6.4097900e+03
6.2002886e+03
4.8411191e+03
5.3052803e+03
5.1497739e+03
3.5862163e+03
4.2411919e+03
7.3313203e+03
3.2326257e+03
4.1937324e+03
3.5586436e+03
5.4641421e+03
4.5061118e+03
7.0440854e+03
6.8325566e+03
3.9123611e+03
5.0273643e+03
5.0396699e+03
3.0890803e+03
5.8343862e+03
5.8336636e+03
5.9444346e+03
3.7962437e+03
3.6913362e+03
3.3681240e+03
2.6752603e+03
4.8237886e+03
4.2365728e+03
7.3369736e+03
3.6037888e+03
4.8013022e+03
5.3801885e+03
4.7960249e+03
4.3697246e+03
4.0916514e+03
6.4543174e+03
6.7693662e+03
3.5743025e+03
4.9147129e+03
3.1733862e+03
4.7841348e+03
3.7694900e+03
4.0305562e+03
6.3489341e+03
5.8752578e+03
3.0104441e+03
3.9994136e+03
4.7752778e+03
4.6796821e+03
5.0425454e+03
7.0854482e+03
5.3897031e+03
3.5235166e+03
4.5606094e+03
4.6217158e+03
3.6178716e+03
3.3460254e+03
4.1891299e+03
4.1961377e+03
6.5249888e+03
6.6799839e+03
2.8337642e+03
5.4368115e+03
4.9305894e+03
4.8616133e+03
4.0807004e+03
3.1014529e+03
5.0929893e+03
4.9135278e+03
5.3087993e+03
4.6889009e+03
3.4906411e+03
3.5378740e+03
6.8815537e+03
3.3928469e+03
3.9714773e+03
4.5189932e+03
4.6163345e+03
4.3648257e+03
3.2737422e+03
2.6871750e+03
5.9871890e+03
6.4475107e+03
5.0250811e+03
4.0557419e+03
3.7420029e+03
3.6551865e+03
2.9267605e+03
4.2517002e+03
3.5515205e+03
5.9902114e+03
2.4540759e+03
3.7593108e+03
5.2640757e+03
3.5854028e+03
4.3424888e+03
6.7328271e+03
4.6711348e+03
4.7087529e+03
2.7822661e+03
3.2828823e+03
6.0855693e+03
6.4113198e+03
4.8974697e+03
4.1211299e+03
2.9059006e+03
3.4420044e+03
4.9238354e+03
3.7959138e+03
2.7550056e+03
4.5243682e+03
4.7908867e+03
3.1888716e+03
4.9395791e+03
6.6291113e+03
3.7222852e+03
3.1247324e+03
2.6309539e+03
3.2167476e+03
3.5385815e+03
2.4344873e+03
4.7400298e+03
4.4898228e+03
3.2339331e+03
5.7268579e+03
4.1482070e+03
6.1250005e+03
3.6767622e+03
3.3105337e+03
2.9093594e+03
2.4024868e+03
4.5529932e+03
3.1097278e+03
3.3141624e+03
5.0105137e+03
3.9419519e+03
5.4342217e+03
3.1629299e+03
4.9555400e+03
5.3366592e+03
4.0155815e+03
6.5467905e+03
4.9334468e+03
2.6100920e+03
3.3677639e+03
4.5125503e+03
3.8618782e+03
3.0465742e+03
5.9606313e+03
6.3314321e+03
2.8275815e+03
4.8098750e+03
2.5622444e+03
4.6582573e+03
4.3955645e+03
3.9693613e+03
6.2365322e+03
3.3995850e+03
5.1382256e+03
3.2834114e+03
6.3754023e+03
4.2612764e+03
3.4876904e+03
2.7530840e+03
3.3010366e+03
4.0993257e+03
4.0374592e+03
4.2235439e+03
4.8392090e+03
3.8530320e+03
5.8869512e+03
6.0239927e+03
5.0624502e+03
2.4471807e+03
3.4779946e+03
3.1457542e+03
3.5701667e+03
2.6569507e+03
4.0061655e+03
4.3857305e+03
3.2403591e+03
4.3165645e+03
2.8988186e+03
6.2390400e+03
3.9517952e+03
4.4127300e+03
2.9642661e+03
2.5777192e+03
3.1549482e+03
3.3282388e+03
4.5077510e+03
5.2036001e+03
3.8201462e+03
5.8526123e+03
3.0112559e+03
2.8556599e+03
4.3001138e+03
4.2266206e+03
5.3190542e+03
5.2930356e+03
1.9463035e+03
3.0589883e+03
4.3192100e+03
2.8543762e+03
4.9564429e+03
3.1007954e+03
3.0945676e+03
6.2623198e+03
2.5302185e+03
3.2008374e+03
3.4908257e+03
2.8683408e+03
4.3265073e+03
3.1510171e+03
4.2527539e+03
3.6014426e+03
5.1460820e+03
4.8132085e+03
4.8027407e+03
4.1668477e+03
2.4728357e+03
5.6880493e+03
6.0509561e+03
4.1051050e+03
3.2557468e+03
2.9067769e+03
3.9038074e+03
2.5247095e+03
2.9331340e+03
3.4072007e+03
5.1635103e+03
5.4799385e+03
2.9056746e+03
6.2274629e+03
4.2882612e+03
3.8775950e+03
2.6438306e+03
3.0483860e+03
3.0132825e+03
3.2442805e+03
4.5563398e+03
5.6360864e+03
5.6757036e+03
3.4667588e+03
3.0878743e+03
3.9330330e+03
3.8847844e+03
4.2640405e+03
4.0283098e+03
2.2821592e+03
2.0913132e+03
3.1483489e+03
2.6355137e+03
2.5099639e+03
3.7473645e+03
4.5459336e+03
2.7094365e+03
5.5000933e+03
2.9615852e+03
2.5300957e+03
4.3630967e+03
4.7061333e+03
3.0685422e+03
3.1731838e+03
5.0001240e+03
3.5048608e+03
4.8197041e+03
4.6502280e+03
5.3054155e+03
2.4312954e+03
4.1659131e+03
2.5360422e+03
2.7011763e+03
4.9318384e+03
2.8171653e+03
4.3149365e+03
3.2633306e+03
2.8076636e+03
3.3795259e+03
5.6936729e+03
4.1713047e+03
4.4559116e+03
4.4159312e+03
3.6116123e+03
2.7201687e+03
3.8789475e+03
5.0747402e+03
5.3519233e+03
3.8819226e+03
3.2332432e+03
2.8581848e+03
2.6615798e+03
3.9193042e+03
3.4487683e+03
5.1397935e+03
5.2013857e+03
5.2236636e+03
3.2255271e+03
4.5867671e+03
2.6872920e+03
2.6283057e+03
5.2893672e+03
4.3962607e+03
2.4459717e+03
5.8933960e+03
3.4049485e+03
3.5194812e+03
2.6430791e+03
3.9978076e+03
4.2475044e+03
5.1438452e+03
4.4838364e+03
5.4025425e+03
5.6733657e+03
3.3624900e+03
3.2150962e+03
2.7148228e+03
3.5192876e+03
5.1075928e+03
4.2305947e+03
4.6539604e+03
3.4616863e+03
2.7865371e+03
5.7666152e+03
3.1597944e+03
4.1032080e+03
2.5944114e+03
4.4933970e+03
5.7547764e+03
4.3750854e+03
3.5401375e+03
2.3750916e+03
3.7062971e+03
2.8206558e+03
3.2398140e+03
3.4508740e+03
3.6523464e+03
5.3226060e+03
3.7338433e+03
5.5988379e+03
2.1532273e+03
3.6097170e+03
2.6184587e+03
4.4514214e+03
3.1692261e+03
4.7129717e+03
4.2524409e+03
4.9740415e+03
5.0129937e+03
3.4837610e+03
4.2579624e+03
2.6543113e+03
4.4363652e+03
3.7006787e+03
5.5758237e+03
3.7264065e+03
2.6482715e+03
4.1801904e+03
2.5442734e+03
2.5855188e+03
4.1406367e+03
4.9194810e+03
4.8431138e+03
5.3396431e+03
3.1020186e+03
4.2211426e+03
2.9478206e+03
3.9887710e+03
3.3382798e+03
2.4246885e+03
2.3180457e+03
4.2624229e+03
3.6031777e+03
3.2502168e+03
2.4474099e+03
4.5562666e+03
5.5993340e+03
3.0064817e+03
4.7214155e+03
4.9687427e+03
2.6963240e+03
4.4692261e+03
3.8154512e+03
3.4558962e+03
4.2777319e+03
3.4053770e+03
3.1907412e+03
4.8108892e+03
5.1609839e+03
3.6566836e+03
2.2781282e+03
2.9272942e+03
2.6339534e+03
2.5595801e+03
4.4229487e+03
2.2615420e+03
2.5548777e+03
2.5256606e+03
4.8419580e+03
2.5854404e+03
4.0662214e+03
2.9387656e+03
4.2589346e+03
4.8436030e+03
3.8922866e+03
2.3716663e+03
2.7276448e+03
3.3293000e+03
4.2045659e+03
5.3885493e+03
4.1480400e+03
4.0537207e+03
3.2276704e+03
2.2044893e+03
2.4726770e+03
4.6073594e+03
4.7113979e+03
5.1706777e+03
5.4480059e+03
2.0246833e+03
4.4020986e+03
2.7938062e+03
3.7908323e+03
2.8342971e+03
2.2274473e+03
5.3097817e+03
3.2195291e+03
3.3428291e+03
3.5522605e+03
4.3584902e+03
4.9820303e+03
3.6432380e+03
2.3954360e+03
2.5050593e+03
5.7706797e+03
3.3719014e+03
4.7955132e+03
4.1561855e+03
5.0909810e+03
3.7540437e+03
2.0911130e+03
3.2892607e+03
4.6040610e+03
3.4789861e+03
4.2239209e+03
2.2139387e+03
3.0600754e+03
5.2405049e+03
4.2093784e+03
5.5864609e+03
2.4770769e+03
3.1752695e+03
3.8940884e+03
2.7194070e+03
2.8718337e+03
5.1391934e+03
4.6982720e+03
4.1323599e+03
2.3815659e+03
4.7517397e+03
2.6525793e+03
4.8637700e+03
3.2676560e+03
2.8164858e+03
2.2629854e+03
3.7248650e+03
5.8051426e+03
3.6046794e+03
2.2119614e+03
3.3541021e+03
3.7749956e+03
3.7384214e+03
2.6342378e+03
2.8776724e+03
5.0957773e+03
4.3085361e+03
5.5713242e+03
5.3443164e+03
2.8968591e+03
2.6927832e+03
3.1506355e+03
4.8246699e+03
3.3563391e+03
4.1487935e+03
4.0384014e+03
4.1541587e+03
3.7017510e+03
2.2465964e+03
3.2584375e+03
2.5420708e+03
4.7977622e+03
5.7484395e+03
4.9900190e+03
3.4183789e+03
5.0458594e+03
4.5531221e+03
3.2929424e+03
2.7371091e+03
4.2616172e+03
3.4195864e+03
3.5881064e+03
4.4867778e+03
2.6857742e+03
2.6948044e+03
3.4744585e+03
5.1012314e+03
5.4230464e+03
2.6247112e+03
3.5431963e+03
5.2121011e+03
3.3927000e+03
2.6271445e+03
4.0753267e+03
4.7545742e+03
2.4020789e+03
4.5435752e+03
4.8447407e+03
3.1386353e+03
3.9270044e+03
5.6948564e+03
3.9521282e+03
3.5707058e+03
4.0230022e+03
3.1511484e+03
3.4181819e+03
2.8715762e+03
2.4452698e+03
2.3755225e+03
4.8355127e+03
5.6391323e+03
5.8804868e+03
4.4947681e+03
5.3898696e+03
3.6925981e+03
5.0199951e+03
3.2826860e+03
2.6734514e+03
3.3149133e+03
3.0814958e+03
2.5888416e+03
4.2764414e+03
4.5995835e+03
3.7471099e+03
2.6157710e+03
3.4223181e+03
2.7707056e+03
2.3492124e+03
5.6861899e+03
5.9146987e+03
4.2891807e+03
4.6279116e+03
4.8430674e+03
4.3608154e+03
3.1725969e+03
4.4572114e+03
4.0022781e+03
1.8508684e+03
5.1280210e+03
5.0142935e+03
3.5734370e+03
5.5323354e+03
3.2302024e+03
5.8713369e+03
4.0149277e+03
3.7376516e+03
2.9129614e+03
2.3772502e+03
2.6394570e+03
3.3879138e+03
5.5162959e+03
3.5686389e+03
4.6253945e+03
5.3666118e+03
2.3266628e+03
2.4099038e+03
3.8567244e+03
3.1871174e+03
4.4427915e+03
2.9175889e+03
2.3729700e+03
5.5536860e+03
3.8810771e+03
4.9130889e+03
4.4181655e+03
3.5776636e+03
4.5194644e+03
3.5900747e+03
2.7314404e+03
2.7389524e+03
3.9152258e+03
5.2614424e+03
4.5348750e+03
5.2869341e+03
3.6814551e+03
5.3150576e+03
4.5046494e+03
5.6854966e+03
3.1146257e+03
5.4920469e+03
3.1004016e+03
5.1287876e+03
3.2965276e+03
3.7848401e+03
4.1938594e+03
2.6952170e+03
2.7385886e+03
2.8199758e+03
5.0482837e+03
2.7066138e+03
2.3941184e+03
5.8914243e+03
2.6349617e+03
2.8786753e+03
5.9294922e+03
5.5201426e+03
4.7020928e+03
4.5818369e+03
3.8528457e+03
3.6468748e+03
4.6454653e+03
3.8145195e+03
3.0493186e+03
4.8448838e+03
2.4117566e+03
4.3001284e+03
3.4674358e+03
5.7903384e+03
3.5705269e+03
5.2297427e+03
3.5921797e+03
4.9438379e+03
2.9357939e+03
5.0201157e+03
3.4682810e+03
3.0351365e+03
4.7193164e+03
3.7938152e+03
5.2228486e+03
2.7161799e+03
4.4833018e+03
2.4925300e+03
2.7044775e+03
5.8847769e+03
3.7398337e+03
3.5217625e+03
3.4615039e+03
3.8833152e+03
4.3846309e+03
3.3527822e+03
5.7364619e+03
2.5882195e+03
6.2162021e+03
2.8559531e+03
6.5606812e+03
4.3807915e+03
3.4425291e+03
3.9681868e+03
3.7598198e+03
3.2352998e+03
4.3810557e+03
3.6562117e+03
4.5440986e+03
3.8341289e+03
4.0353601e+03
4.4957251e+03
4.3755679e+03
5.1204907e+03
2.2981023e+03
2.6321292e+03
5.5930669e+03
6.0849238e+03
5.0466187e+03
6.2987661e+03
3.0656558e+03
4.1996680e+03
5.7579067e+03
2.7052285e+03
2.5408381e+03
3.0735933e+03
2.5901201e+03
4.2644380e+03
5.1487852e+03
3.9210742e+03
3.5027517e+03
6.2946680e+03
3.9859590e+03
3.8150930e+03
2.9197131e+03
4.1457803e+03
3.5736875e+03
4.3574360e+03
3.7077900e+03
4.3794336e+03
3.8839487e+03
5.1834609e+03
4.9461284e+03
6.0981362e+03
5.5038550e+03
4.1184097e+03
5.5926636e+03
6.2355342e+03
3.9487385e+03
3.1223594e+03
2.6285183e+03
3.2641619e+03
2.5093447e+03
3.7316882e+03
3.1563293e+03
3.8391245e+03
5.8139082e+03
4.5566973e+03
2.4634131e+03
2.8185640e+03
4.9122603e+03
3.9157026e+03
5.6384668e+03
2.6442310e+03
5.6383252e+03
5.6502993e+03
3.8613748e+03
3.8832615e+03
2.6113948e+03
3.2010188e+03
2.8708826e+03
2.8522314e+03
3.5124851e+03
3.7122114e+03
3.7713813e+03
4.1648628e+03
2.7435293e+03
3.9455225e+03
4.7841235e+03
2.7538108e+03
5.5579648e+03
4.6431245e+03
4.1644580e+03
5.6022881e+03
4.8571226e+03
5.2412734e+03
5.7928105e+03
3.3848303e+03
3.5452085e+03
3.3073428e+03
2.6951694e+03
2.5072026e+03
3.7237097e+03
4.9423770e+03
4.0888152e+03
5.1280894e+03
5.2840508e+03
5.4984419e+03
2.6141458e+03
4.0599648e+03
3.3407427e+03
4.0236135e+03
2.5957944e+03
2.9184041e+03
5.2961929e+03
5.5314038e+03
5.9376685e+03
4.5115708e+03
3.3815471e+03
2.8609199e+03
4.7164287e+03
2.7750554e+03
2.3260264e+03
3.7761685e+03
5.7289741e+03
4.4018813e+03
3.1600562e+03
3.5702629e+03
3.9237930e+03
4.4171812e+03
4.7058198e+03
5.6826919e+03
4.9464160e+03
5.2880361e+03
5.7608057e+03
6.3759146e+03
3.3666565e+03
3.4186985e+03
3.2195356e+03
2.7419988e+03
4.1357280e+03
3.0854055e+03
2.8134854e+03
4.9061797e+03
5.1564688e+03
4.1889014e+03
3.5571829e+03
4.2053135e+03
3.8338894e+03
2.9126013e+03
5.1969951e+03
5.7669287e+03
5.6076987e+03
7.2509824e+03
3.7409436e+03
6.0142261e+03
2.6071101e+03
3.2253882e+03
5.1226587e+03
2.9023713e+03
4.5693555e+03
7.1807075e+03
5.3109023e+03
5.7735586e+03
3.8484609e+03
3.8381104e+03
4.7208687e+03
3.8860208e+03
3.1126284e+03
4.3060381e+03
5.1819907e+03
4.5176689e+03
6.4553428e+03
2.5493162e+03
2.4975398e+03
5.6518438e+03
3.5493335e+03
3.8964661e+03
3.1171414e+03
6.5507085e+03
5.2645107e+03
2.6182310e+03
3.4744170e+03
5.9656880e+03
3.6277205e+03
3.2645012e+03
3.1558530e+03
4.0555435e+03
4.5021807e+03
4.6850210e+03
2.4540063e+03
4.2685996e+03
3.2304673e+03
6.9973896e+03
5.4466006e+03
2.7953521e+03
5.5813213e+03
5.9891226e+03
6.1518618e+03
4.5542207e+03
3.4436340e+03
7.3881416e+03
2.4714329e+03
4.4391860e+03
2.4613823e+03
2.9789233e+03
3.0166379e+03
3.3533875e+03
4.6164082e+03
4.2483530e+03
5.4464976e+03
4.4993032e+03
6.0432969e+03
3.8176384e+03
4.9022969e+03
5.7354526e+03
2.7495859e+03
6.4033838e+03
3.6386814e+03
2.7046919e+03
4.9252017e+03
2.7348193e+03
4.7728701e+03
3.2777539e+03
4.4878711e+03
6.5393877e+03
4.1538687e+03
5.7225552e+03
6.2922632e+03
3.7661860e+03
4.0373184e+03
3.0976096e+03
2.8105840e+03
5.2334131e+03
6.7615928e+03
7.2490117e+03
5.3613047e+03
4.8430396e+03
6.4677114e+03
5.4385288e+03
4.1697783e+03
6.3923008e+03
3.2153091e+03
4.8167603e+03
3.7378525e+03
6.0597656e+03
2.8716758e+03
3.1458997e+03
4.2372979e+03
4.4547012e+03
5.3528931e+03
3.5001252e+03
6.3131943e+03
4.4515767e+03
3.7114194e+03
6.2524053e+03
5.3477246e+03
5.9932158e+03
6.0147671e+03
4.7497842e+03
5.6021118e+03
3.8038149e+03
3.9622808e+03
3.7622273e+03
4.2477227e+03
2.9920435e+03
3.5405408e+03
2.9391663e+03
5.6518081e+03
5.1262056e+03
3.2684480e+03
6.3874370e+03
7.7878208e+03
5.5082441e+03
5.9606992e+03
5.9524741e+03
5.6933203e+03
4.9706396e+03
3.2559426e+03
5.5543286e+03
3.9903350e+03
3.2316511e+03
4.1169678e+03
8.0379336e+03
5.5553647e+03
6.0672261e+03
3.9582573e+03
4.5613975e+03
4.0921028e+03
4.0591301e+03
3.3554805e+03
4.1243804e+03
2.8547795e+03
7.3920259e+03
2.8445884e+03
5.4961401e+03
6.4917515e+03
5.4078770e+03
5.6317095e+03
4.9053433e+03
3.8144888e+03
6.6000737e+03
3.9262349e+03
3.1488521e+03
3.7814280e+03
6.1292891e+03
4.2062773e+03
4.9423179e+03
3.6048999e+03
3.9892778e+03
3.5414414e+03
5.4863931e+03
4.9880664e+03
2.5912847e+03
3.4323252e+03
4.8480586e+03
7.5560752e+03
7.1201870e+03
5.5493184e+03
6.2280742e+03
6.2577544e+03
4.7603315e+03
3.9422378e+03
4.0773105e+03
5.2892646e+03
5.6314902e+03
3.4307974e+03
3.2443228e+03
3.7711702e+03
3.3315544e+03
5.1976875e+03
3.6166829e+03
4.3083306e+03
5.3555225e+03
6.2247964e+03
5.9355469e+03
5.9068838e+03
3.7791963e+03
6.6677012e+03
3.8246953e+03
5.9400562e+03
5.4247300e+03
3.7583306e+03
4.8842090e+03
3.2452673e+03
4.9092695e+03
7.5904092e+03
5.6841602e+03
3.8266128e+03
3.7336672e+03
4.9582085e+03
5.9679775e+03
7.2492529e+03
4.8873369e+03
5.4409692e+03
4.3697080e+03
8.0958599e+03
3.5448997e+03
6.3298208e+03
4.5354697e+03
5.7069688e+03
5.7268730e+03
6.0860269e+03
7.2594507e+03
4.1018164e+03
4.8107725e+03
6.2408564e+03
3.4441213e+03
6.8560352e+03
4.1492256e+03
3.6334539e+03
5.2277324e+03
4.2310762e+03
4.4761357e+03
9.6897568e+03
2.5772031e+03
9.9129893e+03
4.4594941e+03
7.9577432e+03
6.0892163e+03
6.5126104e+03
6.5343682e+03
4.4605166e+03
6.2775659e+03
5.7709590e+03
5.2565098e+03
5.5335938e+03
3.2270847e+03
3.0707749e+03
4.8668691e+03
6.1136646e+03
3.8347063e+03
7.3147476e+03
4.0359272e+03
3.6564326e+03
3.6577820e+03
5.1479170e+03
6.1683716e+03
6.7178994e+03
7.3378599e+03
4.0568596e+03
6.3639033e+03
4.7641992e+03
3.1426699e+03
3.6584233e+03
7.5183291e+03
7.4763662e+03
5.9802534e+03
3.2077539e+03
5.1582046e+03
6.2549551e+03
5.6853267e+03
4.7426396e+03
4.7944082e+03
5.6386240e+03
5.1615645e+03
4.5909258e+03
7.9519204e+03
9.4090986e+03
6.2277002e+03
6.9549175e+03
4.4022773e+03
6.4697026e+03
6.3796279e+03
5.3050215e+03
4.0245635e+03
6.5450845e+03
7.2535093e+03
6.0952256e+03
3.5121794e+03
3.8317773e+03
4.0919319e+03
6.1028657e+03
8.7409053e+03
8.8222578e+03
4.4238105e+03
6.1020107e+03
7.4119009e+03
6.2682915e+03
4.6249590e+03
7.6228105e+03
4.4341440e+03
4.8508374e+03
6.4998218e+03
5.2762915e+03
3.8711848e+03
4.9016694e+03
3.2375298e+03
6.5947266e+03
3.4342122e+03
5.1200430e+03
6.3269473e+03
9.0510850e+03
4.2519473e+03
5.1479722e+03
1.0704694e+04
6.2406201e+03
6.6965283e+03
5.9288965e+03
9.2807920e+03
3.0420986e+03
6.3605767e+03
5.4858135e+03
6.6138042e+03
4.9094541e+03
4.4039971e+03
6.4192114e+03
5.2001167e+03
1.0117484e+04
6.2143999e+03
3.6878442e+03
6.5320425e+03
6.2744790e+03
5.8481724e+03
3.8902053e+03
5.4529844e+03
3.6485110e+03
5.6731436e+03
5.7153228e+03
3.5630166e+03
9.1566621e+03
4.5532158e+03
4.1680205e+03
6.2529854e+03
7.1649287e+03
6.5979019e+03
6.2808179e+03
7.2075562e+03
6.0216787e+03
5.4137949e+03
5.9522686e+03
5.9026978e+03
4.1729883e+03
2.5186499e+03
5.4588511e+03
3.3267478e+03
6.1797227e+03
8.9429805e+03
5.9371128e+03
8.1555161e+03
6.2205288e+03
6.0107729e+03
3.9672007e+03
4.4070562e+03
7.4478784e+03
6.4949023e+03
4.3421826e+03
7.1400371e+03
6.1112637e+03
4.3489805e+03
4.2365386e+03
5.3307979e+03
3.3078765e+03
6.4567212e+03
8.6227559e+03
6.6292988e+03
7.1250825e+03
3.8058987e+03
7.4799702e+03
5.6435142e+03
4.3907998e+03
9.8883730e+03
4.9006147e+03
9.9688799e+03
8.9962959e+03
4.9966577e+03
6.8330825e+03
5.6133462e+03
1.0752119e+04
3.9739617e+03
5.8270283e+03
4.6250503e+03
6.1566245e+03
6.3476372e+03
6.9316880e+03
4.1261060e+03
8.2303330e+03
6.9030176e+03
4.0223723e+03
6.5313052e+03
4.3463711e+03
6.7953677e+03
9.2413682e+03
5.7620796e+03
8.6192529e+03
5.5528843e+03
6.3218760e+03
6.9240596e+03
1.0396063e+04
3.5389407e+03
6.3523755e+03
5.9995771e+03
5.9364595e+03
5.2367349e+03
4.4805356e+03
6.3835562e+03
3.8046257e+03
5.0620166e+03
5.6174219e+03
7.4072974e+03
1.0538822e+04
9.9304883e+03
5.8427256e+03
4.7036294e+03
9.6899297e+03
6.4411880e+03
7.2825732e+03
6.4683901e+03
8.0375078e+03
4.7137476e+03
6.8581426e+03
6.3523975e+03
7.8713750e+03
4.7666182e+03
5.5439199e+03
3.6590664e+03
6.8666133e+03
7.9041084e+03
4.5922817e+03
5.6024360e+03
7.1203662e+03
5.0246250e+03
8.4855166e+03
4.9028545e+03
7.3400635e+03
6.3668101e+03
4.3882256e+03
1.0191504e+04
8.0950376e+03
6.6255283e+03
3.1082390e+03
6.2313374e+03
5.5042388e+03
6.3371782e+03
1.1643590e+04
4.6551035e+03
7.0591133e+03
7.3136514e+03
6.0813555e+03
5.0674307e+03
6.2830454e+03
4.1633491e+03
4.0677166e+03
6.1370718e+03
4.3039238e+03
6.1430552e+03
1.0584324e+04
7.5435303e+03
9.8702061e+03
7.5607715e+03
7.3965552e+03
6.9142622e+03
1.0419119e+04
4.5911772e+03
7.6776592e+03
6.8719790e+03
6.1728926e+03
5.0702158e+03
4.9505005e+03
7.6612627e+03
6.9583096e+03
5.0495059e+03
6.2219263e+03
1.0270175e+04
6.6098193e+03
1.0963688e+04
7.4329917e+03
6.9003110e+03
9.7362285e+03
5.5483926e+03
8.6221680e+03
7.1701479e+03
5.4467900e+03
6.0926953e+03
4.6759585e+03
8.2579072e+03
6.4556812e+03
8.7601650e+03
3.9984580e+03
7.4987373e+03
1.0170402e+04
4.6528057e+03
5.2299067e+03
8.4877725e+03
6.6132842e+03
5.9518169e+03
1.2799334e+04
5.5628765e+03
9.6664189e+03
8.0936909e+03
5.6366133e+03
8.4131592e+03
1.2769712e+04
7.1371978e+03
7.2804902e+03
7.8349028e+03
6.6754136e+03
8.1662261e+03
6.7783218e+03
7.6201582e+03
7.2036821e+03
4.2113823e+03
4.4184146e+03
5.0835786e+03
5.6165674e+03
3.2153535e+03
1.2087541e+04
6.3408394e+03
1.0278590e+04
7.3294883e+03
8.2480439e+03
9.5998145e+03
4.7461157e+03
8.3312207e+03
6.3063970e+03
4.3314365e+03
7.3052603e+03
6.9840806e+03
7.5718237e+03
3.6824756e+03
5.0041855e+03
6.6100132e+03
6.2151147e+03
1.1015955e+04
5.9963472e+03
1.0682753e+04
6.7130923e+03
7.1225947e+03
8.6301807e+03
5.9503462e+03
9.4999707e+03
7.2717607e+03
4.3686753e+03
4.2665264e+03
5.2361543e+03
5.1647734e+03
5.8643735e+03
5.4060464e+03
7.4609033e+03
4.4410991e+03
7.3761763e+03
7.2687363e+03
5.3147285e+03
9.9258105e+03
5.1652954e+03
4.8288081e+03
1.1115301e+04
4.3976479e+03
1.0227324e+04
6.9625073e+03
3.7861729e+03
8.9345615e+03
6.3128057e+03
7.2936831e+03
5.8010889e+03
1.1726395e+04
5.9921631e+03
6.6546792e+03
5.6060513e+03
4.8048730e+03
6.5530117e+03
7.1675576e+03
6.2139150e+03
4.1778545e+03
5.9744160e+03
6.7492637e+03
1.0869605e+04
3.5924299e+03
1.0189438e+04
6.6872329e+03
8.3983721e+03
3.9360645e+03
1.2034230e+04
8.3181299e+03
7.8165625e+03
5.4971323e+03
4.5820708e+03
6.8418779e+03
6.8169429e+03
3.8574629e+03
6.0818882e+03
7.9398701e+03
5.4147749e+03
5.7931782e+03
1.3685598e+04
1.3739401e+04
5.8974277e+03
5.5389634e+03
7.4721504e+03
7.7504844e+03
1.2892457e+04
6.2392495e+03
1.0846629e+04
8.9688916e+03
6.6883408e+03
8.9509248e+03
5.0219551e+03
6.4670747e+03
8.1551250e+03
4.9439126e+03
8.6387158e+03
1.1421425e+04
4.2284912e+03
4.6152534e+03
9.2707969e+03
5.4244614e+03
6.2376528e+03
1.2688192e+04
6.4883281e+03
5.5884600e+03
9.6982383e+03
8.4091182e+03
7.2981982e+03
6.2504868e+03
1.2563674e+04
5.8311377e+03
6.4278779e+03
9.8066006e+03
7.9203760e+03
9.0671436e+03
6.3618481e+03
5.1613003e+03
8.4774229e+03
8.2325137e+03
8.0661050e+03
3.5213381e+03
5.6897466e+03
1.2660465e+04
7.7543623e+03
7.2248945e+03
1.0388504e+04
8.6240547e+03
8.5791406e+03
1.1846655e+04
7.2276567e+03
9.3337178e+03
5.0050332e+03
5.8584829e+03
6.8264360e+03
8.3225244e+03
8.4763311e+03
9.2675254e+03
6.2719634e+03
4.8275190e+03
4.5399507e+03
6.4633628e+03
5.8329897e+03
1.3665033e+04
6.8460088e+03
6.3083086e+03
1.3514431e+04
9.4813857e+03
1.1087762e+04
5.8383271e+03
1.2006326e+04
7.7122573e+03
8.2415850e+03
1.0355130e+04
6.9973481e+03
6.9210205e+03
8.0487026e+03
5.2306621e+03
8.7143379e+03
6.7514243e+03
9.9742441e+03
1.2613180e+04
6.2866235e+03
4.2504316e+03
8.5799551e+03
5.3206958e+03
5.2893062e+03
1.1923368e+04
5.0156826e+03
5.7168994e+03
6.2711704e+03
1.3027501e+04
8.9537939e+03
6.4146729e+03
1.2839366e+04
6.8441445e+03
6.7647246e+03
1.2706211e+04
7.2244658e+03
7.9110415e+03
7.5387554e+03
6.6756860e+03
1.0646612e+04
5.5434702e+03
4.6647690e+03
8.0251069e+03
5.4347012e+03
7.6056582e+03
4.8458057e+03
1.0882100e+04
1.6872967e+04
7.4450518e+03
9.3069160e+03
1.1878653e+04
9.7018584e+03
5.2346196e+03
5.7008306e+03
1.3228061e+04
8.2344951e+03
5.6526338e+03
1.1637703e+04
8.9786006e+03
6.4066865e+03
4.1285000e+03
9.3109297e+03
5.4277783e+03
1.2581715e+04
6.1539814e+03
5.7656299e+03
1.7662867e+04
6.2682881e+03
1.3139938e+04
7.8359189e+03
7.8247773e+03
1.7055379e+04
8.4212285e+03
3.9763972e+03
1.4304589e+04
8.5736074e+03
8.5208506e+03
5.0641528e+03
1.0140272e+04
5.9059785e+03
1.4352651e+04
1.0637992e+04
1.2830416e+04
5.0480127e+03
1.6457031e+04
7.4936289e+03
1.6017848e+04
5.2575669e+03
9.1173496e+03
4.5630942e+03
7.1581914e+03
6.8366206e+03
9.9294014e+03
9.6445303e+03
1.2288954e+04
7.7989165e+03
8.5837168e+03
5.5771294e+03
1.4607695e+04
5.3732471e+03
4.6845928e+03
8.3972305e+03
1.5605545e+04
5.7778291e+03
1.0865515e+04
7.6749209e+03
5.6283623e+03
1.1787939e+04
4.1837759e+03
1.3914575e+04
6.8882354e+03
8.5700244e+03
8.9163701e+03
7.9897646e+03
6.3847100e+03
1.1528135e+04
1.0418978e+04
6.4840571e+03
1.2542705e+04
9.4232412e+03
5.2701123e+03
7.5953901e+03
9.8632412e+03
7.7988906e+03
1.6885623e+04
5.4638774e+03
9.1236113e+03
6.2961709e+03
6.7471426e+03
1.0088193e+04
4.4039062e+03
7.0592100e+03
1.2212967e+04
9.1642744e+03
7.4097661e+03
1.4741504e+04
1.2911526e+04
9.7201582e+03
8.8421299e+03
5.4836426e+03
6.1905679e+03
1.1622628e+04
7.6611621e+03
1.5268908e+04
7.5040122e+03
1.0649328e+04
8.7902227e+03
1.4581253e+04
6.8640640e+03
9.8468291e+03
7.0913853e+03
8.6682148e+03
8.6767998e+03
6.1607422e+03
9.8401094e+03
5.6937378e+03
6.6307202e+03
6.1041729e+03
8.6939521e+03
8.5131475e+03
1.3930550e+04
9.7337061e+03
5.3323618e+03
8.5037910e+03
6.4133545e+03
1.8106822e+04
1.1599280e+04
1.2765444e+04
7.0515483e+03
1.5039309e+04
1.2661220e+04
1.0757507e+04
8.2449033e+03
6.8783545e+03
1.6696357e+04
1.3460013e+04
6.5831670e+03
5.4419106e+03
8.7793916e+03
1.5436229e+04
1.2347172e+04
8.7822686e+03
8.7845293e+03
7.7164536e+03
1.0591197e+04
6.9189897e+03
1.0301170e+04
8.2053633e+03
6.7503726e+03
1.8512791e+04
8.3076328e+03
7.4646699e+03
5.8868584e+03
7.0481108e+03
9.8941514e+03
8.6696611e+03
7.9967646e+03
4.4010156e+03
6.5068462e+03
5.1019746e+03
1.1928443e+04
7.0735264e+03
1.3604614e+04
1.4367182e+04
9.2526367e+03
1.5994833e+04
1.2098143e+04
1.6462980e+04
1.5618701e+04
1.1001513e+04
1.1834891e+04
1.0028471e+04
9.2298887e+03
5.4125459e+03
7.7602856e+03
9.1860332e+03
9.6011436e+03
6.2636465e+03
9.0672412e+03
5.3847812e+03
7.5966987e+03
8.6656152e+03
8.9017666e+03
5.9433184e+03
7.3863970e+03
5.0090767e+03
7.8787319e+03
1.6962059e+04
6.3307705e+03
7.3875889e+03
7.0799116e+03
1.0086793e+04
5.7295684e+03
1.3342961e+04
5.5023130e+03
6.5660552e+03
7.7215947e+03
7.0251104e+03
1.4596837e+04
5.9899937e+03
1.2934819e+04
8.7906299e+03
1.5249043e+04
9.9594072e+03
1.0232518e+04
9.3443262e+03
4.5183809e+03
7.4275469e+03
1.2805670e+04
5.2799170e+03
5.6080498e+03
6.4330620e+03
1.2124782e+04
9.5415840e+03
1.0038796e+04
8.2411426e+03
1.4779329e+04
1.2919840e+04
1.0337688e+04
5.4668877e+03
9.8903643e+03
6.7537964e+03
1.1892513e+04
5.9598906e+03
9.8704912e+03
5.8397466e+03
9.6000615e+03
7.1232046e+03
5.7728877e+03
7.0466167e+03
8.8433330e+03
7.8133125e+03
9.6411826e+03
1.3308929e+04
6.8782637e+03
6.3725796e+03
9.7018232e+03
6.9406094e+03
1.7070600e+04
1.2645315e+04
1.3499292e+04
1.0300612e+04
1.5921509e+04
7.9589995e+03
8.1070942e+03
4.9583350e+03
9.8869082e+03
1.0954212e+04
1.4131323e+04
8.6713867e+03
5.6389824e+03
1.3214790e+04
5.2702817e+03
5.8454238e+03
1.0589253e+04
8.6451221e+03
9.7140557e+03
7.9808569e+03
1.0207828e+04
1.3335186e+04
7.6077114e+03
8.7561816e+03
1.5644664e+04
5.6125830e+03
4.7375923e+03
1.2591250e+04
6.9736787e+03
1.1731594e+04
1.0025426e+04
5.1460732e+03
8.5578262e+03
1.6267312e+04
6.4589478e+03
4.0338289e+03
8.2366807e+03
5.4297119e+03
7.4683872e+03
6.9318511e+03
6.0707031e+03
6.7865679e+03
1.7435271e+04
1.0053186e+04
9.5317295e+03
4.5526191e+03
1.2227634e+04
6.6041616e+03
1.1073975e+04
9.1735410e+03
7.9487847e+03
1.5998606e+04
1.7387453e+04
1.1576493e+04
7.7563652e+03
7.1770283e+03
4.5278306e+03
5.6170571e+03
7.5402764e+03
4.9116660e+03
1.1719525e+04
6.4185220e+03
1.2547952e+04
1.1576293e+04
5.3645078e+03
1.1558814e+04
9.1502354e+03
4.3858594e+03
7.3010894e+03
8.6899238e+03
4.9311494e+03
1.4503566e+04
6.5721992e+03
1.8410486e+04
1.0438827e+04
7.5765776e+03
8.4318975e+03
9.7832129e+03
8.8367422e+03
1.2763722e+04
1.3160425e+04
9.3658213e+03
6.2876245e+03
5.1930059e+03
4.5645205e+03
3.9176399e+03
7.7873574e+03
6.0648110e+03
4.7336724e+03
7.8354263e+03
1.3964226e+04
6.8535337e+03
7.2841006e+03
1.6114341e+04
1.2214085e+04
4.0041118e+03
7.6122778e+03
7.4906631e+03
6.5923857e+03
8.6511660e+03
1.2761854e+04
1.0366106e+04
1.6271419e+04
7.9308296e+03
4.6414180e+03
4.1632456e+03
8.4670117e+03
4.7350923e+03
4.2981416e+03
1.2297719e+04
6.9805010e+03
4.8145112e+03
8.9503057e+03
1.0661615e+04
1.8169656e+04
1.0133535e+04
1.3939280e+04
1.1057065e+04
1.3449486e+04
6.6709844e+03
7.2673516e+03
5.5611680e+03
5.0961338e+03
5.9526636e+03
8.7749287e+03
9.2907988e+03
6.1419214e+03
1.1706505e+04
1.5443165e+04
9.8133896e+03
6.1777866e+03
3.8297212e+03
1.6552334e+04
5.6914277e+03
1.5925885e+04
1.1320627e+04
3.8582659e+03
8.0926704e+03
5.9904268e+03
4.7232202e+03
1.2411346e+04
4.3101519e+03
9.0982451e+03
8.2140791e+03
7.8666021e+03
4.7576074e+03
4.9220024e+03
1.0919253e+04
1.5332945e+04
9.9874404e+03
6.8079463e+03
3.5900559e+03
9.2765605e+03
7.8564839e+03
1.3668999e+04
7.2318760e+03
1.1629574e+04
1.5112086e+04
7.3361362e+03
4.1336060e+03
4.7535347e+03
7.7099517e+03
1.1583754e+04
7.6880815e+03
8.8954473e+03
8.9485674e+03
8.4201543e+03
3.3573252e+03
1.1043204e+04
1.3205152e+04
4.6916719e+03
5.1701958e+03
8.1285669e+03
1.1992246e+04
9.0222910e+03
3.6318882e+03
5.5522173e+03
1.3016490e+04
4.8837822e+03
5.3744829e+03
6.2285190e+03
1.0213685e+04
1.2803622e+04
3.5699521e+03
9.9326641e+03
1.0056337e+04
1.4066866e+04
7.8994712e+03
5.2776074e+03
7.4586284e+03
5.7167891e+03
8.1216719e+03
5.0809243e+03
5.8880625e+03
6.5248857e+03
1.0874497e+04
3.6731340e+03
1.4808046e+04
1.0572837e+04
7.2536826e+03
1.6625713e+04
8.1548960e+03
3.8098726e+03
1.1074109e+04
1.4345271e+04
3.9424868e+03
5.9795459e+03
1.1848857e+04
7.7829141e+03
7.0490708e+03
8.5186748e+03
9.0002363e+03
4.9693618e+03
4.4950869e+03
5.4286064e+03
1.3036741e+04
1.6799771e+04
3.9503101e+03
7.7598584e+03
1.1820029e+04
5.8160342e+03
1.1485998e+04
1.5100167e+04
9.7845635e+03
6.0474639e+03
1.1987699e+04
5.1027876e+03
8.8046777e+03
3.3308845e+03
7.4953594e+03
4.3131519e+03
6.9563848e+03
1.4312404e+04
3.8976692e+03
1.2833765e+04
1.6041698e+04
9.2078525e+03
6.3858521e+03
8.1280366e+03
4.0792766e+03
1.1339452e+04
7.1802949e+03
8.5540479e+03
5.1030117e+03
6.3196792e+03
1.2501998e+04
1.0228842e+04
7.3635400e+03
3.9429045e+03
1.6680789e+04
7.1154897e+03
3.1464524e+03
1.3943313e+04
4.4699243e+03
5.4560474e+03
9.1392490e+03
1.8017738e+04
4.5417549e+03
1.3381289e+04
1.1150123e+04
7.7865586e+03
4.3754033e+03
1.3127782e+04
7.6858066e+03
7.9138462e+03
5.7861299e+03
6.8113433e+03
7.8302729e+03
6.7509395e+03
7.4180923e+03
4.7072822e+03
1.1122103e+04
1.3273987e+04
9.0644248e+03
1.6143395e+04
5.1995708e+03
6.1609614e+03
3.6528154e+03
8.3074570e+03
1.1077962e+04
1.4807245e+04
1.3180817e+04
7.6099653e+03
9.9050703e+03
4.2485430e+03
1.0097671e+04
3.0868855e+03
5.9691538e+03
4.3956328e+03
5.6981880e+03
6.2978442e+03
1.0813448e+04
1.6920430e+04
1.1307407e+04
6.0204517e+03
1.4059986e+04
1.3997079e+04
6.2079980e+03
1.3782284e+04
1.0878256e+04
1.4731389e+04
3.9506040e+03
6.5969438e+03
6.4270864e+03
1.0252973e+04
7.7699229e+03
4.6876562e+03
3.9778909e+03
4.0691848e+03
1.1388921e+04
1.3058893e+04
1.6263196e+04
5.2613164e+03
6.0534321e+03
9.9922900e+03
1.0585532e+04
1.1927552e+04
5.1288101e+03
1.5236976e+04
9.7268779e+03
4.6177559e+03
6.8334922e+03
8.8680830e+03
1.0702893e+04
8.1179497e+03
5.6591318e+03
8.9615371e+03
1.2057688e+04
1.3443742e+04
9.0766836e+03
5.5813330e+03
8.8654141e+03
4.9756260e+03
7.5488389e+03
6.4787676e+03
1.4181316e+04
1.1099946e+04
1.4345822e+04
1.4539763e+04
6.0705254e+03
4.3224531e+03
5.1924155e+03
4.6604897e+03
3.9063877e+03
5.8504526e+03
5.7759326e+03
3.9101206e+03
9.1980254e+03
7.5460322e+03
1.2642355e+04
1.0846388e+04
1.5417269e+04
4.3554302e+03
8.6783965e+03
7.6163540e+03
6.3273872e+03
1.2883444e+04
1.3803548e+04
4.0403965e+03
4.0406035e+03
1.1398737e+04
6.6193467e+03
6.5257505e+03
7.6961841e+03
9.0538115e+03
1.0883878e+04
9.6622695e+03
3.7444021e+03
6.0564766e+03
4.9554126e+03
1.1124395e+04
1.5647506e+04
1.1480900e+04
1.1964562e+04
1.1695872e+04
1.4262913e+04
9.0906855e+03
8.8936982e+03
6.0262441e+03
7.5748794e+03
5.4719219e+03
4.6604946e+03
5.1228892e+03
4.4324702e+03
3.6860730e+03
8.2724678e+03
4.5171411e+03
4.8324429e+03
8.3822998e+03
5.7216675e+03
3.1539812e+03
1.3016397e+04
5.0297441e+03
1.3161833e+04
1.3555189e+04
1.0285181e+04
9.0348213e+03
3.9022920e+03
1.4253927e+04
7.8426099e+03
9.2895869e+03
5.8804878e+03
9.7300508e+03
8.5837236e+03
7.6771650e+03
6.7463760e+03
8.9725449e+03
1.5441488e+04
1.3142835e+04
1.0241451e+04
8.0136860e+03
5.0361733e+03
3.6378655e+03
4.6052808e+03
1.2179438e+04
5.7445156e+03
1.2108967e+04
8.7925527e+03
6.0414946e+03
1.1215784e+04
1.7418102e+04
4.7093403e+03
6.0489111e+03
1.3682549e+04
4.8254321e+03
9.5135791e+03
6.1676128e+03
1.1434262e+04
3.9636624e+03
4.9828555e+03
4.4655435e+03
6.9159390e+03
8.6962988e+03
5.7641235e+03
3.5611453e+03
5.4817109e+03
7.2476191e+03
1.1055962e+04
6.4265205e+03
5.3805308e+03
1.5601072e+04
1.1517643e+04
6.8457222e+03
1.3098917e+04
8.6120439e+03
1.4926713e+04
4.8907510e+03
3.1417507e+03
6.1467466e+03
8.6078008e+03
7.4880156e+03
4.0144868e+03
3.1297170e+03
1.0658715e+04
3.3882083e+03
5.1852100e+03
1.3181785e+04
4.9947012e+03
1.0946159e+04
8.9390654e+03
9.4866250e+03
1.5238588e+04
1.2034404e+04
4.4995527e+03
6.8043647e+03
8.5804766e+03
1.1638182e+04
5.6491118e+03
1.2891949e+04
1.5404584e+04
1.3038567e+04
1.0012628e+04
8.1816006e+03
4.2190630e+03
4.9535845e+03
4.3443306e+03
9.7247080e+03
4.3145488e+03
3.4083479e+03
6.6069155e+03
1.2817857e+04
1.4164799e+04
6.0698433e+03
9.9669492e+03
1.1490047e+04
6.4120400e+03
1.2604587e+04
2.4308735e+03
7.9120122e+03
7.1941226e+03
6.7435859e+03
3.7206672e+03
7.9202290e+03
9.4593799e+03
5.9887935e+03
3.9325620e+03
4.8481978e+03
6.4044722e+03
1.0974629e+04
3.3665217e+03
8.3745449e+03
6.0520298e+03
5.8790171e+03
1.3053964e+04
3.4672229e+03
1.1592305e+04
9.8213877e+03
1.4856504e+04
5.8373872e+03
1.3273064e+04
4.3476372e+03
4.0147566e+03
5.5163198e+03
2.7256628e+03
4.7475811e+03
2.1831602e+03
7.5293271e+03
4.5951450e+03
9.8437861e+03
1.0844143e+04
7.3701421e+03
3.4811091e+03
8.7616533e+03
6.7694688e+03
7.5668984e+03
9.3972432e+03
1.5148795e+04
8.2777480e+03
5.4615557e+03
1.2709042e+04
1.0095797e+04
8.0209136e+03
8.8930352e+03
4.0025925e+03
1.4523343e+04
2.5565891e+03
8.3997998e+03
3.6473774e+03
4.4223306e+03
4.1768188e+03
1.1861900e+04
5.9062554e+03
3.0763748e+03
4.3346162e+03
5.0318198e+03
3.4834321e+03
8.4023486e+03
1.4454991e+04
1.0301933e+04
1.0277261e+04
6.2017251e+03
1.2329702e+04
2.8908022e+03
1.1252779e+04
1.1206359e+04
1.3010779e+04
8.1050771e+03
5.9008447e+03
6.4547329e+03
3.2050222e+03
1.5556022e+04
8.8036279e+03
1.0428168e+04
3.7467744e+03
3.4866038e+03
7.4901641e+03
5.3435327e+03
1.1608892e+04
1.3271152e+04
3.2331494e+03
1.1899465e+04
4.1135498e+03
4.2703579e+03
4.4086611e+03
7.0881211e+03
7.7037725e+03
8.0718135e+03
5.3367041e+03
3.9109089e+03
3.1009546e+03
6.1006094e+03
4.2322456e+03
5.2519321e+03
4.8113877e+03
6.4281616e+03
1.1653500e+04
1.0319600e+04
1.3652712e+04
7.7407065e+03
4.1191904e+03
1.3567010e+04
9.3512881e+03
1.3067812e+04
6.7742280e+03
1.3844690e+04
2.8264810e+03
8.7010908e+03
4.2878350e+03
4.5314487e+03
9.0912344e+03
3.3065288e+03
2.8791587e+03
4.7939048e+03
7.8252178e+03
3.6711909e+03
8.4972598e+03
1.0347251e+04
7.4267974e+03
1.2433085e+04
1.1530547e+04
1.2982986e+04
8.6754502e+03
1.4248957e+04
5.0341958e+03
4.4936650e+03
3.1876665e+03
9.6143711e+03
9.5473613e+03
4.9326230e+03
1.1472242e+04
3.5625754e+03
1.0253601e+04
3.5455784e+03
4.6580703e+03
5.5044321e+03
1.1524740e+04
2.9464846e+03
6.7952783e+03
1.5001479e+04
1.0325968e+04
3.3862627e+03
5.3587959e+03
4.2583105e+03
1.1158348e+04
1.2374661e+04
1.3586821e+04
1.1946188e+04
9.6237842e+03
7.6019702e+03
4.9379570e+03
5.3495269e+03
6.9199907e+03
4.4247310e+03
8.3454033e+03
3.6029841e+03
4.5536304e+03
2.4776257e+03
3.0002632e+03
3.2474387e+03
4.6044600e+03
4.5038428e+03
9.6027520e+03
7.4134058e+03
7.8559189e+03
9.7481738e+03
1.3874225e+04
9.9676299e+03
1.2078019e+04
4.9428237e+03
1.3692076e+04
8.0852646e+03
5.7843462e+03
1.3105332e+04
7.2465278e+03
5.4969043e+03
2.9652297e+03
3.2972249e+03
5.7315874e+03
5.4176528e+03
3.0655442e+03
3.2702153e+03
1.1207281e+04
1.3022730e+04
8.2431553e+03
5.6926812e+03
5.7378335e+03
1.1321344e+04
8.5307432e+03
7.5886978e+03
1.4458064e+04
1.2761952e+04
3.6216099e+03
6.8884321e+03
1.0754463e+04
3.9194502e+03
3.8127986e+03
1.0062143e+04
1.1077023e+04
4.3585801e+03
4.2714526e+03
3.5600015e+03
5.1516626e+03
8.4553604e+03
3.0487383e+03
6.2687891e+03
9.5267725e+03
1.3289377e+04
9.5096807e+03
7.3682783e+03
4.1049458e+03
1.1599544e+04
9.4549131e+03
7.1056362e+03
4.0288799e+03
5.0462017e+03
1.2774335e+04
7.8837388e+03
2.5256914e+03
9.3420869e+03
1.0136003e+04
1.1599284e+04
3.1655601e+03
5.3153364e+03
3.8892991e+03
5.0701821e+03
5.3297607e+03
7.3917627e+03
4.2557368e+03
1.3224850e+04
1.0238036e+04
5.3083892e+03
6.5227007e+03
1.0762480e+04
1.1684816e+04
3.0841667e+03
6.6521689e+03
1.0719575e+04
1.2443440e+04
9.0266035e+03
6.8759458e+03
6.0850708e+03
5.0993188e+03
9.3603691e+03
2.9205730e+03
3.8387751e+03
3.6348152e+03
3.2340002e+03
1.4167596e+04
9.5432480e+03
6.3263179e+03
2.9008501e+03
1.0820983e+04
4.6709336e+03
1.4306893e+04
7.6984678e+03
9.6908857e+03
9.6263037e+03
6.1018799e+03
1.1689189e+04
1.1460354e+04
5.1373301e+03
4.7356431e+03
3.7939824e+03
7.7583618e+03
8.1310508e+03
6.9795166e+03
2.1325320e+03
4.6697646e+03
3.8430017e+03
3.2717085e+03
6.5250547e+03
1.1444228e+04
9.7113564e+03
1.2848639e+04
7.2442656e+03
5.7359644e+03
1.0975565e+04
7.1017432e+03
1.3730545e+04
5.0471768e+03
1.1198124e+04
2.2256121e+03
3.6154241e+03
5.1661572e+03
4.0057998e+03
9.0289551e+03
4.1978677e+03
3.6705754e+03
1.0761842e+04
9.0654541e+03
2.1350957e+03
3.5463064e+03
6.8481924e+03
4.2238237e+03
8.0861816e+03
5.9016870e+03
7.9974644e+03
3.1651270e+03
1.2294320e+04
7.6625288e+03
6.6977969e+03
4.8377383e+03
2.9267949e+03
1.0688292e+04
8.6616797e+03
1.2002240e+04
1.2790181e+04
4.4532085e+03
8.0780776e+03
2.5682620e+03
3.2336519e+03
1.1027635e+04
2.5396841e+03
5.6181714e+03
6.3728721e+03
6.8422871e+03
1.3208171e+04
4.5367847e+03
1.0997297e+04
1.0691831e+04
3.9023633e+03
1.0936141e+04
1.1893695e+04
7.3115713e+03
7.6637778e+03
5.4502256e+03
3.9738105e+03
2.4093018e+03
9.6423145e+03
1.1865374e+04
7.5272344e+03
8.0267593e+03
1.3129443e+04
3.5007307e+03
4.0433274e+03
2.9865608e+03
4.9728892e+03
2.7583701e+03
9.3745381e+03
1.2972222e+04
4.0064990e+03
1.2601400e+04
7.0210737e+03
3.8808318e+03
7.7942710e+03
5.9410933e+03
6.8284810e+03
3.6222637e+03
6.7461201e+03
2.2747744e+03
9.4465391e+03
1.1025005e+04
2.3880720e+03
5.7454272e+03
3.8336387e+03
8.9224707e+03
1.2086317e+04
1.1048587e+04
9.1769697e+03
1.2262928e+04
6.7304287e+03
1.3398246e+04
7.5643130e+03
5.0377627e+03
1.2837942e+04
1.0532977e+04
3.8317664e+03
2.1082527e+03
9.4054746e+03
2.6460542e+03
4.0519888e+03
6.0631978e+03
3.6079841e+03
6.3408584e+03
8.5142080e+03
5.0577925e+03
2.2345693e+03
3.3502671e+03
5.1712842e+03
3.9368960e+03
7.7072271e+03
2.6917915e+03
8.5947109e+03
2.2719070e+03
3.0472532e+03
2.6536697e+03
5.3037393e+03
3.5901816e+03
7.4332129e+03
1.2007369e+04
5.8213452e+03
9.6649443e+03
1.0960934e+04
7.9182246e+03
6.1657583e+03
5.2539595e+03
4.2583110e+03
1.1545368e+04
1.2361972e+04
5.1205664e+03
2.2004045e+03
2.2069216e+03
9.6818926e+03
5.5318730e+03
3.6800527e+03
4.1850239e+03
3.4056365e+03
9.1826133e+03
6.5348833e+03
3.0945835e+03
1.2653976e+04
2.0989336e+03
9.8534736e+03
7.1541133e+03
9.9396777e+03
7.4666328e+03
4.8001558e+03
1.0195133e+04
3.0377222e+03
8.3776143e+03
9.6030518e+03
8.2501816e+03
3.5130776e+03
2.1735894e+03
2.8933474e+03
1.0514480e+04
8.7901670e+03
1.2572556e+04
3.8540007e+03
5.8020210e+03
1.3079021e+04
3.6204075e+03
8.1279126e+03
6.4323218e+03
8.9338291e+03
1.7286453e+03
1.2671390e+04
1.1964204e+04
5.2681738e+03
7.9850806e+03
3.5630046e+03
2.8941255e+03
6.9435044e+03
6.3512124e+03
2.0052075e+03
7.6751743e+03
3.6534314e+03
4.0845166e+03
6.3081450e+03
9.6682666e+03
1.2498524e+04
5.4821826e+03
9.7849170e+03
1.1716103e+04
7.8234360e+03
1.1694581e+04
5.3310317e+03
1.1193712e+04
1.2490555e+04
1.0902707e+04
3.4924641e+03
4.7257344e+03
8.5429688e+03
2.8891406e+03
2.1101716e+03
3.9474961e+03
4.8122026e+03
3.9363909e+03
8.5855840e+03
2.1405464e+03
5.0238521e+03
7.5031973e+03
3.7077556e+03
9.3125166e+03
7.5055479e+03
4.2127871e+03
8.5175488e+03
2.2469348e+03
7.9081445e+03
1.2505663e+04
2.9630867e+03
3.1735601e+03
1.0339335e+04
8.2267051e+03
1.1273453e+04
6.5333379e+03
1.2902166e+04
6.4503984e+03
2.4953198e+03
9.8060361e+03
3.3869868e+03
6.2084307e+03
8.2562881e+03
5.4126772e+03
1.6672495e+03
2.4772036e+03
1.0978947e+04
9.1310664e+03
5.2259668e+03
1.2340938e+04
9.5661826e+03
6.2287725e+03
1.9460823e+03
4.5854160e+03
9.4851611e+03
4.8678076e+03
6.3169707e+03
4.1357412e+03
9.1166377e+03
3.1105288e+03
1.2343692e+04
9.8122236e+03
8.7888018e+03
1.0778729e+04
7.7892002e+03
5.5055132e+03
3.7349236e+03
3.3788542e+03
7.3575166e+03
2.8436619e+03
1.1730550e+04
1.0895126e+04
3.6438862e+03
1.6102600e+03
3.7735706e+03
3.6999648e+03
7.4460161e+03
2.7808738e+03
7.1641343e+03
5.7798833e+03
3.7850916e+03
1.8302853e+03
6.7086514e+03
3.5210156e+03
1.9241726e+03
6.6774165e+03
1.0063900e+04
8.4118096e+03
2.0254128e+03
6.3013359e+03
5.8656987e+03
5.5976035e+03
9.5854531e+03
1.2149996e+04
1.0714800e+04
8.8546768e+03
1.1917532e+04
6.0813018e+03
1.0248974e+04
1.2131696e+04
5.3720938e+03
3.8721040e+03
7.8704517e+03
2.0302136e+03
2.9451921e+03
3.5795652e+03
4.9997397e+03
4.1713145e+03
1.7386530e+03
8.7985107e+03
9.6257168e+03
4.1033418e+03
7.5707036e+03
2.2012073e+03
1.0494989e+04
4.2423389e+03
7.7235591e+03
4.7966626e+03
1.1144565e+04
4.4253027e+03
2.8765046e+03
7.6236265e+03
3.9357280e+03
2.0965750e+03
8.4758057e+03
6.5834844e+03
1.1285497e+04
2.5583899e+03
9.5347842e+03
1.0710709e+04
7.6997798e+03
5.5205229e+03
6.4054219e+03
7.1653848e+03
1.1634982e+04
3.0882507e+03
1.6866808e+03
3.4940029e+03
9.7601299e+03
2.8029080e+03
3.9973704e+03
5.9364805e+03
4.1843296e+03
5.7451587e+03
1.9136647e+03
4.6825200e+03
1.2437392e+04
6.6874468e+03
2.6884246e+03
9.3748037e+03
1.0620270e+04
9.2428701e+03
3.2948660e+03
8.3247920e+03
3.4392034e+03
3.7123428e+03
4.1555903e+03
9.3506230e+03
2.0543521e+03
9.9835264e+03
7.0451377e+03
1.0648663e+04
8.3534043e+03
1.1659500e+04
6.5570669e+03
1.2550005e+04
4.5559185e+03
6.9020933e+03
6.9823906e+03
7.4349243e+03
7.0283174e+03
3.6658320e+03
1.5478743e+03
3.2036257e+03
2.8703535e+03
1.2321686e+04
1.0902955e+04
2.7092554e+03
7.1068350e+03
4.6977456e+03
9.9219004e+03
1.0770508e+04
2.0949539e+03
6.6011270e+03
9.0617568e+03
1.9509991e+03
5.7865806e+03
7.1024502e+03
3.4525706e+03
4.4040952e+03
2.9625596e+03
1.0639076e+04
1.0320866e+04
1.2042493e+04
8.4714395e+03
9.1198818e+03
1.0981658e+04
8.2292080e+03
1.1330226e+04
6.4250479e+03
3.5551831e+03
3.2825002e+03
3.9713406e+03
2.5394272e+03
3.9627629e+03
1.5755214e+03
1.0427624e+04
3.0826096e+03
1.7939817e+03
3.4609299e+03
4.8561772e+03
6.7919829e+03
6.8394487e+03
3.5126194e+03
6.9191401e+03
8.1075083e+03
9.2087695e+03
1.1440802e+04
4.2061875e+03
1.1318495e+04
5.7197129e+03
2.3069543e+03
1.0642670e+04
7.0179370e+03
1.0441510e+04
8.8181406e+03
1.1870205e+04
6.7373438e+03
1.2562764e+04
7.0390000e+03
8.4794033e+03
2.6240093e+03
1.7349529e+03
9.3562031e+03
1.0054676e+04
3.7709790e+03
3.6631414e+03
4.3180576e+03
1.0375639e+04
4.3288179e+03
1.2114759e+04
2.3757214e+03
6.9913438e+03
7.0984360e+03
8.4322256e+03
4.5782021e+03
1.9159362e+03
9.6226377e+03
2.4707319e+03
5.5342622e+03
6.3702222e+03
1.1929844e+04
9.6233037e+03
1.0928106e+04
8.1519399e+03
6.0166636e+03
3.1288059e+03
3.9223545e+03
4.3402036e+03
2.1250818e+03
1.4523169e+03
8.9576738e+03
2.4768608e+03
5.5769248e+03
7.8808086e+03
4.2885415e+03
7.4643696e+03
6.8285825e+03
3.3994680e+03
3.6196790e+03
3.7899043e+03
1.0235558e+04
2.9258638e+03
8.0263301e+03
1.1583931e+04
4.4410962e+03
3.4372815e+03
1.0455993e+04
1.0446854e+04
2.4349634e+03
9.2414004e+03
1.0827021e+04
1.1252925e+04
6.3952891e+03
9.3596699e+03
9.0288252e+03
1.1159240e+04
6.7608477e+03
1.2004642e+04
3.5898154e+03
1.0638264e+04
5.6404580e+03
1.6307411e+03
2.5371560e+03
1.1465556e+04
3.1921909e+03
2.2084021e+03
6.6511689e+03
6.8906055e+03
4.2759639e+03
4.1459224e+03
4.2080488e+03
8.1084438e+03
2.9096086e+03
8.2575117e+03
6.3934756e+03
8.9960898e+03
7.6206973e+03
9.2874854e+03
2.8917378e+03
1.7895278e+03
8.5853223e+03
4.0194182e+03
4.5019438e+03
2.4669077e+03
7.4604473e+03
2.5563052e+03
9.9536416e+03
3.5711709e+03
5.5110371e+03
1.0510665e+04
8.4022803e+03
1.1605148e+04
1.0094549e+04
1.1406355e+04
1.0164828e+04
1.0946648e+04
4.1061543e+03
8.0431021e+03
1.1578271e+04
5.7787661e+03
1.0540956e+04
3.1152825e+03
9.9619893e+03
3.4251440e+03
7.9045024e+03
4.9444141e+03
5.3584126e+03
5.8078350e+03
3.0478232e+03
2.7582922e+03
2.7338308e+03
9.0980361e+03
3.5305933e+03
7.1323218e+03
6.3500718e+03
2.8334246e+03
8.0257446e+03
1.0186465e+04
9.6840488e+03
2.3800264e+03
9.2758086e+03
5.2286650e+03
9.9513633e+03
5.1917798e+03
1.9908678e+03
1.0685392e+04
3.1699653e+03
5.5492236e+03
9.0365498e+03
2.4057334e+03
9.1427832e+03
1.0063793e+04
1.1638652e+04
1.0885090e+04
4.3967920e+03
1.1942526e+04
3.9530632e+03
7.0260874e+03
7.5827334e+03
1.0214864e+04
1.1905576e+04
1.0961313e+04
4.7509712e+03
8.8913281e+03
5.0161260e+03
7.7119307e+03
7.9954009e+03
3.8361887e+03
7.4827856e+03
3.1134783e+03
2.8744297e+03
3.1074551e+03
8.2872314e+03
6.5604907e+03
1.0783063e+04
2.7493662e+03
1.0428873e+04
3.3459153e+03
9.0925273e+03
9.5592822e+03
3.9354194e+03
6.8269839e+03
9.1490400e+03
3.6490632e+03
9.6144756e+03
1.1006046e+04
1.0843640e+04
2.8696389e+03
5.5495835e+03
4.5597622e+03
7.5661064e+03
5.5256694e+03
1.2122280e+04
5.7220654e+03
7.3611802e+03
4.9373779e+03
5.8342456e+03
4.9415918e+03
3.4378962e+03
3.2349087e+03
1.0401216e+04
1.2015292e+04
9.8725176e+03
6.0697617e+03
4.0108171e+03
1.0092428e+04
2.9987739e+03
3.8517012e+03
8.3865674e+03
8.6405703e+03
4.0679827e+03
3.8261418e+03
9.3701641e+03
4.3218447e+03
6.2408809e+03
8.7515791e+03
8.9553955e+03
3.1396465e+03
5.0337588e+03
1.1725798e+04
2.7274453e+03
5.3290430e+03
5.3729165e+03
6.0910698e+03
7.6561162e+03
4.2636025e+03
7.7100186e+03
1.0363677e+04
4.2395415e+03
1.2714761e+04
1.1316489e+04
1.1812306e+04
4.0935481e+03
7.8041104e+03
2.7638765e+03
8.8876191e+03
1.0605492e+04
3.9908689e+03
9.0893262e+03
6.6865630e+03
9.0502324e+03
8.4731924e+03
3.2283101e+03
5.7208496e+03
3.5346042e+03
5.2487612e+03
7.3837148e+03
4.4505737e+03
3.2318569e+03
1.0631373e+04
5.2015732e+03
4.6950503e+03
6.8680728e+03
1.0986300e+04
8.7291133e+03
2.7446057e+03
7.4186816e+03
2.3747756e+03
3.7176670e+03
1.0599665e+04
1.1112557e+04
8.0358071e+03
1.1493917e+04
4.8190293e+03
1.0741480e+04
7.6767256e+03
8.9598740e+03
2.1611030e+03
6.9042593e+03
4.4400005e+03
8.0095703e+03
3.5585295e+03
6.1804175e+03
3.1772830e+03
4.0382905e+03
8.6473037e+03
4.0796648e+03
4.5538730e+03
7.2987847e+03
2.6797578e+03
9.9784521e+03
6.8792627e+03
4.4867949e+03
8.0286079e+03
6.8146265e+03
1.1299462e+04
9.4779326e+03
3.4244216e+03
3.1404216e+03
1.0210805e+04
1.1026676e+04
5.6178857e+03
7.1523257e+03
8.4562041e+03
9.7988477e+03
2.8159189e+03
3.8458218e+03
5.6805181e+03
1.0354935e+04
3.4350642e+03
8.4502793e+03
2.6862488e+03
5.8455791e+03
3.3842690e+03
CELL_DATA 15905
FIELD FieldData 0
